SrTiFeO                                 
   1.00000000000000     
    11.1989999999999998    0.0000000000000000    0.0000000000000000
     0.0000000000000000   11.1989999999999998    0.0000000000000000
     0.0000000000000000    0.0000000000000000   15.9830000000000005
   Sr   Ti   O 
    32    32    94
Direct
 -0.0003245113215436  0.2502936307574561  0.1245768093163819
  0.0011711517955909  0.2464248905626331  0.6267340498631753
 -0.0007855608165725  0.7498778325514377  0.1248590711057442
  0.0058203139649600  0.7526985569975709  0.6275147980064775
  0.5000008045592762  0.2507129907461362  0.1252247111346305
  0.5017233761880321  0.2475102516340587  0.6256527338711392
  0.4994979973826388  0.7500175162385442  0.1235459091739030
  0.4973160929336456  0.7516474226878918  0.6281602164453461
  0.0011711517955909  0.2464248905626331  0.3732659501368250
 -0.0003245113215436  0.2502936307574561  0.8754231906836181
  0.0058203139649600  0.7526985569975709  0.3724852019935229
 -0.0007855608165725  0.7498778325514377  0.8751409288942555
  0.5017233761880321  0.2475102516340587  0.3743472661288608
  0.5000008045592762  0.2507129907461362  0.8747752888653694
  0.4973160929336456  0.7516474226878918  0.3718397835546539
  0.4994979973826388  0.7500175162385442  0.8764540908260972
  0.2499477038846140 -0.0002745313450438  0.1249512125655651
  0.2501446899667386 -0.0000592304906091  0.6256435749050441
  0.2495644799558791  0.5002271993673638  0.1249564042505852
  0.2488681009031547  0.5013597632771064  0.6264887909531955
  0.7494648970480036 -0.0009322181896562  0.1250781464639731
  0.7508345505947243  0.0026483623608305  0.6244473110543063
  0.7490039583235990  0.4991554760983107  0.1230926045241377
  0.7518443489619389  0.4925759129381742  0.6318593059390510
  0.2501446899667386 -0.0000592304906091  0.3743564250949560
  0.2499477038846140 -0.0002745313450438  0.8750487874344350
  0.2488681009031547  0.5013597632771064  0.3735112090468045
  0.2495644799558791  0.5002271993673638  0.8750435957494148
  0.7508345505947243  0.0026483623608305  0.3755526889456936
  0.7494648970480036 -0.0009322181896562  0.8749218535360269
  0.7518443489619389  0.4925759129381742  0.3681406940609488
  0.7490039583235990  0.4991554760983107  0.8769073954758626
 -0.0001476927372328 -0.0003734405870469  0.0000000000000000
 -0.0003668411941695 -0.0006085132653934  0.5000000000000000
  0.0005211512609884  0.4994105126633615  0.0000000000000000
  0.0032451855921219  0.4937314397071370  0.5000000000000000
  0.5003362321853027 -0.0000067763806123  0.0000000000000000
  0.4998606489415713 -0.0012922802324566  0.5000000000000000
  0.4990871607315856  0.4996143211118473  0.0000000000000000
  0.2500678673966848  0.2503186436964506  0.0000000000000000
  0.2509041255558525  0.2454135978864083  0.5000000000000000
  0.2496683790653948  0.7499885161719885  0.0000000000000000
  0.2509351027777186  0.7511864791704704  0.5000000000000000
  0.7503385962189562  0.2492613595808554  0.0000000000000000
  0.7507327922575356  0.2511254795410380  0.5000000000000000
  0.7498688595889629  0.7507948674867616  0.0000000000000000
  0.2504639562466860  0.2502337783494586  0.2502631780331562
  0.2504639562466860  0.2502337783494586  0.7497368219668437
  0.2503143493984556  0.7500733854719135  0.2492902449543082
  0.2503143493984556  0.7500733854719135  0.7507097550456919
  0.7501465872333540  0.2488560019500444  0.2492328489780850
  0.7501465872333540  0.2488560019500444  0.7507671510219149
  0.7501632230832279  0.7481608002440546  0.2499328865841918
  0.7501632230832279  0.7481608002440546  0.7500671134158080
  0.0000144308508191 -0.0000927931266780  0.2498721875928965
  0.0000144308508191 -0.0000927931266780  0.7501278124071038
 -0.0004877584789056  0.5006766511366590  0.2494321644524366
 -0.0004877584789056  0.5006766511366590  0.7505678355475631
  0.5003542965581590 -0.0001644394744961  0.2500515070374961
  0.5003542965581590 -0.0001644394744961  0.7499484929625039
  0.5004136024565422  0.5007835629711828  0.2497937652091551
  0.5004136024565422  0.5007835629711828  0.7502062347908450
  0.4934594900515124  0.4959143023586525  0.5000000000000000
  0.7492231180352141  0.7502025457035709  0.5000000000000000
  0.1097940604917310  0.1403357981886140  0.2486211976356541
  0.1097940604917310  0.1403357981886140  0.7513788023643460
  0.1094868084965198  0.6403831366297076  0.2495549032547712
  0.1094868084965198  0.6403831366297076  0.7504450967452291
  0.6100271681354706  0.1397022914763335  0.2498524151467952
  0.6100271681354706  0.1397022914763335  0.7501475848532044
  0.6090464962371925  0.6407012925533592  0.2463105210878188
  0.3904754886678538  0.3607053988792777  0.2537328616591965
  0.3904754886678538  0.3607053988792777  0.7462671383408035
  0.3901465069754309  0.8600291877113780  0.2491901220065129
  0.3901465069754309  0.8600291877113780  0.7508098779934870
  0.8901937759584247  0.3598584352957935  0.2518796884310388
  0.8901937759584247  0.3598584352957935  0.7481203115689612
  0.8896940782161095  0.8583092338218670  0.2537574074445937
  0.8896940782161095  0.8583092338218670  0.7462425925554065
  0.3600296246192736  0.1101987771443768  0.2488599111545664
  0.3600296246192736  0.1101987771443768  0.7511400888454338
  0.3594922413030894  0.6093971034728453  0.2510461911810711
  0.3594922413030894  0.6093971034728453  0.7489538088189289
  0.8594257181491248  0.1089317222010754  0.2502224380276083
  0.8594257181491248  0.1089317222010754  0.7497775619723918
  0.8590045536580184  0.6084034996140092  0.2441845173593904
  0.8590045536580184  0.6084034996140092  0.7558154826406095
  0.1393651988493161  0.3907880362710816  0.2535114529735424
  0.1393651988493161  0.3907880362710816  0.7464885470264576
  0.1397114494028245  0.8897772702463355  0.2508211240434088
  0.1397114494028245  0.8897772702463355  0.7491788759565913
  0.6395192128706623  0.3893903742603227  0.2485530156229406
  0.6410825284658358  0.8887202726172562  0.2555586403315200
  0.6410825284658358  0.8887202726172562  0.7444413596684798
  0.3589876351834356  0.3906816851989608  0.0000000000000000
  0.3595415501930974  0.8908953396753228  0.0000000000000000
  0.3555765130478569  0.8948066587938608  0.5000000000000000
  0.8598237412472527  0.3902645743392826  0.0000000000000000
  0.8551334483468336  0.3992004934930325  0.5000000000000000
  0.8592440492954074  0.8907496660140503  0.0000000000000000
  0.8625845352262762  0.8921325284383897  0.5000000000000000
  0.1409027899497097  0.1093188891585808  0.0000000000000000
  0.1423590250159395  0.1087170710420528  0.5000000000000000
  0.1403898551891863  0.6092863330348808  0.0000000000000000
  0.1362810126623821  0.6123890286740468  0.5000000000000000
  0.6409576879794788  0.1092448528033167  0.0000000000000000
  0.6405375647062630  0.1119883291531376  0.5000000000000000
  0.6399389512632242  0.6100891426056273  0.0000000000000000
  0.1095702086113692  0.3585782432018471  0.0000000000000000
  0.1072944490999170  0.3575162625190274  0.5000000000000000
  0.1092886299080697  0.8592804245795177  0.0000000000000000
  0.1093661198107267  0.8593520268121150  0.5000000000000000
  0.6098208823353679  0.3597432846745393  0.0000000000000000
  0.6091670783439171  0.8593515347736902  0.0000000000000000
  0.6038439804069454  0.8591372948623706  0.5000000000000000
  0.3908398379918087  0.1405921980695595  0.0000000000000000
  0.3930257299081910  0.1450852811574787  0.5000000000000000
  0.3903686367793385  0.6405477511194454  0.0000000000000000
  0.3950413379281743  0.6446835625958592  0.5000000000000000
  0.8913357749079652  0.1403752584834422  0.0000000000000000
  0.8920150828797295  0.1447459163291049  0.5000000000000000
  0.8899147957392672  0.6400272424129495  0.0000000000000000
 -0.0011658620403208 -0.0021790688382895  0.1253633077434257
  0.0010023239961747  0.0027748979575127  0.6250753723063951
  0.0022046374720037  0.4973494969821067  0.1249562065098585
 -0.0072392389474104  0.5103647474705332  0.6235165070399727
  0.5024875278604096 -0.0016668261136091  0.1253764143947068
  0.4977830759727009  0.0023337754027375  0.6249732253577124
  0.4978601693334030  0.4984623122484832  0.1250661683929513
  0.0010023239961747  0.0027748979575127  0.3749246276936053
 -0.0011658620403208 -0.0021790688382895  0.8746366922565745
 -0.0072392389474104  0.5103647474705332  0.3764834929600272
  0.0022046374720037  0.4973494969821067  0.8750437934901417
  0.4977830759727009  0.0023337754027375  0.3750267746422875
  0.5024875278604096 -0.0016668261136091  0.8746235856052932
  0.4978601693334030  0.4984623122484832  0.8749338316070486
  0.2493130113082595  0.2485532385672634  0.3752947692097947
  0.2507068077643552  0.2529074056723928  0.8744899319810581
  0.2504529546719585  0.7497718753239458  0.3749329230889194
  0.2500474763822541  0.7499906753992838  0.8749884428751838
  0.7493380449145490  0.2501898974521684  0.3749938211796541
  0.7512917874107434  0.2497453206419264  0.8750000902621639
  0.7522241113197945  0.7291158004640280  0.3771844237229323
  0.7497307495901330  0.7542044076766387  0.8748978480454399
  0.2507068077643552  0.2529074056723928  0.1255100680189419
  0.2493130113082595  0.2485532385672634  0.6247052307902055
  0.2500474763822541  0.7499906753992838  0.1250115571248161
  0.2504529546719585  0.7497718753239458  0.6250670769110803
  0.7512917874107434  0.2497453206419264  0.1249999097378360
  0.7493380449145490  0.2501898974521684  0.6250061788203457
  0.7497307495901330  0.7542044076766387  0.1251021519545602
  0.6395192128706623  0.3893903742603227  0.7514469843770593
  0.6090464962371925  0.6407012925533592  0.7536894789121812
  0.5082432176495848  0.5077451863315129  0.3765442152478169
  0.6110057446390634  0.3663248030639714  0.5000000000000000
  0.3536076020188330  0.3948017748342824  0.5000000000000000
  0.7522241113197945  0.7291158004640280  0.6228155762770676
  0.5082432176495848  0.5077451863315129  0.6234557847521829
 
  0.00000000E+00  0.00000000E+00  0.00000000E+00
  0.00000000E+00  0.00000000E+00  0.00000000E+00
  0.00000000E+00  0.00000000E+00  0.00000000E+00
  0.00000000E+00  0.00000000E+00  0.00000000E+00
  0.00000000E+00  0.00000000E+00  0.00000000E+00
  0.00000000E+00  0.00000000E+00  0.00000000E+00
  0.00000000E+00  0.00000000E+00  0.00000000E+00
  0.00000000E+00  0.00000000E+00  0.00000000E+00
  0.00000000E+00  0.00000000E+00  0.00000000E+00
  0.00000000E+00  0.00000000E+00  0.00000000E+00
  0.00000000E+00  0.00000000E+00  0.00000000E+00
  0.00000000E+00  0.00000000E+00  0.00000000E+00
  0.00000000E+00  0.00000000E+00  0.00000000E+00
  0.00000000E+00  0.00000000E+00  0.00000000E+00
  0.00000000E+00  0.00000000E+00  0.00000000E+00
  0.00000000E+00  0.00000000E+00  0.00000000E+00
  0.00000000E+00  0.00000000E+00  0.00000000E+00
  0.00000000E+00  0.00000000E+00  0.00000000E+00
  0.00000000E+00  0.00000000E+00  0.00000000E+00
  0.00000000E+00  0.00000000E+00  0.00000000E+00
  0.00000000E+00  0.00000000E+00  0.00000000E+00
  0.00000000E+00  0.00000000E+00  0.00000000E+00
  0.00000000E+00  0.00000000E+00  0.00000000E+00
  0.00000000E+00  0.00000000E+00  0.00000000E+00
  0.00000000E+00  0.00000000E+00  0.00000000E+00
  0.00000000E+00  0.00000000E+00  0.00000000E+00
  0.00000000E+00  0.00000000E+00  0.00000000E+00
  0.00000000E+00  0.00000000E+00  0.00000000E+00
  0.00000000E+00  0.00000000E+00  0.00000000E+00
  0.00000000E+00  0.00000000E+00  0.00000000E+00
  0.00000000E+00  0.00000000E+00  0.00000000E+00
  0.00000000E+00  0.00000000E+00  0.00000000E+00
  0.00000000E+00  0.00000000E+00  0.00000000E+00
  0.00000000E+00  0.00000000E+00  0.00000000E+00
  0.00000000E+00  0.00000000E+00  0.00000000E+00
  0.00000000E+00  0.00000000E+00  0.00000000E+00
  0.00000000E+00  0.00000000E+00  0.00000000E+00
  0.00000000E+00  0.00000000E+00  0.00000000E+00
  0.00000000E+00  0.00000000E+00  0.00000000E+00
  0.00000000E+00  0.00000000E+00  0.00000000E+00
  0.00000000E+00  0.00000000E+00  0.00000000E+00
  0.00000000E+00  0.00000000E+00  0.00000000E+00
  0.00000000E+00  0.00000000E+00  0.00000000E+00
  0.00000000E+00  0.00000000E+00  0.00000000E+00
  0.00000000E+00  0.00000000E+00  0.00000000E+00
  0.00000000E+00  0.00000000E+00  0.00000000E+00
  0.00000000E+00  0.00000000E+00  0.00000000E+00
  0.00000000E+00  0.00000000E+00  0.00000000E+00
  0.00000000E+00  0.00000000E+00  0.00000000E+00
  0.00000000E+00  0.00000000E+00  0.00000000E+00
  0.00000000E+00  0.00000000E+00  0.00000000E+00
  0.00000000E+00  0.00000000E+00  0.00000000E+00
  0.00000000E+00  0.00000000E+00  0.00000000E+00
  0.00000000E+00  0.00000000E+00  0.00000000E+00
  0.00000000E+00  0.00000000E+00  0.00000000E+00
  0.00000000E+00  0.00000000E+00  0.00000000E+00
  0.00000000E+00  0.00000000E+00  0.00000000E+00
  0.00000000E+00  0.00000000E+00  0.00000000E+00
  0.00000000E+00  0.00000000E+00  0.00000000E+00
  0.00000000E+00  0.00000000E+00  0.00000000E+00
  0.00000000E+00  0.00000000E+00  0.00000000E+00
  0.00000000E+00  0.00000000E+00  0.00000000E+00
  0.00000000E+00  0.00000000E+00  0.00000000E+00
  0.00000000E+00  0.00000000E+00  0.00000000E+00
  0.00000000E+00  0.00000000E+00  0.00000000E+00
  0.00000000E+00  0.00000000E+00  0.00000000E+00
  0.00000000E+00  0.00000000E+00  0.00000000E+00
  0.00000000E+00  0.00000000E+00  0.00000000E+00
  0.00000000E+00  0.00000000E+00  0.00000000E+00
  0.00000000E+00  0.00000000E+00  0.00000000E+00
  0.00000000E+00  0.00000000E+00  0.00000000E+00
  0.00000000E+00  0.00000000E+00  0.00000000E+00
  0.00000000E+00  0.00000000E+00  0.00000000E+00
  0.00000000E+00  0.00000000E+00  0.00000000E+00
  0.00000000E+00  0.00000000E+00  0.00000000E+00
  0.00000000E+00  0.00000000E+00  0.00000000E+00
  0.00000000E+00  0.00000000E+00  0.00000000E+00
  0.00000000E+00  0.00000000E+00  0.00000000E+00
  0.00000000E+00  0.00000000E+00  0.00000000E+00
  0.00000000E+00  0.00000000E+00  0.00000000E+00
  0.00000000E+00  0.00000000E+00  0.00000000E+00
  0.00000000E+00  0.00000000E+00  0.00000000E+00
  0.00000000E+00  0.00000000E+00  0.00000000E+00
  0.00000000E+00  0.00000000E+00  0.00000000E+00
  0.00000000E+00  0.00000000E+00  0.00000000E+00
  0.00000000E+00  0.00000000E+00  0.00000000E+00
  0.00000000E+00  0.00000000E+00  0.00000000E+00
  0.00000000E+00  0.00000000E+00  0.00000000E+00
  0.00000000E+00  0.00000000E+00  0.00000000E+00
  0.00000000E+00  0.00000000E+00  0.00000000E+00
  0.00000000E+00  0.00000000E+00  0.00000000E+00
  0.00000000E+00  0.00000000E+00  0.00000000E+00
  0.00000000E+00  0.00000000E+00  0.00000000E+00
  0.00000000E+00  0.00000000E+00  0.00000000E+00
  0.00000000E+00  0.00000000E+00  0.00000000E+00
  0.00000000E+00  0.00000000E+00  0.00000000E+00
  0.00000000E+00  0.00000000E+00  0.00000000E+00
  0.00000000E+00  0.00000000E+00  0.00000000E+00
  0.00000000E+00  0.00000000E+00  0.00000000E+00
  0.00000000E+00  0.00000000E+00  0.00000000E+00
  0.00000000E+00  0.00000000E+00  0.00000000E+00
  0.00000000E+00  0.00000000E+00  0.00000000E+00
  0.00000000E+00  0.00000000E+00  0.00000000E+00
  0.00000000E+00  0.00000000E+00  0.00000000E+00
  0.00000000E+00  0.00000000E+00  0.00000000E+00
  0.00000000E+00  0.00000000E+00  0.00000000E+00
  0.00000000E+00  0.00000000E+00  0.00000000E+00
  0.00000000E+00  0.00000000E+00  0.00000000E+00
  0.00000000E+00  0.00000000E+00  0.00000000E+00
  0.00000000E+00  0.00000000E+00  0.00000000E+00
  0.00000000E+00  0.00000000E+00  0.00000000E+00
  0.00000000E+00  0.00000000E+00  0.00000000E+00
  0.00000000E+00  0.00000000E+00  0.00000000E+00
  0.00000000E+00  0.00000000E+00  0.00000000E+00
  0.00000000E+00  0.00000000E+00  0.00000000E+00
  0.00000000E+00  0.00000000E+00  0.00000000E+00
  0.00000000E+00  0.00000000E+00  0.00000000E+00
  0.00000000E+00  0.00000000E+00  0.00000000E+00
  0.00000000E+00  0.00000000E+00  0.00000000E+00
  0.00000000E+00  0.00000000E+00  0.00000000E+00
  0.00000000E+00  0.00000000E+00  0.00000000E+00
  0.00000000E+00  0.00000000E+00  0.00000000E+00
  0.00000000E+00  0.00000000E+00  0.00000000E+00
  0.00000000E+00  0.00000000E+00  0.00000000E+00
  0.00000000E+00  0.00000000E+00  0.00000000E+00
  0.00000000E+00  0.00000000E+00  0.00000000E+00
  0.00000000E+00  0.00000000E+00  0.00000000E+00
  0.00000000E+00  0.00000000E+00  0.00000000E+00
  0.00000000E+00  0.00000000E+00  0.00000000E+00
  0.00000000E+00  0.00000000E+00  0.00000000E+00
  0.00000000E+00  0.00000000E+00  0.00000000E+00
  0.00000000E+00  0.00000000E+00  0.00000000E+00
  0.00000000E+00  0.00000000E+00  0.00000000E+00
  0.00000000E+00  0.00000000E+00  0.00000000E+00
  0.00000000E+00  0.00000000E+00  0.00000000E+00
  0.00000000E+00  0.00000000E+00  0.00000000E+00
  0.00000000E+00  0.00000000E+00  0.00000000E+00
  0.00000000E+00  0.00000000E+00  0.00000000E+00
  0.00000000E+00  0.00000000E+00  0.00000000E+00
  0.00000000E+00  0.00000000E+00  0.00000000E+00
  0.00000000E+00  0.00000000E+00  0.00000000E+00
  0.00000000E+00  0.00000000E+00  0.00000000E+00
  0.00000000E+00  0.00000000E+00  0.00000000E+00
  0.00000000E+00  0.00000000E+00  0.00000000E+00
  0.00000000E+00  0.00000000E+00  0.00000000E+00
  0.00000000E+00  0.00000000E+00  0.00000000E+00
  0.00000000E+00  0.00000000E+00  0.00000000E+00
  0.00000000E+00  0.00000000E+00  0.00000000E+00
  0.00000000E+00  0.00000000E+00  0.00000000E+00
  0.00000000E+00  0.00000000E+00  0.00000000E+00
  0.00000000E+00  0.00000000E+00  0.00000000E+00
  0.00000000E+00  0.00000000E+00  0.00000000E+00
  0.00000000E+00  0.00000000E+00  0.00000000E+00
  0.00000000E+00  0.00000000E+00  0.00000000E+00
  0.00000000E+00  0.00000000E+00  0.00000000E+00
  0.00000000E+00  0.00000000E+00  0.00000000E+00
  0.00000000E+00  0.00000000E+00  0.00000000E+00
  0.00000000E+00  0.00000000E+00  0.00000000E+00
