SrTiFeO                                 
   1.00000000000000     
    11.1989999999999998    0.0000000000000000    0.0000000000000000
     0.0000000000000000   11.1989999999999998    0.0000000000000000
     0.0000000000000000    0.0000000000000000   15.9830000000000005
   Sr   Ti   O 
    32    32    94
Direct
  0.9998219469491997  0.2500186491531863  0.1246050660521897
  0.9999512835385326  0.2458752610630672  0.6267420722398140
  0.9997424631964884  0.7501044949548165  0.1243635816523733
  0.0038190879461715  0.7547943550164863  0.6279498927333882
  0.5000686662937580  0.2488023260742377  0.1248560326458307
  0.5000319336962117  0.2429544612798937  0.6262204739166972
  0.5003273270442812  0.7510241184069267  0.1245555556858336
  0.4963852988089261  0.7572727285444447  0.6266338907302130
  0.9999272894233316  0.2465745757828506  0.3732281994127234
  0.9997755088547130  0.2502306182598562  0.8752862423287751
  0.0037541789080172  0.7540082333205481  0.3721971404279223
  0.9997382161352836  0.7499424556311898  0.8755527672506511
  0.5007035843652360  0.2481378880559633  0.3732626255498427
  0.4995661729485172  0.2476645231895320  0.8758419468982692
  0.4968631216738507  0.7520394255942214  0.3726829994180452
  0.5004814621831398  0.7520983964008258  0.8763032882895301
  0.2498825621999768  0.0003073748935099  0.1248471172359677
  0.2489801759370803  0.0003111990797552  0.6255023782029768
  0.2484566244458295  0.4996474621255000  0.1248758144304811
  0.2439389096154655  0.5017976560190005  0.6255750404550033
  0.7500811470286050  0.9993943176235520  0.1250133094981390
  0.7523360818742770  0.0019962358071541  0.6256688685213808
  0.7509382468510779  0.4995858502550694  0.1238723813696938
  0.7550158827506517  0.4980815353721953  0.6283764916463297
  0.2500526214954795  0.0001866834025110  0.3744055750179945
  0.2500542608989780  0.0003091719943508  0.8750741759108404
  0.2499475684443810  0.5006926039423015  0.3735444226541170
  0.2471803387567012  0.5002056971072795  0.8757584969764812
  0.7514949693169192  0.0022038319019498  0.3744903691042993
  0.7498936574100673  0.9992683861792679  0.8749565109731396
  0.7501804722674857  0.4985685053699520  0.3710774522270299
  0.7518976065708552  0.4993387271673350  0.8769820903833255
  0.0002011752371176  0.0000318378462737  0.9997948773479505
  0.0010835156545553  0.0002240139368543  0.4996192952660722
  0.0003306040008175  0.4997270447821555  0.0001944804162459
  0.0036215738016944  0.4932297355022401  0.4994792729487123
  0.5002419626681248  0.9998998505760468  0.0001837794352047
  0.4988897123716461  0.0020367008064373  0.4996105349548971
  0.4998829096418620  0.4999987861373321  0.0017427935795183
  0.2500398532943107  0.2504311997321616  0.9999572174912010
  0.2521000532321757  0.2488867741402516  0.5004325720233942
  0.2503163264334438  0.7499607040769899 -0.0000137900823861
  0.2500344933948314  0.7510502258083259  0.5003718937527902
  0.7498787357871308  0.2498306294224754 -0.0000022315245753
  0.7494815088930934  0.2508704115827978  0.5004765766772721
  0.7495381082809168  0.7500541867439239  1.0000189713916658
  0.2503385736596129  0.2505322962683222  0.2500458967505752
  0.2498886174101469  0.2505122539920671  0.7493374956816633
  0.2503990167768817  0.7496677692632858  0.2493064113927920
  0.2501830221094750  0.7502203683602190  0.7500811545780752
  0.7499229651299582  0.2501363844677443  0.2495987144469659
  0.7500174474371040  0.2498219923616659  0.7499396303228495
  0.7504297401621826  0.7491040062407719  0.2499727445179704
  0.7506673281156896  0.7491957064602917  0.7495176052851115
  0.0000968469210863  0.0000748580558283  0.2497505889252108
  0.0000616624736985  0.0002749636225570  0.7511947798277290
  0.9994109929476557  0.5007467554479771  0.2498648443604032
  0.9992839059365971  0.5007377724157441  0.7505730779028009
  0.5002566440368814  0.9999237595617437  0.2500451397508722
  0.5001517732316605  0.9999947227085183  0.7502616569875636
  0.4999455145274899  0.5001271039598109  0.2476407991214647
  0.4998491658745356  0.5001388182542816  0.7552032578784761
  0.5006819451787635  0.4994427827571463  0.4951079738563933
  0.7432582406789595  0.7536784620689538  0.5006167737007661
  0.1099626622927436  0.1407324702519869  0.2509076454617071
  0.1097481135597509  0.1405319537864680  0.7511272222269004
  0.1092889919342087  0.6408335907900460  0.2502800566989930
  0.1101308310230458  0.6400551508855616  0.7499749469263918
  0.6098806258130366  0.1401855535309877  0.2502908930637474
  0.6103232186115306  0.1396573214317106  0.7501130956222767
  0.6086789397548360  0.6408423715136643  0.2511299005748718
  0.3909962771582733  0.3597560453224777  0.2498499145068523
  0.3913818261617988  0.3621599750799429  0.7428118805577341
  0.3908076931489063  0.8591715827660633  0.2499164591116655
  0.3902268277851275  0.8598406038549311  0.7506980674856175
  0.8906932335730410  0.3595475276655091  0.2515158695932272
  0.8899900368719698  0.3601481426148990  0.7486356639546587
  0.8904309373050587  0.8590600095749050  0.2508539489683291
  0.8903912480452139  0.8592468577111744  0.7510822692561139
  0.3597385466184997  0.1097282597316952  0.2502905979756530
  0.3604368576779644  0.1104989645665357  0.7499926841955830
  0.3591380135106886  0.6085997894463739  0.2497935563692908
  0.3616061787798605  0.6083210113828199  0.7428239203240068
  0.8594693080423943  0.1098318667114817  0.2511344183927215
  0.8596187577139651  0.1096887110566252  0.7508989542337625
  0.8586396170311001  0.6086124835514259  0.2463608148954768
  0.8590545721358138  0.6089176311112039  0.7539919094036368
  0.1396526937880003  0.3915031203236018  0.2536168646781530
  0.1391004066692627  0.3909497856855788  0.7468735332613224
  0.1405750382929094  0.8898950794632723  0.2517042803941316
  0.1401978305314750  0.8899542324631402  0.7500699643647200
  0.6401188394657091  0.3907637963241893  0.2491588679398110
  0.6412949939441885  0.8893820398305002  0.2541873219361556
  0.6406696780465376  0.8885904414618765  0.7459794552547836
  0.3594064155997590  0.3914385453037712  0.0001126197870462
  0.3594909080913811  0.8907411567969574  0.9995458712805646
  0.3596071642311790  0.8905924036391133  0.5001049952580328
  0.8594982215670200  0.3906344833405504  1.0000059275079067
  0.8553997519408525  0.3968106435816158  0.4996581075502960
  0.8592745945130725  0.8901647835536539  0.9991363715379373
  0.8636154338065906  0.8825602163771394  0.4991015963082736
  0.1409581144936702  0.1097919526067063  0.9991510320504422
  0.1412105296409673  0.1092397427769894  0.4991189192629682
  0.1406896471728587  0.6092875931227066  1.0000022498280297
  0.1327152558598269  0.6138526253613227  0.4997776936230685
  0.6407559231324041  0.1094547055684716  0.9996037928083106
  0.6413673089398214  0.1083676784987185  0.5001607513418989
  0.6406755057994663  0.6088734437042245  0.0001485642114683
  0.1094288984873489  0.3593036909354675  0.9995334662531787
  0.1076602743659266  0.3575895956609025  0.5000731130394730
  0.1097424076993887  0.8592130015509454  0.9991549039097962
  0.1109356760144089  0.8607289260474235  0.4991812286283594
  0.6087666191956923  0.3593507680320789  0.0001152415248627
  0.6092079631737042  0.8592369652263726  0.9999830768195659
  0.6074616684628177  0.8575262777467904  0.4997957376352026
  0.3906749072931885  0.1406258927856952  0.9999947105219520
  0.3916026071045980  0.1416675243276063  0.4996898477439821
  0.3913277249100976  0.6408641660249782  0.0001152913491741
  0.3919125218407571  0.6382065981345946  0.5071295569926842
  0.8904377745874579  0.1407371736961162  0.9991199033902791
  0.8901520707435335  0.1405400749500981  0.4991525769568015
  0.8902838877124100  0.6403219109306918  0.9996127640053193
  0.0003480670568197  0.9998898597486934  0.1250699249286234
  0.9993472932425669  0.0006519112375401  0.6249869874394168
  0.0014957405500177  0.4985063237160474  0.1252734994402419
  0.9929986287840217  0.5092628430221673  0.6229073424542745
  0.5015844456555580  0.9990954659217236  0.1254250766668001
  0.4992073815777914  0.0002151308455015  0.6244797615762295
  0.5001735549482436  0.5006907925528830  0.1249162388320476
  0.9993834185179978  0.0005638845311594  0.3752175630827179
  0.0003701591656725  0.9997948682836225  0.8749147329499071
  0.9922195842380302  0.5094817691370533  0.3769792419035305
  0.0014406768926107  0.4985249806678611  0.8748144511871287
  0.4993388743999799  0.0002633203333259  0.3755243975622835
  0.5016687357103565  0.9991270128755746  0.8746581048825571
  0.5002605264936069  0.5007669950393834  0.8747592308221457
  0.2527454260998048  0.2528848375463021  0.3763398711967080
  0.2525608521648608  0.2539574629191628  0.8736958713398292
  0.2537555968336602  0.7468044968928359  0.3759032971684987
  0.2523876298378256  0.7468534132865549  0.8741201593067855
  0.7468569598619205  0.2523510052603498  0.3760614125359299
  0.7480349579890506  0.2533872405254921  0.8740951684298091
  0.7571052580228611  0.7386258630159361  0.3780609403441234
  0.7450519861147187  0.7487615931910113  0.8738052455791308
  0.2489156316666647  0.2513669553047960  0.1253564628912711
  0.2473596632509838  0.2464903423605104  0.6245208166752698
  0.2497518863924333  0.7504926321523958  0.1249781438170585
  0.2477913554722113  0.7525489744062055  0.6249670601824663
  0.7506902208709821  0.2498543206782237  0.1250502268963613
  0.7530506707509866  0.2471526044798003  0.6248234807310737
  0.7486074571490501  0.7515955700782546  0.1253002845102199
  0.6376920341422599  0.3910017384085388  0.7438005698239948
  0.6081767100794563  0.6381485510424487  0.7413949573285253
  0.4993858272084470  0.4999719600032635  0.3751913899314986
  0.6052089709373161  0.3588260907629274  0.5069356922198838
  0.3594886903824577  0.3935069656567681  0.5069437387340147
  0.7626129966190416  0.7442395064059260  0.6229241001830905
  0.6436569561230214  0.6046131812074700  0.5062326088864197
 
  0.00000000E+00  0.00000000E+00  0.00000000E+00
  0.00000000E+00  0.00000000E+00  0.00000000E+00
  0.00000000E+00  0.00000000E+00  0.00000000E+00
  0.00000000E+00  0.00000000E+00  0.00000000E+00
  0.00000000E+00  0.00000000E+00  0.00000000E+00
  0.00000000E+00  0.00000000E+00  0.00000000E+00
  0.00000000E+00  0.00000000E+00  0.00000000E+00
  0.00000000E+00  0.00000000E+00  0.00000000E+00
  0.00000000E+00  0.00000000E+00  0.00000000E+00
  0.00000000E+00  0.00000000E+00  0.00000000E+00
  0.00000000E+00  0.00000000E+00  0.00000000E+00
  0.00000000E+00  0.00000000E+00  0.00000000E+00
  0.00000000E+00  0.00000000E+00  0.00000000E+00
  0.00000000E+00  0.00000000E+00  0.00000000E+00
  0.00000000E+00  0.00000000E+00  0.00000000E+00
  0.00000000E+00  0.00000000E+00  0.00000000E+00
  0.00000000E+00  0.00000000E+00  0.00000000E+00
  0.00000000E+00  0.00000000E+00  0.00000000E+00
  0.00000000E+00  0.00000000E+00  0.00000000E+00
  0.00000000E+00  0.00000000E+00  0.00000000E+00
  0.00000000E+00  0.00000000E+00  0.00000000E+00
  0.00000000E+00  0.00000000E+00  0.00000000E+00
  0.00000000E+00  0.00000000E+00  0.00000000E+00
  0.00000000E+00  0.00000000E+00  0.00000000E+00
  0.00000000E+00  0.00000000E+00  0.00000000E+00
  0.00000000E+00  0.00000000E+00  0.00000000E+00
  0.00000000E+00  0.00000000E+00  0.00000000E+00
  0.00000000E+00  0.00000000E+00  0.00000000E+00
  0.00000000E+00  0.00000000E+00  0.00000000E+00
  0.00000000E+00  0.00000000E+00  0.00000000E+00
  0.00000000E+00  0.00000000E+00  0.00000000E+00
  0.00000000E+00  0.00000000E+00  0.00000000E+00
  0.00000000E+00  0.00000000E+00  0.00000000E+00
  0.00000000E+00  0.00000000E+00  0.00000000E+00
  0.00000000E+00  0.00000000E+00  0.00000000E+00
  0.00000000E+00  0.00000000E+00  0.00000000E+00
  0.00000000E+00  0.00000000E+00  0.00000000E+00
  0.00000000E+00  0.00000000E+00  0.00000000E+00
  0.00000000E+00  0.00000000E+00  0.00000000E+00
  0.00000000E+00  0.00000000E+00  0.00000000E+00
  0.00000000E+00  0.00000000E+00  0.00000000E+00
  0.00000000E+00  0.00000000E+00  0.00000000E+00
  0.00000000E+00  0.00000000E+00  0.00000000E+00
  0.00000000E+00  0.00000000E+00  0.00000000E+00
  0.00000000E+00  0.00000000E+00  0.00000000E+00
  0.00000000E+00  0.00000000E+00  0.00000000E+00
  0.00000000E+00  0.00000000E+00  0.00000000E+00
  0.00000000E+00  0.00000000E+00  0.00000000E+00
  0.00000000E+00  0.00000000E+00  0.00000000E+00
  0.00000000E+00  0.00000000E+00  0.00000000E+00
  0.00000000E+00  0.00000000E+00  0.00000000E+00
  0.00000000E+00  0.00000000E+00  0.00000000E+00
  0.00000000E+00  0.00000000E+00  0.00000000E+00
  0.00000000E+00  0.00000000E+00  0.00000000E+00
  0.00000000E+00  0.00000000E+00  0.00000000E+00
  0.00000000E+00  0.00000000E+00  0.00000000E+00
  0.00000000E+00  0.00000000E+00  0.00000000E+00
  0.00000000E+00  0.00000000E+00  0.00000000E+00
  0.00000000E+00  0.00000000E+00  0.00000000E+00
  0.00000000E+00  0.00000000E+00  0.00000000E+00
  0.00000000E+00  0.00000000E+00  0.00000000E+00
  0.00000000E+00  0.00000000E+00  0.00000000E+00
  0.00000000E+00  0.00000000E+00  0.00000000E+00
  0.00000000E+00  0.00000000E+00  0.00000000E+00
  0.00000000E+00  0.00000000E+00  0.00000000E+00
  0.00000000E+00  0.00000000E+00  0.00000000E+00
  0.00000000E+00  0.00000000E+00  0.00000000E+00
  0.00000000E+00  0.00000000E+00  0.00000000E+00
  0.00000000E+00  0.00000000E+00  0.00000000E+00
  0.00000000E+00  0.00000000E+00  0.00000000E+00
  0.00000000E+00  0.00000000E+00  0.00000000E+00
  0.00000000E+00  0.00000000E+00  0.00000000E+00
  0.00000000E+00  0.00000000E+00  0.00000000E+00
  0.00000000E+00  0.00000000E+00  0.00000000E+00
  0.00000000E+00  0.00000000E+00  0.00000000E+00
  0.00000000E+00  0.00000000E+00  0.00000000E+00
  0.00000000E+00  0.00000000E+00  0.00000000E+00
  0.00000000E+00  0.00000000E+00  0.00000000E+00
  0.00000000E+00  0.00000000E+00  0.00000000E+00
  0.00000000E+00  0.00000000E+00  0.00000000E+00
  0.00000000E+00  0.00000000E+00  0.00000000E+00
  0.00000000E+00  0.00000000E+00  0.00000000E+00
  0.00000000E+00  0.00000000E+00  0.00000000E+00
  0.00000000E+00  0.00000000E+00  0.00000000E+00
  0.00000000E+00  0.00000000E+00  0.00000000E+00
  0.00000000E+00  0.00000000E+00  0.00000000E+00
  0.00000000E+00  0.00000000E+00  0.00000000E+00
  0.00000000E+00  0.00000000E+00  0.00000000E+00
  0.00000000E+00  0.00000000E+00  0.00000000E+00
  0.00000000E+00  0.00000000E+00  0.00000000E+00
  0.00000000E+00  0.00000000E+00  0.00000000E+00
  0.00000000E+00  0.00000000E+00  0.00000000E+00
  0.00000000E+00  0.00000000E+00  0.00000000E+00
  0.00000000E+00  0.00000000E+00  0.00000000E+00
  0.00000000E+00  0.00000000E+00  0.00000000E+00
  0.00000000E+00  0.00000000E+00  0.00000000E+00
  0.00000000E+00  0.00000000E+00  0.00000000E+00
  0.00000000E+00  0.00000000E+00  0.00000000E+00
  0.00000000E+00  0.00000000E+00  0.00000000E+00
  0.00000000E+00  0.00000000E+00  0.00000000E+00
  0.00000000E+00  0.00000000E+00  0.00000000E+00
  0.00000000E+00  0.00000000E+00  0.00000000E+00
  0.00000000E+00  0.00000000E+00  0.00000000E+00
  0.00000000E+00  0.00000000E+00  0.00000000E+00
  0.00000000E+00  0.00000000E+00  0.00000000E+00
  0.00000000E+00  0.00000000E+00  0.00000000E+00
  0.00000000E+00  0.00000000E+00  0.00000000E+00
  0.00000000E+00  0.00000000E+00  0.00000000E+00
  0.00000000E+00  0.00000000E+00  0.00000000E+00
  0.00000000E+00  0.00000000E+00  0.00000000E+00
  0.00000000E+00  0.00000000E+00  0.00000000E+00
  0.00000000E+00  0.00000000E+00  0.00000000E+00
  0.00000000E+00  0.00000000E+00  0.00000000E+00
  0.00000000E+00  0.00000000E+00  0.00000000E+00
  0.00000000E+00  0.00000000E+00  0.00000000E+00
  0.00000000E+00  0.00000000E+00  0.00000000E+00
  0.00000000E+00  0.00000000E+00  0.00000000E+00
  0.00000000E+00  0.00000000E+00  0.00000000E+00
  0.00000000E+00  0.00000000E+00  0.00000000E+00
  0.00000000E+00  0.00000000E+00  0.00000000E+00
  0.00000000E+00  0.00000000E+00  0.00000000E+00
  0.00000000E+00  0.00000000E+00  0.00000000E+00
  0.00000000E+00  0.00000000E+00  0.00000000E+00
  0.00000000E+00  0.00000000E+00  0.00000000E+00
  0.00000000E+00  0.00000000E+00  0.00000000E+00
  0.00000000E+00  0.00000000E+00  0.00000000E+00
  0.00000000E+00  0.00000000E+00  0.00000000E+00
  0.00000000E+00  0.00000000E+00  0.00000000E+00
  0.00000000E+00  0.00000000E+00  0.00000000E+00
  0.00000000E+00  0.00000000E+00  0.00000000E+00
  0.00000000E+00  0.00000000E+00  0.00000000E+00
  0.00000000E+00  0.00000000E+00  0.00000000E+00
  0.00000000E+00  0.00000000E+00  0.00000000E+00
  0.00000000E+00  0.00000000E+00  0.00000000E+00
  0.00000000E+00  0.00000000E+00  0.00000000E+00
  0.00000000E+00  0.00000000E+00  0.00000000E+00
  0.00000000E+00  0.00000000E+00  0.00000000E+00
  0.00000000E+00  0.00000000E+00  0.00000000E+00
  0.00000000E+00  0.00000000E+00  0.00000000E+00
  0.00000000E+00  0.00000000E+00  0.00000000E+00
  0.00000000E+00  0.00000000E+00  0.00000000E+00
  0.00000000E+00  0.00000000E+00  0.00000000E+00
  0.00000000E+00  0.00000000E+00  0.00000000E+00
  0.00000000E+00  0.00000000E+00  0.00000000E+00
  0.00000000E+00  0.00000000E+00  0.00000000E+00
  0.00000000E+00  0.00000000E+00  0.00000000E+00
  0.00000000E+00  0.00000000E+00  0.00000000E+00
  0.00000000E+00  0.00000000E+00  0.00000000E+00
  0.00000000E+00  0.00000000E+00  0.00000000E+00
  0.00000000E+00  0.00000000E+00  0.00000000E+00
  0.00000000E+00  0.00000000E+00  0.00000000E+00
  0.00000000E+00  0.00000000E+00  0.00000000E+00
  0.00000000E+00  0.00000000E+00  0.00000000E+00
  0.00000000E+00  0.00000000E+00  0.00000000E+00
  0.00000000E+00  0.00000000E+00  0.00000000E+00
  0.00000000E+00  0.00000000E+00  0.00000000E+00
  0.00000000E+00  0.00000000E+00  0.00000000E+00
  0.00000000E+00  0.00000000E+00  0.00000000E+00
