Sr   Ti   Fe   O                        
   1.00000000000000     
    11.1989999999999998    0.0000000000000000    0.0000000000000000
     0.0000000000000000   11.1989999999999998    0.0000000000000000
     0.0000000000000000    0.0000000000000000   15.9830000000000005
   Sr   Ti   Fe   O 
    32    30     2    94
Direct
 -0.0000515123053317  0.2497457113986611  0.1251499676922376
  0.9993033743341267  0.2516345182776020  0.6245633153323549
  0.9974846576875143  0.7506215695105928  0.1256827175787620
  0.9970457348504435  0.7483956755882542  0.6230874793668510
  0.5009106986621852  0.2500421069850846  0.1229548447878577
  0.5012851179579535  0.2445163304556425  0.6325129207791854
  0.5003954230083425  0.7485501569820353  0.1247264306089837
  0.4985121077638366  0.7599335565190415  0.6283993358380556
  0.9993033743341267  0.2516345182776020  0.3754366846676451
 -0.0000515123053317  0.2497457113986611  0.8748500323077616
  0.9970457348504435  0.7483956755882542  0.3769125206331492
  0.9974846576875143  0.7506215695105928  0.8743172824212375
  0.5012851179579535  0.2445163304556425  0.3674870792208151
  0.5009106986621852  0.2500421069850846  0.8770451552121417
  0.4985121077638366  0.7599335565190415  0.3716006641619442
  0.5003954230083425  0.7485501569820353  0.8752735693910157
  0.2494178142738286  0.0001542683764473  0.1242637819197851
  0.2479284557690544  0.9970008167056422  0.6285564491209799
  0.2512443713245702  0.4995383414615358  0.1235345753406593
  0.2415730119410459  0.5041562426691795  0.6305722189539190
  0.7495328599829125  0.9998108065650699  0.1261470449976407
  0.7478974163803900  0.9994607377431916  0.6225832929411063
  0.7482870168665574  0.5000378478973546  0.1244583812915515
  0.7634261482250352  0.4956305826913041  0.6284658393943668
  0.2479284557690544  0.9970008167056422  0.3714435508790215
  0.2494178142738286  0.0001542683764473  0.8757362180802151
  0.2415730119410459  0.5041562426691795  0.3694277810460816
  0.2512443713245702  0.4995383414615358  0.8764654246593392
  0.7478974163803900  0.9994607377431916  0.3774167070588950
  0.7495328599829125  0.9998108065650699  0.8738529550023592
  0.7634261482250352  0.4956305826913041  0.3715341606056318
  0.7482870168665574  0.5000378478973546  0.8755416187084486
  0.9990082944309927  0.0001942557156456 -0.0000000000000000
  0.9956835877177008  0.9947672323776241  0.5000000000000000
 -0.0000577317258763  0.5003230580513774 -0.0000000000000000
  1.0026004034576352  0.5009755357431903  0.5000000000000000
  0.4999061673221823  0.9995338452013444 -0.0000000000000000
  0.5015609498307789  1.0024194152475170  0.5000000000000000
  0.5000135619100173  0.5003055971185418 -0.0000000000000000
  0.2490395525238865  0.2491241259416395 -0.0000000000000000
  0.2469236866543567  0.2395018923178030  0.5000000000000000
  0.2490962318687351  0.7500957081702422 -0.0000000000000000
  0.2504689386321145  0.7542962116835931  0.5000000000000000
  0.7508612922582761  0.2498572243934242 -0.0000000000000000
  0.7492066751747853  0.7503145693965503 -0.0000000000000000
  0.2503272639039845  0.2506054807521853  0.2491942205085537
  0.2503272639039845  0.2506054807521853  0.7508057794914517
  0.2488777556091510  0.7503441758586423  0.2489102806466572
  0.2488777556091510  0.7503441758586423  0.7510897193533425
  0.7495862299560004  0.2503122048466707  0.2515196585915436
  0.7495862299560004  0.2503122048466707  0.7484803414084559
  0.7482790086920125  0.7483650248926014  0.2527024008713273
  0.7482790086920125  0.7483650248926014  0.7472975991286722
  0.9988666313764945  1.0000057217430325  0.2510873746496706
  0.9988666313764945  1.0000057217430325  0.7489126253503294
  1.0004610320141125  0.5002162582735035  0.2480513347112534
  1.0004610320141125  0.5002162582735035  0.7519486652887466
  0.4993222988051080  0.0000910756194289  0.2486568427575406
  0.4993222988051080  0.0000910756194289  0.7513431572424594
  0.4978485521620372  0.4989717594595937  0.2504544316990651
  0.4978485521620372  0.4989717594595937  0.7495455683009358
  0.4967478834561119  0.5076211897712657  0.5000000000000000
  0.7629673023718132  0.2446292406065651  0.5000000000000000
  0.7521482837191207  0.7506902357013769  0.5000000000000000
  0.1101342422181330  0.1411024734580379  0.2531479397730941
  0.1101342422181330  0.1411024734580379  0.7468520602269063
  0.1097947183586859  0.6407936286653195  0.2509143344837452
  0.1097947183586859  0.6407936286653195  0.7490856655162553
  0.6102245542752063  0.1394004994827225  0.2478214689789051
  0.6102245542752063  0.1394004994827225  0.7521785310210947
  0.6061506647069208  0.6375845600263507  0.2515736145198381
  0.6061506647069208  0.6375845600263507  0.7484263854801610
  0.3896157042233237  0.3582714081881579  0.2431941018221433
  0.3896157042233237  0.3582714081881579  0.7568058981778569
  0.3888834863095832  0.8608791855592676  0.2482333447803678
  0.3888834863095832  0.8608791855592676  0.7517666552196327
  0.8899598636746640  0.3607397120002998  0.2507684744198639
  0.8899598636746640  0.3607397120002998  0.7492315255801356
  0.8878746325744431  0.8601857227396739  0.2527035519669394
  0.8878746325744431  0.8601857227396739  0.7472964480330603
  0.3594863553766468  0.1104131851526186  0.2497093019252725
  0.3594863553766468  0.1104131851526186  0.7502906980747274
  0.3582201373906576  0.6099706391285992  0.2488751325232537
  0.3582201373906576  0.6099706391285992  0.7511248674767550
  0.8591742743333273  0.1107303468699970  0.2537447509427119
  0.8591742743333273  0.1107303468699970  0.7462552490572880
  0.8611569337219094  0.6103508797930457  0.2467218723911101
  0.8611569337219094  0.6103508797930457  0.7532781276088903
  0.1406173883417490  0.3904752070080363  0.2475212560953114
  0.1406173883417490  0.3904752070080363  0.7524787439046828
  0.1390683475005442  0.8903625717205894  0.2475193190396996
  0.1390683475005442  0.8903625717205894  0.7524806809602997
  0.6380648575547547  0.3903017906775583  0.2502277948069603
  0.6380648575547547  0.3903017906775583  0.7497722051930400
  0.6379257583562267  0.8893161151114916  0.2516647473101112
  0.6379257583562267  0.8893161151114916  0.7483352526898874
  0.3595099460307292  0.3892404456065697 -0.0000000000000000
  0.3585227342878490  0.8906074217443667 -0.0000000000000000
  0.3523588104594109  0.9033240285249455  0.5000000000000000
  0.8593657432872311  0.3912571774743939 -0.0000000000000000
  0.8584949711770961  0.8911435271236025 -0.0000000000000000
  0.8608500181334913  0.8968325751333854  0.5000000000000000
  0.1397304538983230  0.1078737267347356 -0.0000000000000000
  0.1453571062960355  0.1096008417307204  0.5000000000000000
  0.1406085282090740  0.6090486931946941 -0.0000000000000000
  0.1461430209187108  0.6140535629608980  0.5000000000000000
  0.6406232224009119  0.1095795235139065 -0.0000000000000000
  0.6384673597256491  0.1184086079330783  0.5000000000000000
  0.6402840825140151  0.6093698260533367 -0.0000000000000000
  0.1091496803615045  0.3589638858920969 -0.0000000000000000
  0.1389422268739459  0.3742026168566978  0.5000000000000000
  0.1078757139509231  0.8595670376610332 -0.0000000000000000
  0.1085382030188890  0.8581079564679769  0.5000000000000000
  0.6099642552315978  0.3598520637804172 -0.0000000000000000
  0.6082542757540280  0.8594181049951248 -0.0000000000000000
  0.6003877424546891  0.8648598843977315  0.5000000000000000
  0.3902281831094860  0.1401044382859536 -0.0000000000000000
  0.4005426073128540  0.1622984580780983  0.5000000000000000
  0.3899430817628001  0.6404233426237835 -0.0000000000000000
  0.8909562781581623  0.1414470604838765 -0.0000000000000000
  0.8968494982405421  0.1384895525351734  0.5000000000000000
  0.8904585107483995  0.6411583593444282 -0.0000000000000000
 -0.0028916593896953  0.0019784450368109  0.1258424803347415
  0.0041746116063592  0.9988345819280205  0.6250782388127247
  0.0009780866922574  0.4999419592666918  0.1243380952362022
  0.0045808887863374  0.4992004225418447  0.6268890852305280
  0.4996604174684862  0.0000155610506475  0.1245464010165658
  0.4967216371632395  0.0035434357809046  0.6261739568614204
  0.4997804047062401  0.5012054216656938  0.1245760028480708
  0.4788576838184334  0.4860292304355930  0.6226224166501318
  0.0041746116063592  0.9988345819280205  0.3749217611872763
 -0.0028916593896953  0.0019784450368109  0.8741575196652588
  0.0045808887863374  0.4992004225418447  0.3731109147694727
  0.0009780866922574  0.4999419592666918  0.8756619047637971
  0.4967216371632395  0.0035434357809046  0.3738260431385829
  0.4996604174684862  0.0000155610506475  0.8754535989834347
  0.4997804047062401  0.5012054216656938  0.8754239971519295
  0.2589045483595065  0.2588907350698472  0.3757634836060691
  0.2469387117046981  0.2465446329230290  0.8756487069082869
  0.2516900122678423  0.7536738194733495  0.3742156059464954
  0.2488265027711996  0.7495455060964141  0.8755260754005306
  0.7513314012384836  0.2503473761736185  0.8746662471734284
  0.7472517723038467  0.7502843845211742  0.8747618305964587
  0.2469387117046981  0.2465446329230290  0.1243512930917135
  0.2589045483595065  0.2588907350698472  0.6242365163939307
  0.2488265027711996  0.7495455060964141  0.1244739245994696
  0.2516900122678423  0.7536738194733495  0.6257843940535044
  0.7513314012384836  0.2503473761736185  0.1253337528265715
  0.7444464309285495  0.2564948548285732  0.6241159520650791
  0.7472517723038467  0.7502843845211742  0.1252381694035401
  0.7426554323454433  0.7388420984553336  0.6259264751729534
  0.7444464309285495  0.2564948548285732  0.3758840479349213
  0.8848850097399598  0.3760679401121768  0.5000000000000000
  0.3994816494587987  0.6530553269982978  0.5000000000000000
  0.4788576838184334  0.4860292304355930  0.3773775833498698
  0.8943851949684054  0.6304284931298104  0.5000000000000000
  0.7426554323454433  0.7388420984553336  0.3740735248270460
  0.6553751639073516  0.4642591922086923  0.5000000000000000
 
  0.00000000E+00  0.00000000E+00  0.00000000E+00
  0.00000000E+00  0.00000000E+00  0.00000000E+00
  0.00000000E+00  0.00000000E+00  0.00000000E+00
  0.00000000E+00  0.00000000E+00  0.00000000E+00
  0.00000000E+00  0.00000000E+00  0.00000000E+00
  0.00000000E+00  0.00000000E+00  0.00000000E+00
  0.00000000E+00  0.00000000E+00  0.00000000E+00
  0.00000000E+00  0.00000000E+00  0.00000000E+00
  0.00000000E+00  0.00000000E+00  0.00000000E+00
  0.00000000E+00  0.00000000E+00  0.00000000E+00
  0.00000000E+00  0.00000000E+00  0.00000000E+00
  0.00000000E+00  0.00000000E+00  0.00000000E+00
  0.00000000E+00  0.00000000E+00  0.00000000E+00
  0.00000000E+00  0.00000000E+00  0.00000000E+00
  0.00000000E+00  0.00000000E+00  0.00000000E+00
  0.00000000E+00  0.00000000E+00  0.00000000E+00
  0.00000000E+00  0.00000000E+00  0.00000000E+00
  0.00000000E+00  0.00000000E+00  0.00000000E+00
  0.00000000E+00  0.00000000E+00  0.00000000E+00
  0.00000000E+00  0.00000000E+00  0.00000000E+00
  0.00000000E+00  0.00000000E+00  0.00000000E+00
  0.00000000E+00  0.00000000E+00  0.00000000E+00
  0.00000000E+00  0.00000000E+00  0.00000000E+00
  0.00000000E+00  0.00000000E+00  0.00000000E+00
  0.00000000E+00  0.00000000E+00  0.00000000E+00
  0.00000000E+00  0.00000000E+00  0.00000000E+00
  0.00000000E+00  0.00000000E+00  0.00000000E+00
  0.00000000E+00  0.00000000E+00  0.00000000E+00
  0.00000000E+00  0.00000000E+00  0.00000000E+00
  0.00000000E+00  0.00000000E+00  0.00000000E+00
  0.00000000E+00  0.00000000E+00  0.00000000E+00
  0.00000000E+00  0.00000000E+00  0.00000000E+00
  0.00000000E+00  0.00000000E+00  0.00000000E+00
  0.00000000E+00  0.00000000E+00  0.00000000E+00
  0.00000000E+00  0.00000000E+00  0.00000000E+00
  0.00000000E+00  0.00000000E+00  0.00000000E+00
  0.00000000E+00  0.00000000E+00  0.00000000E+00
  0.00000000E+00  0.00000000E+00  0.00000000E+00
  0.00000000E+00  0.00000000E+00  0.00000000E+00
  0.00000000E+00  0.00000000E+00  0.00000000E+00
  0.00000000E+00  0.00000000E+00  0.00000000E+00
  0.00000000E+00  0.00000000E+00  0.00000000E+00
  0.00000000E+00  0.00000000E+00  0.00000000E+00
  0.00000000E+00  0.00000000E+00  0.00000000E+00
  0.00000000E+00  0.00000000E+00  0.00000000E+00
  0.00000000E+00  0.00000000E+00  0.00000000E+00
  0.00000000E+00  0.00000000E+00  0.00000000E+00
  0.00000000E+00  0.00000000E+00  0.00000000E+00
  0.00000000E+00  0.00000000E+00  0.00000000E+00
  0.00000000E+00  0.00000000E+00  0.00000000E+00
  0.00000000E+00  0.00000000E+00  0.00000000E+00
  0.00000000E+00  0.00000000E+00  0.00000000E+00
  0.00000000E+00  0.00000000E+00  0.00000000E+00
  0.00000000E+00  0.00000000E+00  0.00000000E+00
  0.00000000E+00  0.00000000E+00  0.00000000E+00
  0.00000000E+00  0.00000000E+00  0.00000000E+00
  0.00000000E+00  0.00000000E+00  0.00000000E+00
  0.00000000E+00  0.00000000E+00  0.00000000E+00
  0.00000000E+00  0.00000000E+00  0.00000000E+00
  0.00000000E+00  0.00000000E+00  0.00000000E+00
  0.00000000E+00  0.00000000E+00  0.00000000E+00
  0.00000000E+00  0.00000000E+00  0.00000000E+00
  0.00000000E+00  0.00000000E+00  0.00000000E+00
  0.00000000E+00  0.00000000E+00  0.00000000E+00
  0.00000000E+00  0.00000000E+00  0.00000000E+00
  0.00000000E+00  0.00000000E+00  0.00000000E+00
  0.00000000E+00  0.00000000E+00  0.00000000E+00
  0.00000000E+00  0.00000000E+00  0.00000000E+00
  0.00000000E+00  0.00000000E+00  0.00000000E+00
  0.00000000E+00  0.00000000E+00  0.00000000E+00
  0.00000000E+00  0.00000000E+00  0.00000000E+00
  0.00000000E+00  0.00000000E+00  0.00000000E+00
  0.00000000E+00  0.00000000E+00  0.00000000E+00
  0.00000000E+00  0.00000000E+00  0.00000000E+00
  0.00000000E+00  0.00000000E+00  0.00000000E+00
  0.00000000E+00  0.00000000E+00  0.00000000E+00
  0.00000000E+00  0.00000000E+00  0.00000000E+00
  0.00000000E+00  0.00000000E+00  0.00000000E+00
  0.00000000E+00  0.00000000E+00  0.00000000E+00
  0.00000000E+00  0.00000000E+00  0.00000000E+00
  0.00000000E+00  0.00000000E+00  0.00000000E+00
  0.00000000E+00  0.00000000E+00  0.00000000E+00
  0.00000000E+00  0.00000000E+00  0.00000000E+00
  0.00000000E+00  0.00000000E+00  0.00000000E+00
  0.00000000E+00  0.00000000E+00  0.00000000E+00
  0.00000000E+00  0.00000000E+00  0.00000000E+00
  0.00000000E+00  0.00000000E+00  0.00000000E+00
  0.00000000E+00  0.00000000E+00  0.00000000E+00
  0.00000000E+00  0.00000000E+00  0.00000000E+00
  0.00000000E+00  0.00000000E+00  0.00000000E+00
  0.00000000E+00  0.00000000E+00  0.00000000E+00
  0.00000000E+00  0.00000000E+00  0.00000000E+00
  0.00000000E+00  0.00000000E+00  0.00000000E+00
  0.00000000E+00  0.00000000E+00  0.00000000E+00
  0.00000000E+00  0.00000000E+00  0.00000000E+00
  0.00000000E+00  0.00000000E+00  0.00000000E+00
  0.00000000E+00  0.00000000E+00  0.00000000E+00
  0.00000000E+00  0.00000000E+00  0.00000000E+00
  0.00000000E+00  0.00000000E+00  0.00000000E+00
  0.00000000E+00  0.00000000E+00  0.00000000E+00
  0.00000000E+00  0.00000000E+00  0.00000000E+00
  0.00000000E+00  0.00000000E+00  0.00000000E+00
  0.00000000E+00  0.00000000E+00  0.00000000E+00
  0.00000000E+00  0.00000000E+00  0.00000000E+00
  0.00000000E+00  0.00000000E+00  0.00000000E+00
  0.00000000E+00  0.00000000E+00  0.00000000E+00
  0.00000000E+00  0.00000000E+00  0.00000000E+00
  0.00000000E+00  0.00000000E+00  0.00000000E+00
  0.00000000E+00  0.00000000E+00  0.00000000E+00
  0.00000000E+00  0.00000000E+00  0.00000000E+00
  0.00000000E+00  0.00000000E+00  0.00000000E+00
  0.00000000E+00  0.00000000E+00  0.00000000E+00
  0.00000000E+00  0.00000000E+00  0.00000000E+00
  0.00000000E+00  0.00000000E+00  0.00000000E+00
  0.00000000E+00  0.00000000E+00  0.00000000E+00
  0.00000000E+00  0.00000000E+00  0.00000000E+00
  0.00000000E+00  0.00000000E+00  0.00000000E+00
  0.00000000E+00  0.00000000E+00  0.00000000E+00
  0.00000000E+00  0.00000000E+00  0.00000000E+00
  0.00000000E+00  0.00000000E+00  0.00000000E+00
  0.00000000E+00  0.00000000E+00  0.00000000E+00
  0.00000000E+00  0.00000000E+00  0.00000000E+00
  0.00000000E+00  0.00000000E+00  0.00000000E+00
  0.00000000E+00  0.00000000E+00  0.00000000E+00
  0.00000000E+00  0.00000000E+00  0.00000000E+00
  0.00000000E+00  0.00000000E+00  0.00000000E+00
  0.00000000E+00  0.00000000E+00  0.00000000E+00
  0.00000000E+00  0.00000000E+00  0.00000000E+00
  0.00000000E+00  0.00000000E+00  0.00000000E+00
  0.00000000E+00  0.00000000E+00  0.00000000E+00
  0.00000000E+00  0.00000000E+00  0.00000000E+00
  0.00000000E+00  0.00000000E+00  0.00000000E+00
  0.00000000E+00  0.00000000E+00  0.00000000E+00
  0.00000000E+00  0.00000000E+00  0.00000000E+00
  0.00000000E+00  0.00000000E+00  0.00000000E+00
  0.00000000E+00  0.00000000E+00  0.00000000E+00
  0.00000000E+00  0.00000000E+00  0.00000000E+00
  0.00000000E+00  0.00000000E+00  0.00000000E+00
  0.00000000E+00  0.00000000E+00  0.00000000E+00
  0.00000000E+00  0.00000000E+00  0.00000000E+00
  0.00000000E+00  0.00000000E+00  0.00000000E+00
  0.00000000E+00  0.00000000E+00  0.00000000E+00
  0.00000000E+00  0.00000000E+00  0.00000000E+00
  0.00000000E+00  0.00000000E+00  0.00000000E+00
  0.00000000E+00  0.00000000E+00  0.00000000E+00
  0.00000000E+00  0.00000000E+00  0.00000000E+00
  0.00000000E+00  0.00000000E+00  0.00000000E+00
  0.00000000E+00  0.00000000E+00  0.00000000E+00
  0.00000000E+00  0.00000000E+00  0.00000000E+00
  0.00000000E+00  0.00000000E+00  0.00000000E+00
  0.00000000E+00  0.00000000E+00  0.00000000E+00
  0.00000000E+00  0.00000000E+00  0.00000000E+00
  0.00000000E+00  0.00000000E+00  0.00000000E+00
  0.00000000E+00  0.00000000E+00  0.00000000E+00
  0.00000000E+00  0.00000000E+00  0.00000000E+00
  0.00000000E+00  0.00000000E+00  0.00000000E+00
  0.00000000E+00  0.00000000E+00  0.00000000E+00
  0.00000000E+00  0.00000000E+00  0.00000000E+00
