SrTiFeO                                 
   1.00000000000000     
    11.1989999999999998    0.0000000000000000    0.0000000000000000
     0.0000000000000000   11.1989999999999998    0.0000000000000000
     0.0000000000000000    0.0000000000000000   15.9830000000000005
   Sr   Ti   Fe   O 
    32    30     2    94
Direct
  0.0006906267722771  0.2491065644498103  0.1253822981283544
  0.9957657310730577  0.2511435557856058  0.6240521378299086
  0.9981025011828112  0.7508329766751203  0.1255683888262299
  0.9944012182855536  0.7486303475401963  0.6221693872239794
  0.5010467436639919  0.2502289880751492  0.1240819210593854
  0.5071759028016417  0.2464348658722206  0.6275073724991874
  0.5000185453160793  0.7505000030815385  0.1238920194169945
  0.4969180073385335  0.7537770943047805  0.6287260971257727
  0.9957657310730577  0.2511435557856058  0.3759478621700914
  0.0006906267722771  0.2491065644498103  0.8746177018716457
  0.9944012182855536  0.7486303475401963  0.3778306127760206
  0.9981025011828112  0.7508329766751203  0.8744316111737701
  0.5071759028016417  0.2464348658722206  0.3724926275008125
  0.5010467436639919  0.2502289880751492  0.8759180789406146
  0.4969180073385335  0.7537770943047805  0.3712739028742273
  0.5000185453160793  0.7505000030815385  0.8761079805830055
  0.2504718735019900  0.0003742562448281  0.1248620249919553
  0.2491746364615947  0.9956870835035782  0.6275572511991622
  0.2506229870214745  0.4999269716109103  0.1238714497254856
  0.2410904161095027  0.5056820499787118  0.6294014817458784
  0.7495428647035610  0.9989732091078311  0.1252847793593110
  0.7497764227797949  0.9996389261034823  0.6235664528638404
  0.7489534861157136  0.5002647767732750  0.1243893075815820
  0.7575878863164949  0.4934015290040135  0.6276087490430724
  0.2491746364615947  0.9956870835035782  0.3724427488008378
  0.2504718735019900  0.0003742562448281  0.8751379750080447
  0.2410904161095027  0.5056820499787118  0.3705985182541217
  0.2506229870214745  0.4999269716109103  0.8761285502745144
  0.7497764227797949  0.9996389261034823  0.3764335471361597
  0.7495428647035610  0.9989732091078311  0.8747152206406890
  0.7575878863164949  0.4934015290040135  0.3723912509569277
  0.7489534861157136  0.5002647767732750  0.8756106924184179
  1.0000092430170318  0.0002554918100184  0.0000000000000000
  0.9931649304363582  0.9975581497609005  0.5000000000000000
  0.9999890961247417  0.5002197814385629  0.0000000000000000
  0.9979266525354994  0.5000734793178023  0.5000000000000000
  0.5000524655843920  0.0002678292049834  0.0000000000000000
  0.5026580260266666  0.9984032321382018  0.5000000000000000
  0.4997880479371992  0.5000397326215783  0.0000000000000000
  0.2499206203597817  0.2496917984076881  0.0000000000000000
  0.2456559933535838  0.2385700195250331  0.5000000000000000
  0.2490628618377374  0.7500913060871882  0.0000000000000000
  0.2479649764621381  0.7528427621938208  0.5000000000000000
  0.7508000621041153  0.2499891951493282  0.0000000000000000
  0.7500628712311063  0.7503525179472418  0.0000000000000000
  0.2515059544182606  0.2511498307334403  0.2505202054786198
  0.2515059544182606  0.2511498307334403  0.7494797945213802
  0.2487250813374148  0.7501746646862343  0.2491867565254749
  0.2487250813374148  0.7501746646862343  0.7508132434745250
  0.7503673317581128  0.2490216033959090  0.2502385363605127
  0.7503673317581128  0.2490216033959090  0.7497614636394874
  0.7481358451606336  0.7482661805010217  0.2523220933600515
  0.7481358451606336  0.7482661805010217  0.7476779066399485
  0.9996615393676943  0.9997950824249505  0.2510113371979563
  0.9996615393676943  0.9997950824249505  0.7489886628020436
  0.9996898065786414  0.4998696336519514  0.2485851974227267
  0.9996898065786414  0.4998696336519514  0.7514148025772734
  0.4998677731387890  0.0001077629215340  0.2496658312438864
  0.4998677731387890  0.0001077629215340  0.7503341687561136
  0.4997786971103569  0.4999651725601121  0.2492151812014319
  0.4997786971103569  0.4999651725601121  0.7507848187985681
  0.5035378855632726  0.5030775861303094  0.5000000000000000
  0.7517423269642072  0.2476587285546666  0.5000000000000000
  0.7432340998756604  0.7449808973820513  0.5000000000000000
  0.1114837200706184  0.1422205849486952  0.2544744646179286
  0.1114837200706184  0.1422205849486952  0.7455255353820714
  0.1088039599588592  0.6409512973676019  0.2515998057143756
  0.1088039599588592  0.6409512973676019  0.7484001942856244
  0.6096697262261562  0.1397300148503698  0.2480933419306953
  0.6096697262261562  0.1397300148503698  0.7519066580693047
  0.6066969160343578  0.6397336955142889  0.2463770530907826
  0.6066969160343578  0.6397336955142889  0.7536229469092174
  0.3924805484915841  0.3598274661310285  0.2483563557428510
  0.3924805484915841  0.3598274661310285  0.7516436442571490
  0.3891398156491166  0.8602440896134883  0.2486901128448599
  0.3891398156491166  0.8602440896134883  0.7513098871551401
  0.8911118386697942  0.3596288574433102  0.2499381324067475
  0.8911118386697942  0.3596288574433102  0.7500618675932526
  0.8894046847115320  0.8591237377222412  0.2535200133020018
  0.8894046847115320  0.8591237377222412  0.7464799866979982
  0.3593840002706312  0.1102409343371627  0.2510031322263223
  0.3593840002706312  0.1102409343371627  0.7489968677736777
  0.3583011620013534  0.6092842807424161  0.2500480985063541
  0.3583011620013534  0.6092842807424161  0.7499519014936459
  0.8603066919315394  0.1090535529454966  0.2491061310694795
  0.8603066919315394  0.1090535529454966  0.7508938689305205
  0.8591579176816896  0.6080080827515053  0.2483722886685193
  0.8591579176816896  0.6080080827515053  0.7516277113314808
  0.1417167015072388  0.3914155310637959  0.2487378923582683
  0.1417167015072388  0.3914155310637959  0.7512621076417317
  0.1403707050213251  0.8907011111102430  0.2484743963358217
  0.1403707050213251  0.8907011111102430  0.7515256036641782
  0.6406214818612848  0.3910162749119379  0.2500651625043379
  0.6406214818612848  0.3910162749119379  0.7499348374956621
  0.6391543178943679  0.8900393224695706  0.2511817707693175
  0.6391543178943679  0.8900393224695706  0.7488182292306824
  0.3590567890663983  0.3899852892673603  0.0000000000000000
  0.3589413632937556  0.8903472326323199  0.0000000000000000
  0.3547264438394624  0.8955589778330943  0.5000000000000000
  0.8598151377106006  0.3912615498653849  0.0000000000000000
  0.8597654899596738  0.8916112853252224  0.0000000000000000
  0.8615104201781320  0.8952859998565917  0.5000000000000000
  0.1411129199983703  0.1089275108406969  0.0000000000000000
  0.1459993564625371  0.1083628375044760  0.5000000000000000
  0.1408134632020667  0.6089170272885576  0.0000000000000000
  0.1378695371577962  0.6142918758406005  0.5000000000000000
  0.6407449458482822  0.1093428440440316  0.0000000000000000
  0.6406972575445100  0.1069631129385760  0.5000000000000000
  0.6401578311837012  0.6098474628848292  0.0000000000000000
  0.1096032802640625  0.3588351745834373  0.0000000000000000
  0.1278768020240574  0.3689503648527459  0.5000000000000000
  0.1087533981646141  0.8590398005433760  0.0000000000000000
  0.1089463932725955  0.8590483600857314  0.5000000000000000
  0.6097168002265997  0.3598846711697620  0.0000000000000000
  0.6090639602563250  0.8599071369290444  0.0000000000000000
  0.5996620868249197  0.8545883678973416  0.5000000000000000
  0.3907725724224587  0.1407170910649751  0.0000000000000000
  0.3977152503940690  0.1542444674076171  0.5000000000000000
  0.3901651873311450  0.6404592029572066  0.0000000000000000
  0.8916453633999503  0.1411033726215985  0.0000000000000000
  0.8955146567734118  0.1408309609258722  0.5000000000000000
  0.8908853342318560  0.6408585096873195  0.0000000000000000
  0.0008846406681151  0.0008781308143225  0.1256170254196478
  0.0029411224759641  0.0005711593101612  0.6252899487024060
  0.0011854031768581  0.5002914565906468  0.1246439683582069
  0.0014446328192122  0.4988906577328190  0.6259879842405882
  0.4991363450428584  0.9999814224574929  0.1248107475057265
  0.4979307585549676  0.0009043104685718  0.6255741219489922
  0.4988685297463983  0.4992858353143071  0.1244112005570132
  0.4995232436268924  0.5014923484800673  0.6228313588915235
  0.0029411224759641  0.0005711593101612  0.3747100512975940
  0.0008846406681151  0.0008781308143225  0.8743829745803522
  0.0014446328192122  0.4988906577328190  0.3740120157594118
  0.0011854031768581  0.5002914565906468  0.8753560316417931
  0.4979307585549676  0.0009043104685718  0.3744258780510079
  0.4991363450428584  0.9999814224574929  0.8751892524942734
  0.4988685297463983  0.4992858353143071  0.8755887994429868
  0.2622920309947319  0.2637326196071949  0.3778269214132132
  0.2499530451962218  0.2487026052566896  0.8745159892430980
  0.2508812702729536  0.7517017069443938  0.3745964984262338
  0.2489365769573171  0.7488997620217396  0.8752110314941551
  0.7506419077242336  0.2504980140455144  0.8754994397475530
  0.7505049963190643  0.7516239840480594  0.8751581717949133
  0.2499530451962218  0.2487026052566896  0.1254840107569020
  0.2622920309947319  0.2637326196071949  0.6221730785867868
  0.2489365769573171  0.7488997620217396  0.1247889685058448
  0.2508812702729536  0.7517017069443938  0.6254035015737662
  0.7506419077242336  0.2504980140455144  0.1245005602524471
  0.7502923458215333  0.2487604941141822  0.6271545091707491
  0.7505049963190643  0.7516239840480594  0.1248418282050867
  0.7405812077952757  0.7370961483411432  0.6261884291750073
  0.7502923458215333  0.2487604941141822  0.3728454908292508
  0.8697381072793439  0.3838677235877418  0.5000000000000000
  0.3905386443521821  0.6374939565001748  0.5000000000000000
  0.4995232436268924  0.5014923484800673  0.3771686411084765
  0.8826914910183363  0.6298753573042216  0.5000000000000000
  0.7405812077952757  0.7370961483411432  0.3738115708249928
  0.6141813099293016  0.3705547311773990  0.5000000000000000
 
  0.00000000E+00  0.00000000E+00  0.00000000E+00
  0.00000000E+00  0.00000000E+00  0.00000000E+00
  0.00000000E+00  0.00000000E+00  0.00000000E+00
  0.00000000E+00  0.00000000E+00  0.00000000E+00
  0.00000000E+00  0.00000000E+00  0.00000000E+00
  0.00000000E+00  0.00000000E+00  0.00000000E+00
  0.00000000E+00  0.00000000E+00  0.00000000E+00
  0.00000000E+00  0.00000000E+00  0.00000000E+00
  0.00000000E+00  0.00000000E+00  0.00000000E+00
  0.00000000E+00  0.00000000E+00  0.00000000E+00
  0.00000000E+00  0.00000000E+00  0.00000000E+00
  0.00000000E+00  0.00000000E+00  0.00000000E+00
  0.00000000E+00  0.00000000E+00  0.00000000E+00
  0.00000000E+00  0.00000000E+00  0.00000000E+00
  0.00000000E+00  0.00000000E+00  0.00000000E+00
  0.00000000E+00  0.00000000E+00  0.00000000E+00
  0.00000000E+00  0.00000000E+00  0.00000000E+00
  0.00000000E+00  0.00000000E+00  0.00000000E+00
  0.00000000E+00  0.00000000E+00  0.00000000E+00
  0.00000000E+00  0.00000000E+00  0.00000000E+00
  0.00000000E+00  0.00000000E+00  0.00000000E+00
  0.00000000E+00  0.00000000E+00  0.00000000E+00
  0.00000000E+00  0.00000000E+00  0.00000000E+00
  0.00000000E+00  0.00000000E+00  0.00000000E+00
  0.00000000E+00  0.00000000E+00  0.00000000E+00
  0.00000000E+00  0.00000000E+00  0.00000000E+00
  0.00000000E+00  0.00000000E+00  0.00000000E+00
  0.00000000E+00  0.00000000E+00  0.00000000E+00
  0.00000000E+00  0.00000000E+00  0.00000000E+00
  0.00000000E+00  0.00000000E+00  0.00000000E+00
  0.00000000E+00  0.00000000E+00  0.00000000E+00
  0.00000000E+00  0.00000000E+00  0.00000000E+00
  0.00000000E+00  0.00000000E+00  0.00000000E+00
  0.00000000E+00  0.00000000E+00  0.00000000E+00
  0.00000000E+00  0.00000000E+00  0.00000000E+00
  0.00000000E+00  0.00000000E+00  0.00000000E+00
  0.00000000E+00  0.00000000E+00  0.00000000E+00
  0.00000000E+00  0.00000000E+00  0.00000000E+00
  0.00000000E+00  0.00000000E+00  0.00000000E+00
  0.00000000E+00  0.00000000E+00  0.00000000E+00
  0.00000000E+00  0.00000000E+00  0.00000000E+00
  0.00000000E+00  0.00000000E+00  0.00000000E+00
  0.00000000E+00  0.00000000E+00  0.00000000E+00
  0.00000000E+00  0.00000000E+00  0.00000000E+00
  0.00000000E+00  0.00000000E+00  0.00000000E+00
  0.00000000E+00  0.00000000E+00  0.00000000E+00
  0.00000000E+00  0.00000000E+00  0.00000000E+00
  0.00000000E+00  0.00000000E+00  0.00000000E+00
  0.00000000E+00  0.00000000E+00  0.00000000E+00
  0.00000000E+00  0.00000000E+00  0.00000000E+00
  0.00000000E+00  0.00000000E+00  0.00000000E+00
  0.00000000E+00  0.00000000E+00  0.00000000E+00
  0.00000000E+00  0.00000000E+00  0.00000000E+00
  0.00000000E+00  0.00000000E+00  0.00000000E+00
  0.00000000E+00  0.00000000E+00  0.00000000E+00
  0.00000000E+00  0.00000000E+00  0.00000000E+00
  0.00000000E+00  0.00000000E+00  0.00000000E+00
  0.00000000E+00  0.00000000E+00  0.00000000E+00
  0.00000000E+00  0.00000000E+00  0.00000000E+00
  0.00000000E+00  0.00000000E+00  0.00000000E+00
  0.00000000E+00  0.00000000E+00  0.00000000E+00
  0.00000000E+00  0.00000000E+00  0.00000000E+00
  0.00000000E+00  0.00000000E+00  0.00000000E+00
  0.00000000E+00  0.00000000E+00  0.00000000E+00
  0.00000000E+00  0.00000000E+00  0.00000000E+00
  0.00000000E+00  0.00000000E+00  0.00000000E+00
  0.00000000E+00  0.00000000E+00  0.00000000E+00
  0.00000000E+00  0.00000000E+00  0.00000000E+00
  0.00000000E+00  0.00000000E+00  0.00000000E+00
  0.00000000E+00  0.00000000E+00  0.00000000E+00
  0.00000000E+00  0.00000000E+00  0.00000000E+00
  0.00000000E+00  0.00000000E+00  0.00000000E+00
  0.00000000E+00  0.00000000E+00  0.00000000E+00
  0.00000000E+00  0.00000000E+00  0.00000000E+00
  0.00000000E+00  0.00000000E+00  0.00000000E+00
  0.00000000E+00  0.00000000E+00  0.00000000E+00
  0.00000000E+00  0.00000000E+00  0.00000000E+00
  0.00000000E+00  0.00000000E+00  0.00000000E+00
  0.00000000E+00  0.00000000E+00  0.00000000E+00
  0.00000000E+00  0.00000000E+00  0.00000000E+00
  0.00000000E+00  0.00000000E+00  0.00000000E+00
  0.00000000E+00  0.00000000E+00  0.00000000E+00
  0.00000000E+00  0.00000000E+00  0.00000000E+00
  0.00000000E+00  0.00000000E+00  0.00000000E+00
  0.00000000E+00  0.00000000E+00  0.00000000E+00
  0.00000000E+00  0.00000000E+00  0.00000000E+00
  0.00000000E+00  0.00000000E+00  0.00000000E+00
  0.00000000E+00  0.00000000E+00  0.00000000E+00
  0.00000000E+00  0.00000000E+00  0.00000000E+00
  0.00000000E+00  0.00000000E+00  0.00000000E+00
  0.00000000E+00  0.00000000E+00  0.00000000E+00
  0.00000000E+00  0.00000000E+00  0.00000000E+00
  0.00000000E+00  0.00000000E+00  0.00000000E+00
  0.00000000E+00  0.00000000E+00  0.00000000E+00
  0.00000000E+00  0.00000000E+00  0.00000000E+00
  0.00000000E+00  0.00000000E+00  0.00000000E+00
  0.00000000E+00  0.00000000E+00  0.00000000E+00
  0.00000000E+00  0.00000000E+00  0.00000000E+00
  0.00000000E+00  0.00000000E+00  0.00000000E+00
  0.00000000E+00  0.00000000E+00  0.00000000E+00
  0.00000000E+00  0.00000000E+00  0.00000000E+00
  0.00000000E+00  0.00000000E+00  0.00000000E+00
  0.00000000E+00  0.00000000E+00  0.00000000E+00
  0.00000000E+00  0.00000000E+00  0.00000000E+00
  0.00000000E+00  0.00000000E+00  0.00000000E+00
  0.00000000E+00  0.00000000E+00  0.00000000E+00
  0.00000000E+00  0.00000000E+00  0.00000000E+00
  0.00000000E+00  0.00000000E+00  0.00000000E+00
  0.00000000E+00  0.00000000E+00  0.00000000E+00
  0.00000000E+00  0.00000000E+00  0.00000000E+00
  0.00000000E+00  0.00000000E+00  0.00000000E+00
  0.00000000E+00  0.00000000E+00  0.00000000E+00
  0.00000000E+00  0.00000000E+00  0.00000000E+00
  0.00000000E+00  0.00000000E+00  0.00000000E+00
  0.00000000E+00  0.00000000E+00  0.00000000E+00
  0.00000000E+00  0.00000000E+00  0.00000000E+00
  0.00000000E+00  0.00000000E+00  0.00000000E+00
  0.00000000E+00  0.00000000E+00  0.00000000E+00
  0.00000000E+00  0.00000000E+00  0.00000000E+00
  0.00000000E+00  0.00000000E+00  0.00000000E+00
  0.00000000E+00  0.00000000E+00  0.00000000E+00
  0.00000000E+00  0.00000000E+00  0.00000000E+00
  0.00000000E+00  0.00000000E+00  0.00000000E+00
  0.00000000E+00  0.00000000E+00  0.00000000E+00
  0.00000000E+00  0.00000000E+00  0.00000000E+00
  0.00000000E+00  0.00000000E+00  0.00000000E+00
  0.00000000E+00  0.00000000E+00  0.00000000E+00
  0.00000000E+00  0.00000000E+00  0.00000000E+00
  0.00000000E+00  0.00000000E+00  0.00000000E+00
  0.00000000E+00  0.00000000E+00  0.00000000E+00
  0.00000000E+00  0.00000000E+00  0.00000000E+00
  0.00000000E+00  0.00000000E+00  0.00000000E+00
  0.00000000E+00  0.00000000E+00  0.00000000E+00
  0.00000000E+00  0.00000000E+00  0.00000000E+00
  0.00000000E+00  0.00000000E+00  0.00000000E+00
  0.00000000E+00  0.00000000E+00  0.00000000E+00
  0.00000000E+00  0.00000000E+00  0.00000000E+00
  0.00000000E+00  0.00000000E+00  0.00000000E+00
  0.00000000E+00  0.00000000E+00  0.00000000E+00
  0.00000000E+00  0.00000000E+00  0.00000000E+00
  0.00000000E+00  0.00000000E+00  0.00000000E+00
  0.00000000E+00  0.00000000E+00  0.00000000E+00
  0.00000000E+00  0.00000000E+00  0.00000000E+00
  0.00000000E+00  0.00000000E+00  0.00000000E+00
  0.00000000E+00  0.00000000E+00  0.00000000E+00
  0.00000000E+00  0.00000000E+00  0.00000000E+00
  0.00000000E+00  0.00000000E+00  0.00000000E+00
  0.00000000E+00  0.00000000E+00  0.00000000E+00
  0.00000000E+00  0.00000000E+00  0.00000000E+00
  0.00000000E+00  0.00000000E+00  0.00000000E+00
  0.00000000E+00  0.00000000E+00  0.00000000E+00
  0.00000000E+00  0.00000000E+00  0.00000000E+00
  0.00000000E+00  0.00000000E+00  0.00000000E+00
  0.00000000E+00  0.00000000E+00  0.00000000E+00
  0.00000000E+00  0.00000000E+00  0.00000000E+00
  0.00000000E+00  0.00000000E+00  0.00000000E+00
  0.00000000E+00  0.00000000E+00  0.00000000E+00
  0.00000000E+00  0.00000000E+00  0.00000000E+00
