SrTiFeO                                 
   1.00000000000000     
    11.1989999999999998    0.0000000000000000    0.0000000000000000
     0.0000000000000000   11.1989999999999998    0.0000000000000000
     0.0000000000000000    0.0000000000000000   15.9830000000000005
   Sr   Ti   Fe   O 
    32    30     2    94
Direct
  0.0002202276159751  0.2499578041327366  0.1250121586604127
  0.9994065574654583  0.2529636592222063  0.6259091231543044
  0.9987186834032928  0.7501472363231017  0.1251920100266523
  0.9947891710574038  0.7495494197084438  0.6241618483634355
  0.5013217786962636  0.2500184654538085  0.1231053562592845
  0.4995993876880975  0.2428345689857676  0.6315054396028557
  0.5012523363716552  0.7489107622697846  0.1249846843382007
  0.4999021012934753  0.7584349888084714  0.6267034094678715
  0.9994065574654583  0.2529636592222063  0.3740908768456955
  0.0002202276159751  0.2499578041327366  0.8749878413395872
  0.9947891710574038  0.7495494197084438  0.3758381516365645
  0.9987186834032928  0.7501472363231017  0.8748079899733477
  0.4995993876880975  0.2428345689857676  0.3684945603971444
  0.5013217786962636  0.2500184654538085  0.8768946437407155
  0.4999021012934753  0.7584349888084714  0.3732965905321285
  0.5012523363716552  0.7489107622697846  0.8750153156617992
  0.2496576281751811  0.0005882868142617  0.1242571614864163
  0.2490061907755532  0.9956478303738877  0.6281321655032788
  0.2515814996039226  0.4997961674157507  0.1245423701045158
  0.2410249973206084  0.5043008009194894  0.6291545546513093
  0.7505067204022220  0.0005478314872586  0.1258177235035580
  0.7466515203269712  0.9958975019714696  0.6233967982968962
  0.7494407742196264  0.5000775247004491  0.1239174342461318
  0.7580093556371371  0.5000682232409136  0.6281017438612109
  0.2490061907755532  0.9956478303738877  0.3718678344967213
  0.2496576281751811  0.0005882868142617  0.8757428385135837
  0.2410249973206084  0.5043008009194894  0.3708454453486907
  0.2515814996039226  0.4997961674157507  0.8754576298954841
  0.7466515203269712  0.9958975019714696  0.3766032017031039
  0.7505067204022220  0.0005478314872586  0.8741822764964419
  0.7580093556371371  0.5000682232409136  0.3718982561387891
  0.7494407742196264  0.5000775247004491  0.8760825657538682
  0.9997188317385518  0.0007084155588747 -0.0000000000000000
  0.9946992973683680  0.9943922743843591  0.5000000000000000
  0.0004716408215003  0.5002052197421498 -0.0000000000000000
  0.9984815849778115  0.5017727773430827  0.5000000000000000
  0.4999250973572458  0.9995943712155044 -0.0000000000000000
  0.5015772565301774  0.0013702185030725  0.5000000000000000
  0.5001466869238905  0.5008587486217889 -0.0000000000000000
  0.2495348287713223  0.2493925929505512 -0.0000000000000000
  0.2444423216011305  0.2375949113918545  0.5000000000000000
  0.2500303981238153  0.7496055561414724 -0.0000000000000000
  0.2458672438909730  0.7531063688957294  0.5000000000000000
  0.7509873900837822  0.2496178469380281 -0.0000000000000000
  0.7496493433702864  0.7500687224441374 -0.0000000000000000
  0.2503304330706593  0.2509672017639531  0.2493936167350919
  0.2503304330706593  0.2509672017639531  0.7506063832649083
  0.2492713794998734  0.7501169758614805  0.2495591333735288
  0.2492713794998734  0.7501169758614805  0.7504408666264711
  0.7493943173711054  0.2505784708517394  0.2516715617659727
  0.7493943173711054  0.2505784708517394  0.7483284382340273
  0.7489984625085783  0.7497635535255851  0.2516009691952376
  0.7489984625085783  0.7497635535255851  0.7483990308047623
  0.9991914454963514  0.0001664242567061  0.2507964857284596
  0.9991914454963514  0.0001664242567061  0.7492035142715403
  0.9997024295168750  0.5001691897222721  0.2485110161766944
  0.9997024295168750  0.5001691897222721  0.7514889838233056
  0.4993338862028147  1.0000052529548042  0.2485024109920106
  0.4993338862028147  1.0000052529548042  0.7514975890079895
  0.4994700648161801  0.4982824872716517  0.2505936964354748
  0.4994700648161801  0.4982824872716517  0.7494063035645252
  0.5030175269757473  0.5147313947093581  0.5000000000000000
  0.7646745622070565  0.2405516798734987  0.5000000000000000
  0.7490557039321522  0.7464099521823813  0.5000000000000000
  0.1105632475116077  0.1418018359732448  0.2539304931606809
  0.1105632475116077  0.1418018359732448  0.7460695068393191
  0.1100920133250123  0.6402200084854685  0.2512152036755141
  0.1100920133250123  0.6402200084854685  0.7487847963244857
  0.6097399782671141  0.1398215816635391  0.2480136019384520
  0.6097399782671141  0.1398215816635391  0.7519863980615480
  0.6072054641145569  0.6382744118715570  0.2539639416335045
  0.6072054641145569  0.6382744118715570  0.7460360583664954
  0.3905561322371847  0.3583348046050780  0.2439927784941543
  0.3905561322371847  0.3583348046050780  0.7560072215058458
  0.3899125145961322  0.8595727621840186  0.2490295855741369
  0.3899125145961322  0.8595727621840186  0.7509704144258631
  0.8905669552864951  0.3597557086368812  0.2498945181099571
  0.8905669552864951  0.3597557086368812  0.7501054818900430
  0.8898730259706804  0.8610886433201729  0.2479763230546702
  0.8898730259706804  0.8610886433201729  0.7520236769453298
  0.3590413763920586  0.1100971946342748  0.2508655855155559
  0.3590413763920586  0.1100971946342748  0.7491344144844441
  0.3595630835748408  0.6085722189057152  0.2535628384899271
  0.3595630835748408  0.6085722189057152  0.7464371615100730
  0.8590778588374851  0.1109593445681869  0.2548796604110787
  0.8590778588374851  0.1109593445681869  0.7451203395889213
  0.8607649219511642  0.6096841594230045  0.2475659461688600
  0.8607649219511642  0.6096841594230045  0.7524340538311401
  0.1410471634007757  0.3907516870077573  0.2482099937582449
  0.1410471634007757  0.3907516870077573  0.7517900062417481
  0.1403309065807026  0.8905311372845157  0.2471622792764689
  0.1403309065807026  0.8905311372845157  0.7528377207235311
  0.6400863981966500  0.3911065520620939  0.2471052803012245
  0.6400863981966500  0.3911065520620939  0.7528947196987756
  0.6383368604290758  0.8903664233466045  0.2490347837568121
  0.6383368604290758  0.8903664233466045  0.7509652162431878
  0.3598282339460672  0.3898851791724881 -0.0000000000000000
  0.3584019990302016  0.8905545810422626 -0.0000000000000000
  0.3540821834982757  0.8967327924053046  0.5000000000000000
  0.8597591937116147  0.3909136970810779 -0.0000000000000000
  0.8595087196887259  0.8910715516182443 -0.0000000000000000
  0.8587662427189743  0.9000280664126352  0.5000000000000000
  0.1407871028328238  0.1084926850481566 -0.0000000000000000
  0.1474559627461993  0.1049379742319496  0.5000000000000000
  0.1410954915869236  0.6089632413510211 -0.0000000000000000
  0.1441882758410807  0.6098701682251176  0.5000000000000000
  0.6403764165100732  0.1094999570963403 -0.0000000000000000
  0.6389051335418831  0.1169539088724397  0.5000000000000000
  0.6403584086605610  0.6090810614559864 -0.0000000000000000
  0.1094971833793682  0.3589823790087389 -0.0000000000000000
  0.1258686053535455  0.3654783173906962  0.5000000000000000
  0.1089497413106267  0.8594202395569791 -0.0000000000000000
  0.1060820445444089  0.8562845078757099  0.5000000000000000
  0.6100629291825479  0.3602108422730740 -0.0000000000000000
  0.6084047702926596  0.8597579619199215 -0.0000000000000000
  0.6000128753926752  0.8642289869375678  0.5000000000000000
  0.3903970150481496  0.1406838614149483 -0.0000000000000000
  0.3970538644565357  0.1560042647422475  0.5000000000000000
  0.3906807558936104  0.6408831481902867 -0.0000000000000000
  0.8911402613822622  0.1411324816246825 -0.0000000000000000
  0.9022830131999359  0.1439955313024966  0.5000000000000000
  0.8909159176901408  0.6408028815006632 -0.0000000000000000
  0.9992082842833704  0.0045285173297302  0.1254894877754140
  0.0036756947635079  0.9974256302802882  0.6253284441220791
  0.0011307660107712  0.5002292138486639  0.1244646836440962
  0.0023788596142337  0.4973328425597289  0.6266415905332677
  0.4981026081212284  0.0008166270331702  0.1244893521578653
  0.4977508081710900  0.0016747993672258  0.6262425913969656
  0.4992225016257368  0.5033365468872045  0.1251188061007164
  0.4926144512118788  0.4781905282091803  0.6207921962599522
  0.0036756947635079  0.9974256302802882  0.3746715558779210
  0.9992082842833704  0.0045285173297302  0.8745105122245860
  0.0023788596142337  0.4973328425597289  0.3733584094667322
  0.0011307660107712  0.5002292138486639  0.8755353163559039
  0.4977508081710900  0.0016747993672258  0.3737574086030344
  0.4981026081212284  0.0008166270331702  0.8755106478421347
  0.4992225016257368  0.5033365468872045  0.8748811938992835
  0.2590970813378561  0.2613478156673913  0.3768184347990703
  0.2476753945628935  0.2471162558405113  0.8752345818407140
  0.2498789007177459  0.7535365745289861  0.3746517416368758
  0.2507716384927574  0.7471617259197514  0.8749169894619380
  0.7517137208863269  0.2485775448522643  0.8748611582922260
  0.7471512544079640  0.7487535755984844  0.8755829081587683
  0.2476753945628935  0.2471162558405113  0.1247654181592860
  0.2590970813378561  0.2613478156673913  0.6231815652009298
  0.2507716384927574  0.7471617259197514  0.1250830105380621
  0.2498789007177459  0.7535365745289861  0.6253482583631240
  0.7517137208863269  0.2485775448522643  0.1251388417077741
  0.7407651932641768  0.2600806515708625  0.6234464098852021
  0.7471512544079640  0.7487535755984844  0.1244170918412317
  0.7499312132833486  0.7501681105465801  0.6289246414457661
  0.7407651932641768  0.2600806515708625  0.3765535901147980
  0.8626963956201200  0.3887081781554516  0.5000000000000000
  0.3868755578664127  0.6394838439789440  0.5000000000000000
  0.4926144512118788  0.4781905282091803  0.3792078037400477
  0.9013407582654630  0.6372966509527203  0.5000000000000000
  0.7499312132833486  0.7501681105465801  0.3710753585542340
  0.6547299922109039  0.5776678841697035  0.5000000000000000
 
  0.00000000E+00  0.00000000E+00  0.00000000E+00
  0.00000000E+00  0.00000000E+00  0.00000000E+00
  0.00000000E+00  0.00000000E+00  0.00000000E+00
  0.00000000E+00  0.00000000E+00  0.00000000E+00
  0.00000000E+00  0.00000000E+00  0.00000000E+00
  0.00000000E+00  0.00000000E+00  0.00000000E+00
  0.00000000E+00  0.00000000E+00  0.00000000E+00
  0.00000000E+00  0.00000000E+00  0.00000000E+00
  0.00000000E+00  0.00000000E+00  0.00000000E+00
  0.00000000E+00  0.00000000E+00  0.00000000E+00
  0.00000000E+00  0.00000000E+00  0.00000000E+00
  0.00000000E+00  0.00000000E+00  0.00000000E+00
  0.00000000E+00  0.00000000E+00  0.00000000E+00
  0.00000000E+00  0.00000000E+00  0.00000000E+00
  0.00000000E+00  0.00000000E+00  0.00000000E+00
  0.00000000E+00  0.00000000E+00  0.00000000E+00
  0.00000000E+00  0.00000000E+00  0.00000000E+00
  0.00000000E+00  0.00000000E+00  0.00000000E+00
  0.00000000E+00  0.00000000E+00  0.00000000E+00
  0.00000000E+00  0.00000000E+00  0.00000000E+00
  0.00000000E+00  0.00000000E+00  0.00000000E+00
  0.00000000E+00  0.00000000E+00  0.00000000E+00
  0.00000000E+00  0.00000000E+00  0.00000000E+00
  0.00000000E+00  0.00000000E+00  0.00000000E+00
  0.00000000E+00  0.00000000E+00  0.00000000E+00
  0.00000000E+00  0.00000000E+00  0.00000000E+00
  0.00000000E+00  0.00000000E+00  0.00000000E+00
  0.00000000E+00  0.00000000E+00  0.00000000E+00
  0.00000000E+00  0.00000000E+00  0.00000000E+00
  0.00000000E+00  0.00000000E+00  0.00000000E+00
  0.00000000E+00  0.00000000E+00  0.00000000E+00
  0.00000000E+00  0.00000000E+00  0.00000000E+00
  0.00000000E+00  0.00000000E+00  0.00000000E+00
  0.00000000E+00  0.00000000E+00  0.00000000E+00
  0.00000000E+00  0.00000000E+00  0.00000000E+00
  0.00000000E+00  0.00000000E+00  0.00000000E+00
  0.00000000E+00  0.00000000E+00  0.00000000E+00
  0.00000000E+00  0.00000000E+00  0.00000000E+00
  0.00000000E+00  0.00000000E+00  0.00000000E+00
  0.00000000E+00  0.00000000E+00  0.00000000E+00
  0.00000000E+00  0.00000000E+00  0.00000000E+00
  0.00000000E+00  0.00000000E+00  0.00000000E+00
  0.00000000E+00  0.00000000E+00  0.00000000E+00
  0.00000000E+00  0.00000000E+00  0.00000000E+00
  0.00000000E+00  0.00000000E+00  0.00000000E+00
  0.00000000E+00  0.00000000E+00  0.00000000E+00
  0.00000000E+00  0.00000000E+00  0.00000000E+00
  0.00000000E+00  0.00000000E+00  0.00000000E+00
  0.00000000E+00  0.00000000E+00  0.00000000E+00
  0.00000000E+00  0.00000000E+00  0.00000000E+00
  0.00000000E+00  0.00000000E+00  0.00000000E+00
  0.00000000E+00  0.00000000E+00  0.00000000E+00
  0.00000000E+00  0.00000000E+00  0.00000000E+00
  0.00000000E+00  0.00000000E+00  0.00000000E+00
  0.00000000E+00  0.00000000E+00  0.00000000E+00
  0.00000000E+00  0.00000000E+00  0.00000000E+00
  0.00000000E+00  0.00000000E+00  0.00000000E+00
  0.00000000E+00  0.00000000E+00  0.00000000E+00
  0.00000000E+00  0.00000000E+00  0.00000000E+00
  0.00000000E+00  0.00000000E+00  0.00000000E+00
  0.00000000E+00  0.00000000E+00  0.00000000E+00
  0.00000000E+00  0.00000000E+00  0.00000000E+00
  0.00000000E+00  0.00000000E+00  0.00000000E+00
  0.00000000E+00  0.00000000E+00  0.00000000E+00
  0.00000000E+00  0.00000000E+00  0.00000000E+00
  0.00000000E+00  0.00000000E+00  0.00000000E+00
  0.00000000E+00  0.00000000E+00  0.00000000E+00
  0.00000000E+00  0.00000000E+00  0.00000000E+00
  0.00000000E+00  0.00000000E+00  0.00000000E+00
  0.00000000E+00  0.00000000E+00  0.00000000E+00
  0.00000000E+00  0.00000000E+00  0.00000000E+00
  0.00000000E+00  0.00000000E+00  0.00000000E+00
  0.00000000E+00  0.00000000E+00  0.00000000E+00
  0.00000000E+00  0.00000000E+00  0.00000000E+00
  0.00000000E+00  0.00000000E+00  0.00000000E+00
  0.00000000E+00  0.00000000E+00  0.00000000E+00
  0.00000000E+00  0.00000000E+00  0.00000000E+00
  0.00000000E+00  0.00000000E+00  0.00000000E+00
  0.00000000E+00  0.00000000E+00  0.00000000E+00
  0.00000000E+00  0.00000000E+00  0.00000000E+00
  0.00000000E+00  0.00000000E+00  0.00000000E+00
  0.00000000E+00  0.00000000E+00  0.00000000E+00
  0.00000000E+00  0.00000000E+00  0.00000000E+00
  0.00000000E+00  0.00000000E+00  0.00000000E+00
  0.00000000E+00  0.00000000E+00  0.00000000E+00
  0.00000000E+00  0.00000000E+00  0.00000000E+00
  0.00000000E+00  0.00000000E+00  0.00000000E+00
  0.00000000E+00  0.00000000E+00  0.00000000E+00
  0.00000000E+00  0.00000000E+00  0.00000000E+00
  0.00000000E+00  0.00000000E+00  0.00000000E+00
  0.00000000E+00  0.00000000E+00  0.00000000E+00
  0.00000000E+00  0.00000000E+00  0.00000000E+00
  0.00000000E+00  0.00000000E+00  0.00000000E+00
  0.00000000E+00  0.00000000E+00  0.00000000E+00
  0.00000000E+00  0.00000000E+00  0.00000000E+00
  0.00000000E+00  0.00000000E+00  0.00000000E+00
  0.00000000E+00  0.00000000E+00  0.00000000E+00
  0.00000000E+00  0.00000000E+00  0.00000000E+00
  0.00000000E+00  0.00000000E+00  0.00000000E+00
  0.00000000E+00  0.00000000E+00  0.00000000E+00
  0.00000000E+00  0.00000000E+00  0.00000000E+00
  0.00000000E+00  0.00000000E+00  0.00000000E+00
  0.00000000E+00  0.00000000E+00  0.00000000E+00
  0.00000000E+00  0.00000000E+00  0.00000000E+00
  0.00000000E+00  0.00000000E+00  0.00000000E+00
  0.00000000E+00  0.00000000E+00  0.00000000E+00
  0.00000000E+00  0.00000000E+00  0.00000000E+00
  0.00000000E+00  0.00000000E+00  0.00000000E+00
  0.00000000E+00  0.00000000E+00  0.00000000E+00
  0.00000000E+00  0.00000000E+00  0.00000000E+00
  0.00000000E+00  0.00000000E+00  0.00000000E+00
  0.00000000E+00  0.00000000E+00  0.00000000E+00
  0.00000000E+00  0.00000000E+00  0.00000000E+00
  0.00000000E+00  0.00000000E+00  0.00000000E+00
  0.00000000E+00  0.00000000E+00  0.00000000E+00
  0.00000000E+00  0.00000000E+00  0.00000000E+00
  0.00000000E+00  0.00000000E+00  0.00000000E+00
  0.00000000E+00  0.00000000E+00  0.00000000E+00
  0.00000000E+00  0.00000000E+00  0.00000000E+00
  0.00000000E+00  0.00000000E+00  0.00000000E+00
  0.00000000E+00  0.00000000E+00  0.00000000E+00
  0.00000000E+00  0.00000000E+00  0.00000000E+00
  0.00000000E+00  0.00000000E+00  0.00000000E+00
  0.00000000E+00  0.00000000E+00  0.00000000E+00
  0.00000000E+00  0.00000000E+00  0.00000000E+00
  0.00000000E+00  0.00000000E+00  0.00000000E+00
  0.00000000E+00  0.00000000E+00  0.00000000E+00
  0.00000000E+00  0.00000000E+00  0.00000000E+00
  0.00000000E+00  0.00000000E+00  0.00000000E+00
  0.00000000E+00  0.00000000E+00  0.00000000E+00
  0.00000000E+00  0.00000000E+00  0.00000000E+00
  0.00000000E+00  0.00000000E+00  0.00000000E+00
  0.00000000E+00  0.00000000E+00  0.00000000E+00
  0.00000000E+00  0.00000000E+00  0.00000000E+00
  0.00000000E+00  0.00000000E+00  0.00000000E+00
  0.00000000E+00  0.00000000E+00  0.00000000E+00
  0.00000000E+00  0.00000000E+00  0.00000000E+00
  0.00000000E+00  0.00000000E+00  0.00000000E+00
  0.00000000E+00  0.00000000E+00  0.00000000E+00
  0.00000000E+00  0.00000000E+00  0.00000000E+00
  0.00000000E+00  0.00000000E+00  0.00000000E+00
  0.00000000E+00  0.00000000E+00  0.00000000E+00
  0.00000000E+00  0.00000000E+00  0.00000000E+00
  0.00000000E+00  0.00000000E+00  0.00000000E+00
  0.00000000E+00  0.00000000E+00  0.00000000E+00
  0.00000000E+00  0.00000000E+00  0.00000000E+00
  0.00000000E+00  0.00000000E+00  0.00000000E+00
  0.00000000E+00  0.00000000E+00  0.00000000E+00
  0.00000000E+00  0.00000000E+00  0.00000000E+00
  0.00000000E+00  0.00000000E+00  0.00000000E+00
  0.00000000E+00  0.00000000E+00  0.00000000E+00
  0.00000000E+00  0.00000000E+00  0.00000000E+00
  0.00000000E+00  0.00000000E+00  0.00000000E+00
  0.00000000E+00  0.00000000E+00  0.00000000E+00
  0.00000000E+00  0.00000000E+00  0.00000000E+00
  0.00000000E+00  0.00000000E+00  0.00000000E+00
  0.00000000E+00  0.00000000E+00  0.00000000E+00
  0.00000000E+00  0.00000000E+00  0.00000000E+00
