SrTiFeO                                 
   1.00000000000000     
    11.1989999999999998    0.0000000000000000    0.0000000000000000
     0.0000000000000000   11.1989999999999998    0.0000000000000000
     0.0000000000000000    0.0000000000000000   15.9830000000000005
   Sr   Ti   Fe   O 
    32    30     2    94
Direct
  0.0011938325275727  0.2492453586479764  0.1250125047363919
  0.9989019166800148  0.2510607820062798  0.6262566829822397
  0.9980522505388176  0.7509087664652183  0.1252747668835446
  0.9947693011811605  0.7483663250419945  0.6241186695061216
  0.5004371639230533  0.2503020746617622  0.1231801654740950
  0.5040898675447933  0.2489686055543601  0.6303359736638724
  0.5003432839703966  0.7498948366062329  0.1232917246850838
  0.4976960964104413  0.7502131869427726  0.6306227079645759
  0.9988667191409457  0.2515043602784054  0.3748454555499463
  0.0011134115937472  0.2491104801238096  0.8741961485533506
  0.9948992090146923  0.7481318633419776  0.3770817422309432
  0.9980848122808871  0.7510854953617857  0.8737939389463608
  0.5045454551110453  0.2463600624664140  0.3711626861168918
  0.5005817381414445  0.2522572464357612  0.8748159782599901
  0.4974422974669684  0.7529809030805327  0.3709927266481924
  0.4998754552511069  0.7479053601059182  0.8747461546059760
  0.2503923282218570  0.0003217539310058  0.1245190857005837
  0.2489953466287627  0.9958521630595157  0.6288932153126193
  0.2509862911637945  0.5000919294873613  0.1231202318273760
  0.2439608650486641  0.5055807912126128  0.6312913505652457
  0.7496476092744733  0.9987923972547788  0.1249510427614251
  0.7496261413238862  0.9968115480167118  0.6259246742652409
  0.7488575027021305  0.5004296657375689  0.1235331135932971
  0.7550935996810223  0.4954417896735806  0.6306665722592899
  0.2491113314580115  0.9955591511898183  0.3719562640176824
  0.2500293051926141  0.0004987653929455  0.8746685336574685
  0.2416498259652193  0.5056424714389769  0.3701054538998489
  0.2532160802730868  0.4998852139865937  0.8748705545230118
  0.7494988726522243  0.9973261166291758  0.3749086355752186
  0.7499473002871457  0.9987568785185076  0.8742036750941289
  0.7574290296137234  0.4956542069872121  0.3709246739565752
  0.7464021473045099  0.5006750937382404  0.8745161133719905
  0.9999099363215351  0.0002838059024986  0.9999645924778473
  0.9943256280165462  0.9960391910916898  0.5000936020676809
  0.0000353646085353  0.5001525466076360  0.9996254600179536
  0.9989983054978503  0.5010804311624374  0.5003804127510563
  0.4999940682896283  0.0000807589096955  0.9996103340695822
  0.5010763517748247  0.9969830680420004  0.5004489063654098
  0.4999984732616254  0.4999641467348419  0.9982486689513553
  0.2499319739422876  0.2497281859334267  0.9997383025950903
  0.2453415518463803  0.2379704073304083  0.5000019715333438
  0.2491604609491774  0.7501312491348671  0.9998001166397237
  0.2481869866455854  0.7522663308572122  0.5002030970176630
  0.7508635258958887  0.2498735906858638  0.9998007523970184
  0.7520299937945498  0.2475422335553501  0.5001849877042550
  0.7501425947640795  0.7503578171452152  0.9998075198221845
  0.2515692744741823  0.2510574446858829  0.2500203664547297
  0.2530149850068004  0.2525717417706482  0.7499028395816406
  0.2487987641415002  0.7501588950754519  0.2490084878237388
  0.2499460445817022  0.7488824329596533  0.7509518401385987
  0.7504753447168919  0.2490908098948272  0.2492409208911590
  0.7492518983738709  0.2503702597371209  0.7507967361407060
  0.7481789576675556  0.7482752144955240  0.2518259233582201
  0.7465010612664305  0.7467354322109675  0.7482509071807669
  0.9996868131683664  0.9998329267000842  0.2508845810339096
  0.9996530400803123  0.9998813888744368  0.7491702616135177
  0.9999406708907282  0.4998472490668137  0.2482803356957297
  0.9999522995449935  0.4998151427844675  0.7516651686863686
  0.4998226332766929  0.9999684387659362  0.2494156040085010
  0.4998083993275014  0.9999984499472913  0.7504909103413006
  0.4997885890882143  0.4997460891513361  0.2481005442845121
  0.5025150249269308  0.5027464442720304  0.5000651283599926
  0.4997507473447531  0.4997801338929421  0.7504934516563480
  0.7444618155157111  0.7453788465876051  0.5003021321143206
  0.1116708808444082  0.1420144124195944  0.2543234493815232
  0.1121486713643554  0.1410070977555841  0.7457926911490077
  0.1089439072902197  0.6405856381132015  0.2517024669510972
  0.1091795156048468  0.6401267147572902  0.7482830576061720
  0.6101974796269347  0.1398777796418137  0.2486457582489562
  0.6110498815133768  0.1383483036722746  0.7512223892511952
  0.6072395453369057  0.6393957566680316  0.2467240199895430
  0.3922761231497530  0.3596294608502660  0.2482926907492940
  0.3892862742093795  0.3599162997184207  0.7521432322211599
  0.3891027463954774  0.8603925508297930  0.2491899662214048
  0.3881064949421306  0.8620279290154376  0.7506233947892034
  0.8908347550317242  0.3594077632503826  0.2510978141130279
  0.8904936036692656  0.3599268646505991  0.7490194301268918
  0.8892510728995245  0.8594834234407709  0.2538730964032491
  0.8885213685802270  0.8604805656778457  0.7465987012315918
  0.3596687516976586  0.1103316430962242  0.2514143970946538
  0.3603869272564901  0.1110043894964203  0.7487629389819314
  0.3584167434586493  0.6094053405143023  0.2501880939074512
  0.3582665748178743  0.6126830105826582  0.7499516754296901
  0.8600199909050165  0.1094374430276593  0.2502590945567867
  0.8608940278262385  0.1100938783722630  0.7495488419206415
  0.8594615380364793  0.6082354747953392  0.2482329084742406
  0.8607813224612227  0.6089224143299530  0.7518076754509093
  0.1414669076354677  0.3911148249563884  0.2488342636485728
  0.1401298677077915  0.3905629727630296  0.7511468099734658
  0.1400316037999167  0.8906084769808715  0.2486995123302752
  0.1389655674897015  0.8899344694617524  0.7512197016203468
  0.6411676989510724  0.3902604727731143  0.2508267775491697
  0.6389164872688973  0.8898838308312674  0.2509160278792422
  0.6380740119118128  0.8892051440612394  0.7492783284873833
  0.3588895437084901  0.3895986388086962  0.0005730268701033
  0.3588130120879134  0.8906942192036443  0.0002825597816414
  0.3536952970390950  0.8969591272732080  0.4997540347529992
  0.8594786090024039  0.3912223493762061  0.9998729886425969
  0.8653544837151796  0.3855908551316874  0.4998029554075197
  0.8597155116891585  0.8918756453523811  0.0004474229758944
  0.8593578492598399  0.8992155714464484  0.4992906004548907
  0.1409239112657918  0.1088469596134479  0.0005741357834596
  0.1466440534614305  0.1069636165148558  0.4995124023782594
  0.1408213533200680  0.6088636418662643  0.9999062288313902
  0.1390333291835396  0.6126380000867474  0.4999101183826808
  0.6410661591665237  0.1092806242257226  0.0003623471038270
  0.6435861489049393  0.1083643155189699  0.4997783607982796
  0.6406368762478214  0.6100847691313350  0.0007703145008194
  0.1094107807050418  0.3587416783524658  0.0004267614525155
  0.1245782974422258  0.3666922756383204  0.4995071961613112
  0.1084960768000453  0.8592628419172615  0.0004324112859582
  0.1070823493327539  0.8577768114716307  0.4997183173244376
  0.6103228281640593  0.3591698534362224  0.0005697083737783
  0.6089079156339259  0.8598444401388586  0.9999883886288271
  0.5989720510818750  0.8552243301477490  0.5001882544610733
  0.3908133825258065  0.1407435463796522  0.9998964318913065
  0.3987090517751180  0.1553926169132957  0.5002127400487791
  0.3899215402179912  0.6407075825484596  0.0007243178885560
  0.3910384734674133  0.6384225988129676  0.4992339958135203
  0.8917226705105556  0.1413852436691078  0.0004319693105456
  0.8958113597509836  0.1446847249756827  0.4997698744779021
  0.8911445227183543  0.6409174328130365  0.0003959178207609
  0.0000795688060060  0.0012599760805746  0.1261079740075025
  0.0024577722815415  0.0012919796075489  0.6243729681207589
  0.0009391256212213  0.4996519298529072  0.1248002963797085
  0.0011536458557874  0.4985788824935516  0.6254880914954193
  0.4991467303918869  0.0004161464421423  0.1250236919445629
  0.4988577813711673  0.0016615655499660  0.6250679873587287
  0.4994134469585973  0.4987667587336724  0.1249593185411699
  0.0027821467551654  0.0016585765513128  0.3750241316760891
  0.0002312153030228  0.0013788102100980  0.8747342798030963
  0.0010790806894556  0.4988123107765558  0.3742813105050286
  0.0010653502681465  0.4996721344120162  0.8753225905375102
  0.4988417377936113  0.0015766227843627  0.3748683572086902
  0.4991585207073251  0.0004212560295547  0.8751267646280460
  0.4994743632930974  0.4992017526076720  0.8773660557650268
  0.2618330992545667  0.2638032325407139  0.3778503375382590
  0.2489031624794941  0.2482716015968335  0.8750602877843325
  0.2502641789732020  0.7517937040632975  0.3747719733268862
  0.2486199305485320  0.7500217346005653  0.8755286134213227
  0.7505122695969675  0.2487797153420458  0.3748152033934714
  0.7514891203651606  0.2493454021286427  0.8754278340489168
  0.7410242788969993  0.7380053894671714  0.3738128310723738
  0.7514530670098148  0.7520573411378160  0.8757640843128932
  0.2500042637944649  0.2483050460892758  0.1257286549569928
  0.2605424506218055  0.2633345251630376  0.6217147695740395
  0.2486035230415436  0.7492326105384568  0.1250727336738263
  0.2502207677296106  0.7519377705815988  0.6245423200874650
  0.7514637466927526  0.2503805344135130  0.1251988905496402
  0.7504046698030087  0.2488564885228946  0.6244984404696038
  0.7506843038463719  0.7520310484664732  0.1251518853218404
  0.6413450029749698  0.3870953188586220  0.7496014561315355
  0.6099646130370371  0.6392533743479987  0.7538310831650106
  0.4997440694097633  0.5006476699237092  0.3771024379069271
  0.6137141753960992  0.3671888583147200  0.4989264316775447
  0.7418573569733249  0.7383031849197960  0.6258260284325460
  0.8841702293466749  0.6310294786717743  0.4997221447239517
  0.4997554876808042  0.5003018635690615  0.6209986721547684
 
  0.00000000E+00  0.00000000E+00  0.00000000E+00
  0.00000000E+00  0.00000000E+00  0.00000000E+00
  0.00000000E+00  0.00000000E+00  0.00000000E+00
  0.00000000E+00  0.00000000E+00  0.00000000E+00
  0.00000000E+00  0.00000000E+00  0.00000000E+00
  0.00000000E+00  0.00000000E+00  0.00000000E+00
  0.00000000E+00  0.00000000E+00  0.00000000E+00
  0.00000000E+00  0.00000000E+00  0.00000000E+00
  0.00000000E+00  0.00000000E+00  0.00000000E+00
  0.00000000E+00  0.00000000E+00  0.00000000E+00
  0.00000000E+00  0.00000000E+00  0.00000000E+00
  0.00000000E+00  0.00000000E+00  0.00000000E+00
  0.00000000E+00  0.00000000E+00  0.00000000E+00
  0.00000000E+00  0.00000000E+00  0.00000000E+00
  0.00000000E+00  0.00000000E+00  0.00000000E+00
  0.00000000E+00  0.00000000E+00  0.00000000E+00
  0.00000000E+00  0.00000000E+00  0.00000000E+00
  0.00000000E+00  0.00000000E+00  0.00000000E+00
  0.00000000E+00  0.00000000E+00  0.00000000E+00
  0.00000000E+00  0.00000000E+00  0.00000000E+00
  0.00000000E+00  0.00000000E+00  0.00000000E+00
  0.00000000E+00  0.00000000E+00  0.00000000E+00
  0.00000000E+00  0.00000000E+00  0.00000000E+00
  0.00000000E+00  0.00000000E+00  0.00000000E+00
  0.00000000E+00  0.00000000E+00  0.00000000E+00
  0.00000000E+00  0.00000000E+00  0.00000000E+00
  0.00000000E+00  0.00000000E+00  0.00000000E+00
  0.00000000E+00  0.00000000E+00  0.00000000E+00
  0.00000000E+00  0.00000000E+00  0.00000000E+00
  0.00000000E+00  0.00000000E+00  0.00000000E+00
  0.00000000E+00  0.00000000E+00  0.00000000E+00
  0.00000000E+00  0.00000000E+00  0.00000000E+00
  0.00000000E+00  0.00000000E+00  0.00000000E+00
  0.00000000E+00  0.00000000E+00  0.00000000E+00
  0.00000000E+00  0.00000000E+00  0.00000000E+00
  0.00000000E+00  0.00000000E+00  0.00000000E+00
  0.00000000E+00  0.00000000E+00  0.00000000E+00
  0.00000000E+00  0.00000000E+00  0.00000000E+00
  0.00000000E+00  0.00000000E+00  0.00000000E+00
  0.00000000E+00  0.00000000E+00  0.00000000E+00
  0.00000000E+00  0.00000000E+00  0.00000000E+00
  0.00000000E+00  0.00000000E+00  0.00000000E+00
  0.00000000E+00  0.00000000E+00  0.00000000E+00
  0.00000000E+00  0.00000000E+00  0.00000000E+00
  0.00000000E+00  0.00000000E+00  0.00000000E+00
  0.00000000E+00  0.00000000E+00  0.00000000E+00
  0.00000000E+00  0.00000000E+00  0.00000000E+00
  0.00000000E+00  0.00000000E+00  0.00000000E+00
  0.00000000E+00  0.00000000E+00  0.00000000E+00
  0.00000000E+00  0.00000000E+00  0.00000000E+00
  0.00000000E+00  0.00000000E+00  0.00000000E+00
  0.00000000E+00  0.00000000E+00  0.00000000E+00
  0.00000000E+00  0.00000000E+00  0.00000000E+00
  0.00000000E+00  0.00000000E+00  0.00000000E+00
  0.00000000E+00  0.00000000E+00  0.00000000E+00
  0.00000000E+00  0.00000000E+00  0.00000000E+00
  0.00000000E+00  0.00000000E+00  0.00000000E+00
  0.00000000E+00  0.00000000E+00  0.00000000E+00
  0.00000000E+00  0.00000000E+00  0.00000000E+00
  0.00000000E+00  0.00000000E+00  0.00000000E+00
  0.00000000E+00  0.00000000E+00  0.00000000E+00
  0.00000000E+00  0.00000000E+00  0.00000000E+00
  0.00000000E+00  0.00000000E+00  0.00000000E+00
  0.00000000E+00  0.00000000E+00  0.00000000E+00
  0.00000000E+00  0.00000000E+00  0.00000000E+00
  0.00000000E+00  0.00000000E+00  0.00000000E+00
  0.00000000E+00  0.00000000E+00  0.00000000E+00
  0.00000000E+00  0.00000000E+00  0.00000000E+00
  0.00000000E+00  0.00000000E+00  0.00000000E+00
  0.00000000E+00  0.00000000E+00  0.00000000E+00
  0.00000000E+00  0.00000000E+00  0.00000000E+00
  0.00000000E+00  0.00000000E+00  0.00000000E+00
  0.00000000E+00  0.00000000E+00  0.00000000E+00
  0.00000000E+00  0.00000000E+00  0.00000000E+00
  0.00000000E+00  0.00000000E+00  0.00000000E+00
  0.00000000E+00  0.00000000E+00  0.00000000E+00
  0.00000000E+00  0.00000000E+00  0.00000000E+00
  0.00000000E+00  0.00000000E+00  0.00000000E+00
  0.00000000E+00  0.00000000E+00  0.00000000E+00
  0.00000000E+00  0.00000000E+00  0.00000000E+00
  0.00000000E+00  0.00000000E+00  0.00000000E+00
  0.00000000E+00  0.00000000E+00  0.00000000E+00
  0.00000000E+00  0.00000000E+00  0.00000000E+00
  0.00000000E+00  0.00000000E+00  0.00000000E+00
  0.00000000E+00  0.00000000E+00  0.00000000E+00
  0.00000000E+00  0.00000000E+00  0.00000000E+00
  0.00000000E+00  0.00000000E+00  0.00000000E+00
  0.00000000E+00  0.00000000E+00  0.00000000E+00
  0.00000000E+00  0.00000000E+00  0.00000000E+00
  0.00000000E+00  0.00000000E+00  0.00000000E+00
  0.00000000E+00  0.00000000E+00  0.00000000E+00
  0.00000000E+00  0.00000000E+00  0.00000000E+00
  0.00000000E+00  0.00000000E+00  0.00000000E+00
  0.00000000E+00  0.00000000E+00  0.00000000E+00
  0.00000000E+00  0.00000000E+00  0.00000000E+00
  0.00000000E+00  0.00000000E+00  0.00000000E+00
  0.00000000E+00  0.00000000E+00  0.00000000E+00
  0.00000000E+00  0.00000000E+00  0.00000000E+00
  0.00000000E+00  0.00000000E+00  0.00000000E+00
  0.00000000E+00  0.00000000E+00  0.00000000E+00
  0.00000000E+00  0.00000000E+00  0.00000000E+00
  0.00000000E+00  0.00000000E+00  0.00000000E+00
  0.00000000E+00  0.00000000E+00  0.00000000E+00
  0.00000000E+00  0.00000000E+00  0.00000000E+00
  0.00000000E+00  0.00000000E+00  0.00000000E+00
  0.00000000E+00  0.00000000E+00  0.00000000E+00
  0.00000000E+00  0.00000000E+00  0.00000000E+00
  0.00000000E+00  0.00000000E+00  0.00000000E+00
  0.00000000E+00  0.00000000E+00  0.00000000E+00
  0.00000000E+00  0.00000000E+00  0.00000000E+00
  0.00000000E+00  0.00000000E+00  0.00000000E+00
  0.00000000E+00  0.00000000E+00  0.00000000E+00
  0.00000000E+00  0.00000000E+00  0.00000000E+00
  0.00000000E+00  0.00000000E+00  0.00000000E+00
  0.00000000E+00  0.00000000E+00  0.00000000E+00
  0.00000000E+00  0.00000000E+00  0.00000000E+00
  0.00000000E+00  0.00000000E+00  0.00000000E+00
  0.00000000E+00  0.00000000E+00  0.00000000E+00
  0.00000000E+00  0.00000000E+00  0.00000000E+00
  0.00000000E+00  0.00000000E+00  0.00000000E+00
  0.00000000E+00  0.00000000E+00  0.00000000E+00
  0.00000000E+00  0.00000000E+00  0.00000000E+00
  0.00000000E+00  0.00000000E+00  0.00000000E+00
  0.00000000E+00  0.00000000E+00  0.00000000E+00
  0.00000000E+00  0.00000000E+00  0.00000000E+00
  0.00000000E+00  0.00000000E+00  0.00000000E+00
  0.00000000E+00  0.00000000E+00  0.00000000E+00
  0.00000000E+00  0.00000000E+00  0.00000000E+00
  0.00000000E+00  0.00000000E+00  0.00000000E+00
  0.00000000E+00  0.00000000E+00  0.00000000E+00
  0.00000000E+00  0.00000000E+00  0.00000000E+00
  0.00000000E+00  0.00000000E+00  0.00000000E+00
  0.00000000E+00  0.00000000E+00  0.00000000E+00
  0.00000000E+00  0.00000000E+00  0.00000000E+00
  0.00000000E+00  0.00000000E+00  0.00000000E+00
  0.00000000E+00  0.00000000E+00  0.00000000E+00
  0.00000000E+00  0.00000000E+00  0.00000000E+00
  0.00000000E+00  0.00000000E+00  0.00000000E+00
  0.00000000E+00  0.00000000E+00  0.00000000E+00
  0.00000000E+00  0.00000000E+00  0.00000000E+00
  0.00000000E+00  0.00000000E+00  0.00000000E+00
  0.00000000E+00  0.00000000E+00  0.00000000E+00
  0.00000000E+00  0.00000000E+00  0.00000000E+00
  0.00000000E+00  0.00000000E+00  0.00000000E+00
  0.00000000E+00  0.00000000E+00  0.00000000E+00
  0.00000000E+00  0.00000000E+00  0.00000000E+00
  0.00000000E+00  0.00000000E+00  0.00000000E+00
  0.00000000E+00  0.00000000E+00  0.00000000E+00
  0.00000000E+00  0.00000000E+00  0.00000000E+00
  0.00000000E+00  0.00000000E+00  0.00000000E+00
  0.00000000E+00  0.00000000E+00  0.00000000E+00
  0.00000000E+00  0.00000000E+00  0.00000000E+00
  0.00000000E+00  0.00000000E+00  0.00000000E+00
  0.00000000E+00  0.00000000E+00  0.00000000E+00
  0.00000000E+00  0.00000000E+00  0.00000000E+00
  0.00000000E+00  0.00000000E+00  0.00000000E+00
  0.00000000E+00  0.00000000E+00  0.00000000E+00
  0.00000000E+00  0.00000000E+00  0.00000000E+00
