Sr   Ti   Fe   O                        
   1.00000000000000     
    11.1989999999999998    0.0000000000000000    0.0000000000000000
     0.0000000000000000   11.1989999999999998    0.0000000000000000
     0.0000000000000000    0.0000000000000000   15.9830000000000005
   Sr   Ti   Fe   O 
    32    30     2    94
Direct
  0.0013552998922757  0.2492860026650819  0.1249802754222169
  0.9977529247099469  0.2492865150442392  0.6257199663050597
  0.9984297560427916  0.7511399702617214  0.1252235672894824
  0.9941760660689001  0.7508000544865118  0.6249213191762827
  0.5004820746954497  0.2506793873785282  0.1237203934556113
  0.5036476896495345  0.2386389095655854  0.6288452833233884
  0.5003166145225101  0.7511464210071773  0.1230413413899575
  0.4997291963496487  0.7544433784141179  0.6310702201772528
  0.9969926096601465  0.2506899192838171  0.3749367543910757
  0.0017218150204574  0.2493390364542891  0.8733937019992534
  0.9919437063199958  0.7485266969490032  0.3781171362142797
  0.9991530028752094  0.7505546703596141  0.8742250546879669
  0.5022887389162988  0.2418287286483927  0.3705918138357525
  0.5003155146944345  0.2517069803645299  0.8747492138634395
  0.4984581175093811  0.7526318415645764  0.3688571837250355
  0.5015106058680467  0.7511753914120591  0.8764523680268432
  0.2504382875229633  0.0010042770668079  0.1246460052503405
  0.2492503102225245  0.9956410135761344  0.6276794067333641
  0.2508231995102340  0.5002289789924205  0.1239829642092909
  0.2367001262080922  0.5056112122902464  0.6284667880514874
  0.7504957814176678  0.9992046589718051  0.1247318523855471
  0.7519787636963784  0.9953457654564039  0.6266351901156815
  0.7491971517521154  0.5011535005783599  0.1233057316089191
  0.7643080711187958  0.4976011799605745  0.6314973949227157
  0.2489894361624443  0.9940852621903209  0.3733616620349455
  0.2508260679214572  0.0013469466425306  0.8741359812066118
  0.2387042986031113  0.5070411824256963  0.3715945709932052
  0.2520390495462305  0.5006833424605600  0.8751203820116434
  0.7498471598071201  0.9961947807267092  0.3737480301196660
  0.7523307308334999  0.9999917247769256  0.8746009988037042
  0.7578841681302121  0.4972310643319719  0.3692328114337881
  0.7489227337201216  0.5017487717496962  0.8750409157643999
  0.0009066263785762  0.0009961234435483  0.9997195652492817
  0.9934298461097922  0.9962234546625965  0.4992972268678804
  0.0004746400240072  0.4999661455265427  0.9998732701297962
  0.9952331418144497  0.5013416732845489  0.4998425424794627
  0.5002096576163317  1.0008841313167423  0.9998071179133408
  0.5021659529976614  0.9939602109322042  0.4999360798704702
  0.4998197828291086  0.5000908309092442  1.0004435128816849
  0.2506704716684046  0.2505512565649374  0.9998600779813573
  0.2442874342181013  0.2383471564351598  0.4994977286599995
  0.2497422239089911  0.7498976953977204  0.9997852562817398
  0.2462847402391190  0.7501803333284447  0.5000778913036844
  0.7508399485756189  0.2504201901300396  0.9997339960851876
  0.7478479362729005  0.2467243730784299  0.4999742197477675
  0.7509408293838055  0.7508923095335485  1.0000066405520425
  0.2514128346559373  0.2517848210087125  0.2502447639234743
  0.2546387902054290  0.2542627574966912  0.7484870956913963
  0.2485861992202046  0.7499457241569965  0.2491859270975262
  0.2517973239907204  0.7486512562049142  0.7500307884812957
  0.7500413442912274  0.2491010101315048  0.2488755713210841
  0.7488937173285034  0.2515691380303123  0.7501994218739303
  0.7483309996613497  0.7486213603634625  0.2507894353567757
  0.7484039914865646  0.7493219934328518  0.7501704616429787
  1.0003161244728591  0.0000731239339684  0.2506992635762752
  0.0010617449344985  1.0003052680260385  0.7499730959361599
  0.9996137290523919  0.4998330853227871  0.2480505771274722
  0.0008798689247746  0.5000708677581124  0.7521438763370307
  0.4994897655076201 -0.0003122378572569  0.2488263500851002
  0.5007566198967870  1.0001254119395409  0.7516052140876442
  0.5004063244653840  0.5000818795800808  0.2479531690096249
  0.5007280389200046  0.4983798126844542  0.4960081767224902
  0.5028242542686819  0.5023824816031781  0.7582749556098124
  0.7470306531260207  0.7515318967490350  0.5023280104536055
  0.1120157053549948  0.1427654108275617  0.2544432041365938
  0.1151693275370140  0.1416279410491594  0.7452704802045047
  0.1086624489734920  0.6405797983191676  0.2524288282819957
  0.1125517317280089  0.6384421537889186  0.7484374002010890
  0.6101364350259729  0.1393656986423849  0.2481251514489597
  0.6120875422123354  0.1386833226999061  0.7520218203502491
  0.6073042086833710  0.6399258158618959  0.2428136700954349
  0.3926720857334918  0.3598704806716429  0.2483351707088541
  0.3923760624178170  0.3653340185981123  0.7415825547158919
  0.3891507412142209  0.8600792821464311  0.2485169771875017
  0.3876546470133110  0.8636256517450732  0.7515334373322873
  0.8903118515444677  0.3593962142549743  0.2506957808029166
  0.8900023223646613  0.3613637668744166  0.7491022946404711
  0.8899107909275519  0.8605289776063276  0.2521783152202436
  0.8914397847126818  0.8642497644162310  0.7536900792901012
  0.3597310255590415  0.1104864544159912  0.2520095659126385
  0.3630076403726341  0.1137373456562429  0.7478042826002648
  0.3584459075749089  0.6092913769730344  0.2501828096561993
  0.3646681377277854  0.6125382072672368  0.7408622670130224
  0.8603024523131041  0.1099309683341459  0.2499020253002619
  0.8628858682870013  0.1130462161307152  0.7496600770545350
  0.8600386752442676  0.6081522600712391  0.2462182686544004
  0.8648639983163979  0.6116338144152011  0.7535608902026809
  0.1412117663659621  0.3912962231319870  0.2494356888564416
  0.1406488633972850  0.3902648782188163  0.7513747529696270
  0.1406177125089316  0.8908744976371972  0.2487126989639178
  0.1404530534612705  0.8894943668669113  0.7516816614879325
  0.6415984177228132  0.3902827833593802  0.2485281017214402
  0.6385083356829567  0.8901574504078461  0.2491806706972571
  0.6379849103692801  0.8909308673999536  0.7533764232701851
  0.3585690230816738  0.3906411574638395  0.0015379862880336
  0.3591091655732768  0.8905745332573094 -0.0002144167119630
  0.3565911816479514  0.8891670368667463  0.5001406365964860
  0.8595279836269784  0.3915225979979843  1.0000710307419149
  0.8606516312096479  0.3837868040693374  0.4993240894689666
  0.8615214332681571  0.8928684102626017  0.0003830641994226
  0.8613692498572075  0.8950402214499700  0.4959895329620342
  0.1427118279750759  0.1100576221931946  0.9998317387849843
  0.1427958807146232  0.1089675767621679  0.4988769341402154
  0.1412868709900301  0.6087502569418964  0.9996693152338246
  0.1263652692056262  0.6182193436522472  0.4987109710445266
  0.6413878585766207  0.1097583709331463 -0.0002116291149662
  0.6444548117632545  0.1015254467238500  0.4997016161575426
  0.6401598033441203  0.6100932102033556  0.0000086556012459
  0.1097525964102234  0.3584063994574859  0.9996548331012347
  0.1230704326728784  0.3677604367992177  0.4986652306588351
  0.1097285885609406  0.8592856599176036  0.9989537280943477
  0.1085589707581679  0.8608320319928390  0.4983164531962483
  0.6098793965663063  0.3595136733800343  0.0006071515066212
  0.6092808799425632  0.8609735385467238  0.0001229325514967
  0.5972317189911703  0.8504930696678475  0.4992548135234698
  0.3913123609399202  0.1417432880063089  1.0002029459791046
  0.3938723296385597  0.1466317468062749  0.4997371533255646
  0.3906048550037637  0.6409635376657949  0.0011946009895566
  0.3691211713262096  0.6164503175578965  0.4991972747394482
  0.8917571078369487  0.1419715208667981  0.9995516796045010
  0.8926539725517533  0.1421546824044413  0.4995154784395956
  0.8918054316224512  0.6402699137625060  0.0005740644603149
  0.0025259156823052  0.0027503061927577  0.1254768417946166
  0.0009156763286514 -0.0008191666191337  0.6245353761679550
  0.0025065732921596  0.4986898413600407  0.1246442465869122
  0.0022630508585965  0.4974303744327400  0.6255465383085137
  0.4982368013720015  0.0011613127147835  0.1246726105338602
  0.5007284350592506  0.0003469786457189  0.6254085303164657
  0.4986262108703808  0.4982001120344926  0.1242418953076983
  0.0026595423087499  0.0025444699837162  0.3741903387096585
  0.0040307428411268  0.0059319742213383  0.8751869142291751
  0.9976849237619989  0.4984703491911699  0.3740256749403503
  0.0019606568168310  0.4989300248691080  0.8755665854654395
  0.4991446030788696 -0.0008865761110574  0.3743827827879334
  0.4974873824198561  0.0022439685581377  0.8756751143719314
  0.4956260571320493  0.4969829991582406  0.8778181906715146
  0.2629359115651010  0.2649485085624514  0.3780730816127810
  0.2550160223107515  0.2526064408160305  0.8735324478120792
  0.2512895883310053  0.7514170660599838  0.3745233526333492
  0.2526815649469875  0.7451090433128515  0.8743360950446243
  0.7481551135832366  0.2486920354038571  0.3745330078793809
  0.7499501477197027  0.2526508851996452  0.8747263887568675
  0.7408819443642981  0.7371598783643706  0.3699452731479961
  0.7533643988766352  0.7530817377786672  0.8778972624480065
  0.2501205083127308  0.2491061204686178  0.1258677845984685
  0.2581106990977411  0.2615889417276029  0.6205477396079665
  0.2480587149878411  0.7489653638421820  0.1248435819635781
  0.2469713360021879  0.7532275841219701  0.6240622981180078
  0.7515170554839531  0.2495870359938919  0.1246245546580457
  0.7492024704632518  0.2473844543361280  0.6241561499800017
  0.7520883644380575  0.7528185265359624  0.1237577311632125
  0.6393521213841955  0.3897276790357474  0.7456906784837111
  0.6126574155591472  0.6400726498221606  0.7578337032061699
  0.5068665333640604  0.5047906005543971  0.3737150600452382
  0.5977866308350708  0.3503276761336714  0.4986867825793502
  0.7532044517988095  0.7548002169564753  0.6322555744025760
  0.8761759794619789  0.6261696126114509  0.5013577655908109
  0.5741942775408936  0.5636594625835016  0.5872829197275606
 
  0.00000000E+00  0.00000000E+00  0.00000000E+00
  0.00000000E+00  0.00000000E+00  0.00000000E+00
  0.00000000E+00  0.00000000E+00  0.00000000E+00
  0.00000000E+00  0.00000000E+00  0.00000000E+00
  0.00000000E+00  0.00000000E+00  0.00000000E+00
  0.00000000E+00  0.00000000E+00  0.00000000E+00
  0.00000000E+00  0.00000000E+00  0.00000000E+00
  0.00000000E+00  0.00000000E+00  0.00000000E+00
  0.00000000E+00  0.00000000E+00  0.00000000E+00
  0.00000000E+00  0.00000000E+00  0.00000000E+00
  0.00000000E+00  0.00000000E+00  0.00000000E+00
  0.00000000E+00  0.00000000E+00  0.00000000E+00
  0.00000000E+00  0.00000000E+00  0.00000000E+00
  0.00000000E+00  0.00000000E+00  0.00000000E+00
  0.00000000E+00  0.00000000E+00  0.00000000E+00
  0.00000000E+00  0.00000000E+00  0.00000000E+00
  0.00000000E+00  0.00000000E+00  0.00000000E+00
  0.00000000E+00  0.00000000E+00  0.00000000E+00
  0.00000000E+00  0.00000000E+00  0.00000000E+00
  0.00000000E+00  0.00000000E+00  0.00000000E+00
  0.00000000E+00  0.00000000E+00  0.00000000E+00
  0.00000000E+00  0.00000000E+00  0.00000000E+00
  0.00000000E+00  0.00000000E+00  0.00000000E+00
  0.00000000E+00  0.00000000E+00  0.00000000E+00
  0.00000000E+00  0.00000000E+00  0.00000000E+00
  0.00000000E+00  0.00000000E+00  0.00000000E+00
  0.00000000E+00  0.00000000E+00  0.00000000E+00
  0.00000000E+00  0.00000000E+00  0.00000000E+00
  0.00000000E+00  0.00000000E+00  0.00000000E+00
  0.00000000E+00  0.00000000E+00  0.00000000E+00
  0.00000000E+00  0.00000000E+00  0.00000000E+00
  0.00000000E+00  0.00000000E+00  0.00000000E+00
  0.00000000E+00  0.00000000E+00  0.00000000E+00
  0.00000000E+00  0.00000000E+00  0.00000000E+00
  0.00000000E+00  0.00000000E+00  0.00000000E+00
  0.00000000E+00  0.00000000E+00  0.00000000E+00
  0.00000000E+00  0.00000000E+00  0.00000000E+00
  0.00000000E+00  0.00000000E+00  0.00000000E+00
  0.00000000E+00  0.00000000E+00  0.00000000E+00
  0.00000000E+00  0.00000000E+00  0.00000000E+00
  0.00000000E+00  0.00000000E+00  0.00000000E+00
  0.00000000E+00  0.00000000E+00  0.00000000E+00
  0.00000000E+00  0.00000000E+00  0.00000000E+00
  0.00000000E+00  0.00000000E+00  0.00000000E+00
  0.00000000E+00  0.00000000E+00  0.00000000E+00
  0.00000000E+00  0.00000000E+00  0.00000000E+00
  0.00000000E+00  0.00000000E+00  0.00000000E+00
  0.00000000E+00  0.00000000E+00  0.00000000E+00
  0.00000000E+00  0.00000000E+00  0.00000000E+00
  0.00000000E+00  0.00000000E+00  0.00000000E+00
  0.00000000E+00  0.00000000E+00  0.00000000E+00
  0.00000000E+00  0.00000000E+00  0.00000000E+00
  0.00000000E+00  0.00000000E+00  0.00000000E+00
  0.00000000E+00  0.00000000E+00  0.00000000E+00
  0.00000000E+00  0.00000000E+00  0.00000000E+00
  0.00000000E+00  0.00000000E+00  0.00000000E+00
  0.00000000E+00  0.00000000E+00  0.00000000E+00
  0.00000000E+00  0.00000000E+00  0.00000000E+00
  0.00000000E+00  0.00000000E+00  0.00000000E+00
  0.00000000E+00  0.00000000E+00  0.00000000E+00
  0.00000000E+00  0.00000000E+00  0.00000000E+00
  0.00000000E+00  0.00000000E+00  0.00000000E+00
  0.00000000E+00  0.00000000E+00  0.00000000E+00
  0.00000000E+00  0.00000000E+00  0.00000000E+00
  0.00000000E+00  0.00000000E+00  0.00000000E+00
  0.00000000E+00  0.00000000E+00  0.00000000E+00
  0.00000000E+00  0.00000000E+00  0.00000000E+00
  0.00000000E+00  0.00000000E+00  0.00000000E+00
  0.00000000E+00  0.00000000E+00  0.00000000E+00
  0.00000000E+00  0.00000000E+00  0.00000000E+00
  0.00000000E+00  0.00000000E+00  0.00000000E+00
  0.00000000E+00  0.00000000E+00  0.00000000E+00
  0.00000000E+00  0.00000000E+00  0.00000000E+00
  0.00000000E+00  0.00000000E+00  0.00000000E+00
  0.00000000E+00  0.00000000E+00  0.00000000E+00
  0.00000000E+00  0.00000000E+00  0.00000000E+00
  0.00000000E+00  0.00000000E+00  0.00000000E+00
  0.00000000E+00  0.00000000E+00  0.00000000E+00
  0.00000000E+00  0.00000000E+00  0.00000000E+00
  0.00000000E+00  0.00000000E+00  0.00000000E+00
  0.00000000E+00  0.00000000E+00  0.00000000E+00
  0.00000000E+00  0.00000000E+00  0.00000000E+00
  0.00000000E+00  0.00000000E+00  0.00000000E+00
  0.00000000E+00  0.00000000E+00  0.00000000E+00
  0.00000000E+00  0.00000000E+00  0.00000000E+00
  0.00000000E+00  0.00000000E+00  0.00000000E+00
  0.00000000E+00  0.00000000E+00  0.00000000E+00
  0.00000000E+00  0.00000000E+00  0.00000000E+00
  0.00000000E+00  0.00000000E+00  0.00000000E+00
  0.00000000E+00  0.00000000E+00  0.00000000E+00
  0.00000000E+00  0.00000000E+00  0.00000000E+00
  0.00000000E+00  0.00000000E+00  0.00000000E+00
  0.00000000E+00  0.00000000E+00  0.00000000E+00
  0.00000000E+00  0.00000000E+00  0.00000000E+00
  0.00000000E+00  0.00000000E+00  0.00000000E+00
  0.00000000E+00  0.00000000E+00  0.00000000E+00
  0.00000000E+00  0.00000000E+00  0.00000000E+00
  0.00000000E+00  0.00000000E+00  0.00000000E+00
  0.00000000E+00  0.00000000E+00  0.00000000E+00
  0.00000000E+00  0.00000000E+00  0.00000000E+00
  0.00000000E+00  0.00000000E+00  0.00000000E+00
  0.00000000E+00  0.00000000E+00  0.00000000E+00
  0.00000000E+00  0.00000000E+00  0.00000000E+00
  0.00000000E+00  0.00000000E+00  0.00000000E+00
  0.00000000E+00  0.00000000E+00  0.00000000E+00
  0.00000000E+00  0.00000000E+00  0.00000000E+00
  0.00000000E+00  0.00000000E+00  0.00000000E+00
  0.00000000E+00  0.00000000E+00  0.00000000E+00
  0.00000000E+00  0.00000000E+00  0.00000000E+00
  0.00000000E+00  0.00000000E+00  0.00000000E+00
  0.00000000E+00  0.00000000E+00  0.00000000E+00
  0.00000000E+00  0.00000000E+00  0.00000000E+00
  0.00000000E+00  0.00000000E+00  0.00000000E+00
  0.00000000E+00  0.00000000E+00  0.00000000E+00
  0.00000000E+00  0.00000000E+00  0.00000000E+00
  0.00000000E+00  0.00000000E+00  0.00000000E+00
  0.00000000E+00  0.00000000E+00  0.00000000E+00
  0.00000000E+00  0.00000000E+00  0.00000000E+00
  0.00000000E+00  0.00000000E+00  0.00000000E+00
  0.00000000E+00  0.00000000E+00  0.00000000E+00
  0.00000000E+00  0.00000000E+00  0.00000000E+00
  0.00000000E+00  0.00000000E+00  0.00000000E+00
  0.00000000E+00  0.00000000E+00  0.00000000E+00
  0.00000000E+00  0.00000000E+00  0.00000000E+00
  0.00000000E+00  0.00000000E+00  0.00000000E+00
  0.00000000E+00  0.00000000E+00  0.00000000E+00
  0.00000000E+00  0.00000000E+00  0.00000000E+00
  0.00000000E+00  0.00000000E+00  0.00000000E+00
  0.00000000E+00  0.00000000E+00  0.00000000E+00
  0.00000000E+00  0.00000000E+00  0.00000000E+00
  0.00000000E+00  0.00000000E+00  0.00000000E+00
  0.00000000E+00  0.00000000E+00  0.00000000E+00
  0.00000000E+00  0.00000000E+00  0.00000000E+00
  0.00000000E+00  0.00000000E+00  0.00000000E+00
  0.00000000E+00  0.00000000E+00  0.00000000E+00
  0.00000000E+00  0.00000000E+00  0.00000000E+00
  0.00000000E+00  0.00000000E+00  0.00000000E+00
  0.00000000E+00  0.00000000E+00  0.00000000E+00
  0.00000000E+00  0.00000000E+00  0.00000000E+00
  0.00000000E+00  0.00000000E+00  0.00000000E+00
  0.00000000E+00  0.00000000E+00  0.00000000E+00
  0.00000000E+00  0.00000000E+00  0.00000000E+00
  0.00000000E+00  0.00000000E+00  0.00000000E+00
  0.00000000E+00  0.00000000E+00  0.00000000E+00
  0.00000000E+00  0.00000000E+00  0.00000000E+00
  0.00000000E+00  0.00000000E+00  0.00000000E+00
  0.00000000E+00  0.00000000E+00  0.00000000E+00
  0.00000000E+00  0.00000000E+00  0.00000000E+00
  0.00000000E+00  0.00000000E+00  0.00000000E+00
  0.00000000E+00  0.00000000E+00  0.00000000E+00
  0.00000000E+00  0.00000000E+00  0.00000000E+00
  0.00000000E+00  0.00000000E+00  0.00000000E+00
  0.00000000E+00  0.00000000E+00  0.00000000E+00
  0.00000000E+00  0.00000000E+00  0.00000000E+00
  0.00000000E+00  0.00000000E+00  0.00000000E+00
  0.00000000E+00  0.00000000E+00  0.00000000E+00
  0.00000000E+00  0.00000000E+00  0.00000000E+00
  0.00000000E+00  0.00000000E+00  0.00000000E+00
