Sr   Ti   Fe   O                        
   1.00000000000000     
    11.1989999999999998    0.0000000000000000    0.0000000000000000
     0.0000000000000000   11.1989999999999998    0.0000000000000000
     0.0000000000000000    0.0000000000000000   15.9830000000000005
   Sr   Ti   Fe   O 
    32    29     3    94
Direct
  0.9990325068176487  0.2509763457206441  0.1250799145650120
  1.0023836973560134  0.2502816929496970  0.6227185122343512
  0.0032658700861764  0.7507923201715969  0.1236668767783380
  0.0015680363034433  0.7488432416079266  0.6239537344825636
  0.5003188097073440  0.2511400592600511  0.1247977283426615
  0.4962851278555315  0.2468577428570558  0.6269401883826730
  0.4949445088176646  0.7489050702153511  0.1232534790092644
  0.4993721634156733  0.7508916326714655  0.6270877533145619
  1.0043070011489423  0.2505546832959510  0.3770153438167877
  0.9988392831616679  0.2503338039332717  0.8745269115874853
  0.0099595913629874  0.7492965729864030  0.3760705318527531
 -0.0008131674769605  0.7505107273573808  0.8731793409504093
  0.4954841555697505  0.2476134578255270  0.3737599685095300
  0.5008236093007474  0.2509235108790585  0.8752873290483643
  0.4875477019798716  0.7545414678767608  0.3725367178529412
  0.4979780503626312  0.7490403839573841  0.8750105420504655
  0.2488400280682291  0.0004105975512373  0.1252408699056603
  0.2497909314766499  0.9992848111466293  0.6233654065797906
  0.2517974204145841  0.5002305921255722  0.1248090705301489
  0.2503388418804126  0.4982828815664294  0.6250434594745728
  0.7497874417807142  0.0059450836097899  0.1240281776775382
  0.7500073976806962  0.0007320495029853  0.6227254908934620
  0.7491328104869800  0.4959385098285343  0.1228620360742255
  0.7547423506899132  0.4960162356920937  0.6282317662705352
  0.2503439276266901  0.0017692009794213  0.3765313852237661
  0.2489738987590356  0.0001328073205689  0.8747974234904121
  0.2502465575047390  0.4970395499662728  0.3750594672623554
  0.2504728898039838  0.4984233847762160  0.8755713353899215
  0.7483293520812170  0.0111492724620437  0.3767924035956333
  0.7499897996412285  0.0015033598656783  0.8729866574842009
  0.7578363677454556  0.4884960100408070  0.3730796771160017
  0.7479523691264141  0.4990745691977096  0.8747171552727934
  0.9985531091209539  0.9997531875372953  0.9998851295224477
  1.0003433786060638  0.9975951462107243  0.4986866074059607
  0.9995208512047582  0.5006096189413404  0.9997595917792176
  0.9986897165754569  0.5008573963986802  0.4989999412640714
  0.5000243126809433  0.9996283193464548  0.9997462302652399
  0.5023050715288453  0.9982668545074977  0.4991682242954246
  0.5000480121815274  0.5005649234262922  1.0002150147610280
  0.2494713376237744  0.2495591519485622  0.0003526082124255
  0.2515937480625776  0.2484289057953809  0.5007466945711433
  0.2490758299542852  0.7504904170598274  0.9993956749985008
  0.2521043969323850  0.7497651030977078  0.5007907266528959
  0.7503200713147715  0.2497897914225366  0.9991658520410686
  0.7496268485522258  0.7509352098083277  0.9945007622716429
  0.2496811202373935  0.2498764744786481  0.2480547844772359
  0.2493776682981825  0.2493078532670838  0.7500178480678749
  0.2491652999497759  0.7501623274386334  0.2488072107947047
  0.2493655461065573  0.7494406158950855  0.7503700768162296
  0.7489992186938195  0.2511048037899986  0.2512242955703948
  0.7487094413045203  0.2505362522528200  0.7473618925146659
  0.7502581607890172  0.7508244840938338  0.2407639553111138
  0.7486388971447792  0.7485043461351825  0.7476512938360078
 -0.0001413038964297  0.0010652131691416  0.2518127193420767
  0.9991122392650148  0.9994497493899152  0.7483998757096334
  0.0012836902650396  0.5002405329594950  0.2501656781899306
  0.9997143321116447  0.5007432488177043  0.7500684314475951
  0.4997366527510523  1.0002168980464321  0.2500615353464638
  0.5002206757241111  0.9986998644116053  0.7500369860649173
  0.4998494570032389  0.5000458949216200  0.2529437636236320
  0.4986694047060593  0.5000388196932648  0.7494735602943000
  0.7618142015440527  0.2445703303020511  0.5005863333164908
  0.4880238335456594  0.5022973564085148  0.5004279442446279
  0.7568731562498555  0.7543548252727025  0.5048277393781623
  0.1095018908415014  0.1406346814697716  0.2456275741607615
  0.1076940345884333  0.1403030353362733  0.7497240713349596
  0.1111281697157174  0.6399232600856782  0.2482611088789635
  0.1080441309621026  0.6416987403698741  0.7505331741878688
  0.6105842025450479  0.1390403676916073  0.2494480616268294
  0.6084316141025558  0.1400071927792584  0.7503510000895987
  0.6168537459669639  0.6427642578516246  0.2637832526169300
  0.6071380222198688  0.6398993190648666  0.7558593380863111
  0.3893474747656687  0.3598595256083354  0.2455787991646775
  0.3888671575228054  0.3573806995319651  0.7535934277105043
  0.3887051843114836  0.8616208419742353  0.2479490309914469
  0.3905412528213100  0.8585418883347101  0.7502638754746167
  0.8886296339094990  0.3623111579789188  0.2516947145538595
  0.8900764770736166  0.3597722367603561  0.7474983055486932
  0.8842015730989545  0.8601411753370438  0.2637100921050641
  0.8895680383576693  0.8587670077877773  0.7476875671603894
  0.3606567109441742  0.1105020999409593  0.2482908962180026
  0.3594516335175178  0.1080188644043784  0.7481974220035212
  0.3612781899496134  0.6134715460748346  0.2474408830344094
  0.3562975970931166  0.6096845076262950  0.7541175268681330
  0.8597084859527337  0.1123976882681104  0.2537100594047562
  0.8576119244224815  0.1099238689171572  0.7451540889813468
  0.8612396350243748  0.6170123843496641  0.2591058457118513
  0.8599409368621369  0.6094920686979682  0.7549379894920090
  0.1403309486595863  0.3903504516468541  0.2462157141384757
  0.1397372627071059  0.3908760242527796  0.7487779577030341
  0.1375463187327178  0.8891385851299538  0.2488405780607504
  0.1396973327104423  0.8910464209968503  0.7504604040486994
  0.6391783608434733  0.3901767666091642  0.2467063970275310
  0.6389150322211001  0.3897857989868553  0.7533252901935457
  0.6413759711420126  0.8862115339364839  0.2608158323876094
  0.6407681300828943  0.8907618992626218  0.7508312250833301
  0.3597604984925225  0.3897642631938154  0.0022797610630134
  0.3590197852024545  0.8909431120547147  0.0010836213162570
  0.3608190258967043  0.8896356827145534  0.4996970951311528
  0.8592125370440322  0.3908868395030978  0.9998537040385724
  0.8570035159571305  0.8916171948469762  1.0004068670804875
  0.8660708266101017  0.8922149976707486  0.4867238751880542
  0.1390404749853717  0.1081299891934698  0.0015100783562026
  0.1389913168979142  0.1134137256210820  0.5022057456580458
  0.1399982673306415  0.6094655997983727  0.0009682459872541
  0.1414004185813426  0.6124386728596339  0.4995348252603942
  0.6406945312335941  0.1093637352519153  0.9994718357950861
  0.6321909221118752  0.1203451341397635  0.5000019359395181
  0.6417967044958459  0.6103075901255163  0.9994525417923501
  0.1090361747536254  0.3598716587161288  0.0017550760512802
  0.1215806516301641  0.3664178999875002  0.5021768370803784
  0.1075255975315281  0.8597877728094686  0.9999891222027840
  0.1134764606546074  0.8609508903406965  0.5003662775702293
  0.6104805760968562  0.3596675962913408  0.0013829430146174
  0.6083876325587825  0.8582575830485860  1.0001520974476308
  0.6116408385294385  0.8549841909544659  0.4889162029122405
  0.3907735095054717  0.1397152542201112  0.0011238564436399
  0.3860704327685888  0.1325967417594764  0.5016110207597645
  0.3892598363503624  0.6412736749657244  0.0001741917904268
  0.8907022097387356  0.1409084450899674  0.0009619082310018
  0.8903762406315961  0.1353491919283787  0.5001181735001070
  0.8905632786382148  0.6420926502561808  0.9995939684549650
  0.9924314200656925  0.9951625147655774  0.1267263827448495
  0.9987781178438184  0.9959554997357954  0.6240943794980630
  0.9938002009674075  0.5034606090194280  0.1258368685256111
  0.9976481830316187  0.5077745220244255  0.6245709955559489
  0.5057325339115620  0.9966845583050867  0.1258773502036786
  0.5050438825711568  0.9940512342462111  0.6243583673680887
  0.5042956695308697  0.5079113276563053  0.1255610532691499
  0.4910926964658497  0.5015499731737890  0.6298402218122441
  0.0120643996454531  0.0079793438406858  0.3738846602473270
  0.9960656701114168  1.0007298442856574  0.8746036638339341
  0.0095367429315228  0.4952772345305677  0.3734205048035449
  0.0015138158711890  0.4977646229958120  0.8755279457892237
  0.4952777332295247  0.0042200070341666  0.3738953917890994
  0.4988340695820142  0.9996039214820912  0.8753203864718534
  0.4977159196768708  0.4985128753181724  0.8777793525626104
  0.2493269307801654  0.2494850646403727  0.3735019644965386
  0.2476308852083642  0.2478409458226242  0.8759485626992400
  0.2504199122707131  0.7508767796394714  0.3739651343872478
  0.2478767313619568  0.7524526479951325  0.8757760825581251
  0.7520948566721974  0.2486526150378440  0.8746300793501579
  0.7507521405957395  0.7529768469694212  0.8754029892445776
  0.2498100828998179  0.2481141725824628  0.1239416201293495
  0.2508801147196428  0.2496649666393018  0.6265058476636467
  0.2483056805994508  0.7516639788655382  0.1241394019944460
  0.2499481332449456  0.7494778104394193  0.6258354349033024
  0.7518669950862664  0.2488030613598788  0.1253079434118904
  0.7390722205918716  0.2579878801274438  0.6230928747672492
  0.7497515733985337  0.7511206003105292  0.1255909187345672
  0.7409614160611999  0.7376459860996457  0.6287249679799753
  0.7394066311852081  0.2573273027250136  0.3767775881475182
  0.8753577866599478  0.3800216134270746  0.4996405677826865
  0.3953618566184788  0.6468966056930924  0.5001989892336762
  0.4875580008705967  0.4955149411975068  0.3717770900115341
  0.3752832641868716  0.3740994518396913  0.5010831728158731
  0.8849029889121975  0.6350154066084354  0.4869377968926412
  0.6491328243718072  0.4909573779072189  0.4997244988003049
 
  0.00000000E+00  0.00000000E+00  0.00000000E+00
  0.00000000E+00  0.00000000E+00  0.00000000E+00
  0.00000000E+00  0.00000000E+00  0.00000000E+00
  0.00000000E+00  0.00000000E+00  0.00000000E+00
  0.00000000E+00  0.00000000E+00  0.00000000E+00
  0.00000000E+00  0.00000000E+00  0.00000000E+00
  0.00000000E+00  0.00000000E+00  0.00000000E+00
  0.00000000E+00  0.00000000E+00  0.00000000E+00
  0.00000000E+00  0.00000000E+00  0.00000000E+00
  0.00000000E+00  0.00000000E+00  0.00000000E+00
  0.00000000E+00  0.00000000E+00  0.00000000E+00
  0.00000000E+00  0.00000000E+00  0.00000000E+00
  0.00000000E+00  0.00000000E+00  0.00000000E+00
  0.00000000E+00  0.00000000E+00  0.00000000E+00
  0.00000000E+00  0.00000000E+00  0.00000000E+00
  0.00000000E+00  0.00000000E+00  0.00000000E+00
  0.00000000E+00  0.00000000E+00  0.00000000E+00
  0.00000000E+00  0.00000000E+00  0.00000000E+00
  0.00000000E+00  0.00000000E+00  0.00000000E+00
  0.00000000E+00  0.00000000E+00  0.00000000E+00
  0.00000000E+00  0.00000000E+00  0.00000000E+00
  0.00000000E+00  0.00000000E+00  0.00000000E+00
  0.00000000E+00  0.00000000E+00  0.00000000E+00
  0.00000000E+00  0.00000000E+00  0.00000000E+00
  0.00000000E+00  0.00000000E+00  0.00000000E+00
  0.00000000E+00  0.00000000E+00  0.00000000E+00
  0.00000000E+00  0.00000000E+00  0.00000000E+00
  0.00000000E+00  0.00000000E+00  0.00000000E+00
  0.00000000E+00  0.00000000E+00  0.00000000E+00
  0.00000000E+00  0.00000000E+00  0.00000000E+00
  0.00000000E+00  0.00000000E+00  0.00000000E+00
  0.00000000E+00  0.00000000E+00  0.00000000E+00
  0.00000000E+00  0.00000000E+00  0.00000000E+00
  0.00000000E+00  0.00000000E+00  0.00000000E+00
  0.00000000E+00  0.00000000E+00  0.00000000E+00
  0.00000000E+00  0.00000000E+00  0.00000000E+00
  0.00000000E+00  0.00000000E+00  0.00000000E+00
  0.00000000E+00  0.00000000E+00  0.00000000E+00
  0.00000000E+00  0.00000000E+00  0.00000000E+00
  0.00000000E+00  0.00000000E+00  0.00000000E+00
  0.00000000E+00  0.00000000E+00  0.00000000E+00
  0.00000000E+00  0.00000000E+00  0.00000000E+00
  0.00000000E+00  0.00000000E+00  0.00000000E+00
  0.00000000E+00  0.00000000E+00  0.00000000E+00
  0.00000000E+00  0.00000000E+00  0.00000000E+00
  0.00000000E+00  0.00000000E+00  0.00000000E+00
  0.00000000E+00  0.00000000E+00  0.00000000E+00
  0.00000000E+00  0.00000000E+00  0.00000000E+00
  0.00000000E+00  0.00000000E+00  0.00000000E+00
  0.00000000E+00  0.00000000E+00  0.00000000E+00
  0.00000000E+00  0.00000000E+00  0.00000000E+00
  0.00000000E+00  0.00000000E+00  0.00000000E+00
  0.00000000E+00  0.00000000E+00  0.00000000E+00
  0.00000000E+00  0.00000000E+00  0.00000000E+00
  0.00000000E+00  0.00000000E+00  0.00000000E+00
  0.00000000E+00  0.00000000E+00  0.00000000E+00
  0.00000000E+00  0.00000000E+00  0.00000000E+00
  0.00000000E+00  0.00000000E+00  0.00000000E+00
  0.00000000E+00  0.00000000E+00  0.00000000E+00
  0.00000000E+00  0.00000000E+00  0.00000000E+00
  0.00000000E+00  0.00000000E+00  0.00000000E+00
  0.00000000E+00  0.00000000E+00  0.00000000E+00
  0.00000000E+00  0.00000000E+00  0.00000000E+00
  0.00000000E+00  0.00000000E+00  0.00000000E+00
  0.00000000E+00  0.00000000E+00  0.00000000E+00
  0.00000000E+00  0.00000000E+00  0.00000000E+00
  0.00000000E+00  0.00000000E+00  0.00000000E+00
  0.00000000E+00  0.00000000E+00  0.00000000E+00
  0.00000000E+00  0.00000000E+00  0.00000000E+00
  0.00000000E+00  0.00000000E+00  0.00000000E+00
  0.00000000E+00  0.00000000E+00  0.00000000E+00
  0.00000000E+00  0.00000000E+00  0.00000000E+00
  0.00000000E+00  0.00000000E+00  0.00000000E+00
  0.00000000E+00  0.00000000E+00  0.00000000E+00
  0.00000000E+00  0.00000000E+00  0.00000000E+00
  0.00000000E+00  0.00000000E+00  0.00000000E+00
  0.00000000E+00  0.00000000E+00  0.00000000E+00
  0.00000000E+00  0.00000000E+00  0.00000000E+00
  0.00000000E+00  0.00000000E+00  0.00000000E+00
  0.00000000E+00  0.00000000E+00  0.00000000E+00
  0.00000000E+00  0.00000000E+00  0.00000000E+00
  0.00000000E+00  0.00000000E+00  0.00000000E+00
  0.00000000E+00  0.00000000E+00  0.00000000E+00
  0.00000000E+00  0.00000000E+00  0.00000000E+00
  0.00000000E+00  0.00000000E+00  0.00000000E+00
  0.00000000E+00  0.00000000E+00  0.00000000E+00
  0.00000000E+00  0.00000000E+00  0.00000000E+00
  0.00000000E+00  0.00000000E+00  0.00000000E+00
  0.00000000E+00  0.00000000E+00  0.00000000E+00
  0.00000000E+00  0.00000000E+00  0.00000000E+00
  0.00000000E+00  0.00000000E+00  0.00000000E+00
  0.00000000E+00  0.00000000E+00  0.00000000E+00
  0.00000000E+00  0.00000000E+00  0.00000000E+00
  0.00000000E+00  0.00000000E+00  0.00000000E+00
  0.00000000E+00  0.00000000E+00  0.00000000E+00
  0.00000000E+00  0.00000000E+00  0.00000000E+00
  0.00000000E+00  0.00000000E+00  0.00000000E+00
  0.00000000E+00  0.00000000E+00  0.00000000E+00
  0.00000000E+00  0.00000000E+00  0.00000000E+00
  0.00000000E+00  0.00000000E+00  0.00000000E+00
  0.00000000E+00  0.00000000E+00  0.00000000E+00
  0.00000000E+00  0.00000000E+00  0.00000000E+00
  0.00000000E+00  0.00000000E+00  0.00000000E+00
  0.00000000E+00  0.00000000E+00  0.00000000E+00
  0.00000000E+00  0.00000000E+00  0.00000000E+00
  0.00000000E+00  0.00000000E+00  0.00000000E+00
  0.00000000E+00  0.00000000E+00  0.00000000E+00
  0.00000000E+00  0.00000000E+00  0.00000000E+00
  0.00000000E+00  0.00000000E+00  0.00000000E+00
  0.00000000E+00  0.00000000E+00  0.00000000E+00
  0.00000000E+00  0.00000000E+00  0.00000000E+00
  0.00000000E+00  0.00000000E+00  0.00000000E+00
  0.00000000E+00  0.00000000E+00  0.00000000E+00
  0.00000000E+00  0.00000000E+00  0.00000000E+00
  0.00000000E+00  0.00000000E+00  0.00000000E+00
  0.00000000E+00  0.00000000E+00  0.00000000E+00
  0.00000000E+00  0.00000000E+00  0.00000000E+00
  0.00000000E+00  0.00000000E+00  0.00000000E+00
  0.00000000E+00  0.00000000E+00  0.00000000E+00
  0.00000000E+00  0.00000000E+00  0.00000000E+00
  0.00000000E+00  0.00000000E+00  0.00000000E+00
  0.00000000E+00  0.00000000E+00  0.00000000E+00
  0.00000000E+00  0.00000000E+00  0.00000000E+00
  0.00000000E+00  0.00000000E+00  0.00000000E+00
  0.00000000E+00  0.00000000E+00  0.00000000E+00
  0.00000000E+00  0.00000000E+00  0.00000000E+00
  0.00000000E+00  0.00000000E+00  0.00000000E+00
  0.00000000E+00  0.00000000E+00  0.00000000E+00
  0.00000000E+00  0.00000000E+00  0.00000000E+00
  0.00000000E+00  0.00000000E+00  0.00000000E+00
  0.00000000E+00  0.00000000E+00  0.00000000E+00
  0.00000000E+00  0.00000000E+00  0.00000000E+00
  0.00000000E+00  0.00000000E+00  0.00000000E+00
  0.00000000E+00  0.00000000E+00  0.00000000E+00
  0.00000000E+00  0.00000000E+00  0.00000000E+00
  0.00000000E+00  0.00000000E+00  0.00000000E+00
  0.00000000E+00  0.00000000E+00  0.00000000E+00
  0.00000000E+00  0.00000000E+00  0.00000000E+00
  0.00000000E+00  0.00000000E+00  0.00000000E+00
  0.00000000E+00  0.00000000E+00  0.00000000E+00
  0.00000000E+00  0.00000000E+00  0.00000000E+00
  0.00000000E+00  0.00000000E+00  0.00000000E+00
  0.00000000E+00  0.00000000E+00  0.00000000E+00
  0.00000000E+00  0.00000000E+00  0.00000000E+00
  0.00000000E+00  0.00000000E+00  0.00000000E+00
  0.00000000E+00  0.00000000E+00  0.00000000E+00
  0.00000000E+00  0.00000000E+00  0.00000000E+00
  0.00000000E+00  0.00000000E+00  0.00000000E+00
  0.00000000E+00  0.00000000E+00  0.00000000E+00
  0.00000000E+00  0.00000000E+00  0.00000000E+00
  0.00000000E+00  0.00000000E+00  0.00000000E+00
  0.00000000E+00  0.00000000E+00  0.00000000E+00
  0.00000000E+00  0.00000000E+00  0.00000000E+00
  0.00000000E+00  0.00000000E+00  0.00000000E+00
  0.00000000E+00  0.00000000E+00  0.00000000E+00
  0.00000000E+00  0.00000000E+00  0.00000000E+00
  0.00000000E+00  0.00000000E+00  0.00000000E+00
  0.00000000E+00  0.00000000E+00  0.00000000E+00
