SrTiFeO                                 
   1.00000000000000     
    11.1989999999999998    0.0000000000000000    0.0000000000000000
     0.0000000000000000   11.1989999999999998    0.0000000000000000
     0.0000000000000000    0.0000000000000000   15.9830000000000005
   Sr   Ti   Fe   O 
    32    29     3    94
Direct
  0.9995996819173666  0.2510325523119713  0.1250601749606982
  0.9985952902333423  0.2490412163534862  0.6225422462408814
  0.0040044524830324  0.7507224710684497  0.1232360858908624
  0.0027662794855659  0.7490310885572105  0.6238759168846458
  0.4994598904068152  0.2517711125247838  0.1264588192419053
  0.5044990380408229  0.2494238235204461  0.6222640631708496
  0.4960832676668933  0.7490908492444798  0.1236048229893568
  0.4973677746971397  0.7507225685443166  0.6269816982170181
  0.9998563272119968  0.2499538703686488  0.3772877173675211
  1.0000706910956805  0.2500322955679434  0.8745394961691695
  0.0074786900130684  0.7485574016910019  0.3775055091034706
  0.9994741645695341  0.7501236631171965  0.8730361666778104
  0.5030171880008132  0.2497623364317224  0.3788397647559359
  0.4998920145581207  0.2510837424960668  0.8740907813387092
  0.4864636676920461  0.7521556197635345  0.3726609486384179
  0.4978541877876725  0.7504868821388786  0.8757662604150938
  0.2500340645967898  0.0008688185482039  0.1252332975270884
  0.2501589114158804  0.9994671736201550  0.6235230204516140
  0.2513722322464099  0.5006658658916757  0.1252619278234254
  0.2468827721285978  0.4995696968499202  0.6240516047340829
  0.7497321641314532  0.0048236411411279  0.1233382585896403
  0.7519059824116539  0.0058394693177949  0.6238236674417884
  0.7492983971003987  0.4958894968486965  0.1236982789594154
  0.7518081880784773  0.4909115016205799  0.6262019392300979
  0.2499770752114583  0.0016295510119728  0.3761947727457386
  0.2498891898077518  0.0003807368596942  0.8744110445051956
  0.2480486212478169  0.4983441358605380  0.3757542835266626
  0.2505317050963067  0.4992067321080365  0.8749178228648450
  0.7513257774720519  0.0124048571412882  0.3760056145022230
  0.7497013569124135  0.0001790546447969  0.8738102703418014
  0.7517275399438528  0.4837666657289256  0.3757991820233241
  0.7480672297092819  0.4989048342520446  0.8743803674697356
  0.9993350757070585  0.9995065522342699  0.9998795878994116
  0.9984071269116852  0.0007863746133796  0.4985691984216779
  0.9995518321542977  0.5005397509212844  0.9997842828102536
  0.9954341354762225  0.4994093927362110  0.4987858822480319
  0.5003850210527286  0.9999231078828671  0.9999496341441204
  0.5028545377537015  0.9971371495275195  0.4990474417565070
  0.4999858019675085  0.4999251160569695  0.9997993479191857
  0.2505765021724509  0.2505674769126113  0.0004555767178738
  0.2486175390041482  0.2475179783945595  0.5005617128315868
  0.2496418092248315  0.7500086311332437  0.9995407458835465
  0.2513422169337634  0.7497476274031237  0.5006199832722830
  0.7500215758410393  0.2500211724715167  0.9995001840461080
  0.7504341583532886  0.7507581418780328  0.9944066872785617
  0.2498747713290370  0.2503007917464226  0.2499726307729902
  0.2504214593493928  0.2498401758802601  0.7483037601615135
  0.2489331804960542  0.7502341502798783  0.2494027446956019
  0.2496164086180299  0.7492395745768626  0.7500392131231051
  0.7501006775020224  0.2496964914106512  0.2501347376912429
  0.7499468498814352  0.2489284890496866  0.7493035565017718
  0.7507406683277457  0.7510452596561917  0.2403151447914511
  0.7480427646975042  0.7475866831710571  0.7471502304053902
  0.0007016589115155  0.0006716388915204  0.2508413887772843
  0.9996651305415559  0.9989699960795797  0.7491152670290049
  0.0000557530541143  0.5004683500002126  0.2506216869876461
  0.9990177082692109  0.5002317775329098  0.7499857327052867
  0.4999615619009499  0.0007606521406371  0.2506445083213307
  0.5004741804618698  0.9991999789606143  0.7496165682562229
  0.5013448581177871  0.5011717858063843  0.2535896144572577
  0.5004819268362368  0.5009673332485514  0.7480741503837693
  0.7504626562394645  0.2504091414080938  0.5008304212042706
  0.4882814313077204  0.4916707283334341  0.5008115925856984
  0.7557400181019764  0.7596203430979585  0.5069422725568170
  0.1105863002755042  0.1409484449493526  0.2446932523391816
  0.1089507900964599  0.1398449223155845  0.7506450650392110
  0.1095051344379841  0.6407558766671924  0.2488197777946220
  0.1082837221558630  0.6411727788691161  0.7500514258094965
  0.6103618857373050  0.1394923020523683  0.2491416425683998
  0.6085740531493380  0.1397735370529607  0.7507447066075152
  0.6145115139113845  0.6452934295315623  0.2576034458246772
  0.6069892179847024  0.6402611459142049  0.7598543868786924
  0.3915713965229339  0.3623084353278895  0.2550319483643154
  0.3911169353783627  0.3595945284039576  0.7453894805540989
  0.3893651522770788  0.8608500901170489  0.2483012481187604
  0.3902576933146525  0.8586073599806013  0.7508008837882637
  0.8890887918071321  0.3620728710237708  0.2503845287776464
  0.8908244766482727  0.3592391603741356  0.7488159946630281
  0.8867877551480219  0.8583781760371521  0.2625821463382721
  0.8897622061672198  0.8569839985157992  0.7455819276958274
  0.3607870645322444  0.1108147451117673  0.2472833574022992
  0.3595865966020355  0.1084918559750719  0.7490502408165879
  0.3609791814394908  0.6115654003611940  0.2513625877415503
  0.3577385912983594  0.6084226881129420  0.7497336634967728
  0.8606825336758070  0.1101807353611559  0.2482274792864514
  0.8589562520061808  0.1078086473366412  0.7512815048033448
  0.8574599194918452  0.6143592111478663  0.2616718218548756
  0.8585997426686075  0.6075733704533509  0.7540269131390153
  0.1406244749806789  0.3912054438184333  0.2467115800651939
  0.1401508128147805  0.3910303067775779  0.7485239388385112
  0.1396311790635479  0.8897260525251562  0.2488553518416648
  0.1402755899755542  0.8901556388810672  0.7501983377343372
  0.6403081690319141  0.3906736264210861  0.2486706900056181
  0.6403770570564692  0.3900069424511499  0.7510907505919634
  0.6431162493143534  0.8871741552736669  0.2609228921598785
  0.6412821839397618  0.8904671875734170  0.7495498712191042
  0.3597869400158036  0.3909066920163776  0.0024873346714575
  0.3594459592841627  0.8904818576186699  0.0008567251552116
  0.3592476990758712  0.8902034596678908  0.4995721128724734
  0.8594063206513591  0.3910181830694165  0.9998519230754129
  0.8581015111490355  0.8913951448331886  0.0003518136058131
  0.8658199100974833  0.8923382235934328  0.4856606669031817
  0.1401213608157627  0.1096164675073372  0.0012511320964897
  0.1409576846172911  0.1105501864071325  0.5018272425050176
  0.1404623787251687  0.6092707170960643  0.0010749997757441
  0.1355657576128413  0.6137952445136803  0.4995404791870950
  0.6409133580107869  0.1090426691273641  0.9995711619832517
  0.6367352838288182  0.1100417706895106  0.4999738001548449
  0.6414977242723684  0.6099006635267099  0.9993962508710231
  0.1093625886389396  0.3599311070390201  0.0019505166855553
  0.1119694397121724  0.3619754439700051  0.5020907623906221
  0.1092845512727236  0.8590868408377423  0.9996259837389453
  0.1121929986246761  0.8609371598182820  0.5004064953085620
  0.6096217135635289  0.3596999245816546  0.0014647014883258
  0.6093508275411502  0.8582081776035621  0.0001136298972554
  0.6074545817802414  0.8512878161312002  0.4898172446259689
  0.3911089762976299  0.1398854273010227  0.0014266674977094
  0.3897762884819391  0.1392583843827431  0.5013147372485039
  0.3904542370513243  0.6407210626030282  0.0002076313642040
  0.8910395729799597  0.1404696316860201  0.0007787956749345
  0.8904836774396003  0.1378319044553623  0.4997142823357372
  0.8909891122420639  0.6420221148336284  0.9992205491369387
  0.9960558625300497  0.9932101572314116  0.1256138528600957
  0.9974923403090584  0.9981520995659360  0.6245828417437885
  0.9933771993846034  0.5045403732459401  0.1260620734999645
  0.9957151977597722  0.5077641725811042  0.6242732701464727
  0.5059812025080449  0.9958172423632213  0.1258946382923216
  0.5031261684559463  0.9946769670226182  0.6243876763552253
  0.5026232384478877  0.5051088122573021  0.1271627380631039
  0.5111184456808119  0.5125030273487726  0.6246801572507528
  0.0105230627538659  0.0095197965100680  0.3728703372858329
  0.9986452560649079  0.9976478015171134  0.8750449883928533
  0.0078495366657343  0.4947552765252510  0.3738738967492860
  0.0019580371377613  0.4984058211654135  0.8755194702614864
  0.4944269821961915  0.0046176091754130  0.3740368573446054
  0.4993879197710692  0.9990530698116357  0.8753671639469148
  0.4960879630323981  0.4952577337009200  0.8763237392774479
  0.2467172781485666  0.2478752307146806  0.3742996521084335
  0.2519523617150304  0.2517108235972747  0.8751475676134980
  0.2492715957570412  0.7503806997085266  0.3743536634778454
  0.2497517932993828  0.7493896684061278  0.8753010303694720
  0.7505795299086452  0.2501639033866484  0.8755973331467348
  0.7525672680345024  0.7535824361130555  0.8752333739147868
  0.2539809651012025  0.2524571884133487  0.1250768930280255
  0.2483903843081038  0.2484457549521022  0.6254513080165369
  0.2499893304554053  0.7493197630544903  0.1246526820663488
  0.2489424925980636  0.7496927082416929  0.6255432199590834
  0.7506859212601799  0.2501795356751286  0.1243851378226506
  0.7492237629792501  0.2469502238301802  0.6272934340885863
  0.7527401418581331  0.7516564406251302  0.1250438710847334
  0.7359657773583235  0.7294528954345485  0.6281009242603125
  0.7491646111467742  0.2495507592211635  0.3728394955907627
  0.8671795599526478  0.3847454923996109  0.5004537938668860
  0.3932344188094471  0.6421793008784900  0.5005409944759548
  0.5099669179348469  0.5100101972183995  0.3774576852788716
  0.3574850749755857  0.3872265820212408  0.5003179082477744
  0.8717071857836323  0.6304484267158571  0.4853530188664818
  0.6194973293637346  0.3767371311637817  0.5009615174008146
 
  0.00000000E+00  0.00000000E+00  0.00000000E+00
  0.00000000E+00  0.00000000E+00  0.00000000E+00
  0.00000000E+00  0.00000000E+00  0.00000000E+00
  0.00000000E+00  0.00000000E+00  0.00000000E+00
  0.00000000E+00  0.00000000E+00  0.00000000E+00
  0.00000000E+00  0.00000000E+00  0.00000000E+00
  0.00000000E+00  0.00000000E+00  0.00000000E+00
  0.00000000E+00  0.00000000E+00  0.00000000E+00
  0.00000000E+00  0.00000000E+00  0.00000000E+00
  0.00000000E+00  0.00000000E+00  0.00000000E+00
  0.00000000E+00  0.00000000E+00  0.00000000E+00
  0.00000000E+00  0.00000000E+00  0.00000000E+00
  0.00000000E+00  0.00000000E+00  0.00000000E+00
  0.00000000E+00  0.00000000E+00  0.00000000E+00
  0.00000000E+00  0.00000000E+00  0.00000000E+00
  0.00000000E+00  0.00000000E+00  0.00000000E+00
  0.00000000E+00  0.00000000E+00  0.00000000E+00
  0.00000000E+00  0.00000000E+00  0.00000000E+00
  0.00000000E+00  0.00000000E+00  0.00000000E+00
  0.00000000E+00  0.00000000E+00  0.00000000E+00
  0.00000000E+00  0.00000000E+00  0.00000000E+00
  0.00000000E+00  0.00000000E+00  0.00000000E+00
  0.00000000E+00  0.00000000E+00  0.00000000E+00
  0.00000000E+00  0.00000000E+00  0.00000000E+00
  0.00000000E+00  0.00000000E+00  0.00000000E+00
  0.00000000E+00  0.00000000E+00  0.00000000E+00
  0.00000000E+00  0.00000000E+00  0.00000000E+00
  0.00000000E+00  0.00000000E+00  0.00000000E+00
  0.00000000E+00  0.00000000E+00  0.00000000E+00
  0.00000000E+00  0.00000000E+00  0.00000000E+00
  0.00000000E+00  0.00000000E+00  0.00000000E+00
  0.00000000E+00  0.00000000E+00  0.00000000E+00
  0.00000000E+00  0.00000000E+00  0.00000000E+00
  0.00000000E+00  0.00000000E+00  0.00000000E+00
  0.00000000E+00  0.00000000E+00  0.00000000E+00
  0.00000000E+00  0.00000000E+00  0.00000000E+00
  0.00000000E+00  0.00000000E+00  0.00000000E+00
  0.00000000E+00  0.00000000E+00  0.00000000E+00
  0.00000000E+00  0.00000000E+00  0.00000000E+00
  0.00000000E+00  0.00000000E+00  0.00000000E+00
  0.00000000E+00  0.00000000E+00  0.00000000E+00
  0.00000000E+00  0.00000000E+00  0.00000000E+00
  0.00000000E+00  0.00000000E+00  0.00000000E+00
  0.00000000E+00  0.00000000E+00  0.00000000E+00
  0.00000000E+00  0.00000000E+00  0.00000000E+00
  0.00000000E+00  0.00000000E+00  0.00000000E+00
  0.00000000E+00  0.00000000E+00  0.00000000E+00
  0.00000000E+00  0.00000000E+00  0.00000000E+00
  0.00000000E+00  0.00000000E+00  0.00000000E+00
  0.00000000E+00  0.00000000E+00  0.00000000E+00
  0.00000000E+00  0.00000000E+00  0.00000000E+00
  0.00000000E+00  0.00000000E+00  0.00000000E+00
  0.00000000E+00  0.00000000E+00  0.00000000E+00
  0.00000000E+00  0.00000000E+00  0.00000000E+00
  0.00000000E+00  0.00000000E+00  0.00000000E+00
  0.00000000E+00  0.00000000E+00  0.00000000E+00
  0.00000000E+00  0.00000000E+00  0.00000000E+00
  0.00000000E+00  0.00000000E+00  0.00000000E+00
  0.00000000E+00  0.00000000E+00  0.00000000E+00
  0.00000000E+00  0.00000000E+00  0.00000000E+00
  0.00000000E+00  0.00000000E+00  0.00000000E+00
  0.00000000E+00  0.00000000E+00  0.00000000E+00
  0.00000000E+00  0.00000000E+00  0.00000000E+00
  0.00000000E+00  0.00000000E+00  0.00000000E+00
  0.00000000E+00  0.00000000E+00  0.00000000E+00
  0.00000000E+00  0.00000000E+00  0.00000000E+00
  0.00000000E+00  0.00000000E+00  0.00000000E+00
  0.00000000E+00  0.00000000E+00  0.00000000E+00
  0.00000000E+00  0.00000000E+00  0.00000000E+00
  0.00000000E+00  0.00000000E+00  0.00000000E+00
  0.00000000E+00  0.00000000E+00  0.00000000E+00
  0.00000000E+00  0.00000000E+00  0.00000000E+00
  0.00000000E+00  0.00000000E+00  0.00000000E+00
  0.00000000E+00  0.00000000E+00  0.00000000E+00
  0.00000000E+00  0.00000000E+00  0.00000000E+00
  0.00000000E+00  0.00000000E+00  0.00000000E+00
  0.00000000E+00  0.00000000E+00  0.00000000E+00
  0.00000000E+00  0.00000000E+00  0.00000000E+00
  0.00000000E+00  0.00000000E+00  0.00000000E+00
  0.00000000E+00  0.00000000E+00  0.00000000E+00
  0.00000000E+00  0.00000000E+00  0.00000000E+00
  0.00000000E+00  0.00000000E+00  0.00000000E+00
  0.00000000E+00  0.00000000E+00  0.00000000E+00
  0.00000000E+00  0.00000000E+00  0.00000000E+00
  0.00000000E+00  0.00000000E+00  0.00000000E+00
  0.00000000E+00  0.00000000E+00  0.00000000E+00
  0.00000000E+00  0.00000000E+00  0.00000000E+00
  0.00000000E+00  0.00000000E+00  0.00000000E+00
  0.00000000E+00  0.00000000E+00  0.00000000E+00
  0.00000000E+00  0.00000000E+00  0.00000000E+00
  0.00000000E+00  0.00000000E+00  0.00000000E+00
  0.00000000E+00  0.00000000E+00  0.00000000E+00
  0.00000000E+00  0.00000000E+00  0.00000000E+00
  0.00000000E+00  0.00000000E+00  0.00000000E+00
  0.00000000E+00  0.00000000E+00  0.00000000E+00
  0.00000000E+00  0.00000000E+00  0.00000000E+00
  0.00000000E+00  0.00000000E+00  0.00000000E+00
  0.00000000E+00  0.00000000E+00  0.00000000E+00
  0.00000000E+00  0.00000000E+00  0.00000000E+00
  0.00000000E+00  0.00000000E+00  0.00000000E+00
  0.00000000E+00  0.00000000E+00  0.00000000E+00
  0.00000000E+00  0.00000000E+00  0.00000000E+00
  0.00000000E+00  0.00000000E+00  0.00000000E+00
  0.00000000E+00  0.00000000E+00  0.00000000E+00
  0.00000000E+00  0.00000000E+00  0.00000000E+00
  0.00000000E+00  0.00000000E+00  0.00000000E+00
  0.00000000E+00  0.00000000E+00  0.00000000E+00
  0.00000000E+00  0.00000000E+00  0.00000000E+00
  0.00000000E+00  0.00000000E+00  0.00000000E+00
  0.00000000E+00  0.00000000E+00  0.00000000E+00
  0.00000000E+00  0.00000000E+00  0.00000000E+00
  0.00000000E+00  0.00000000E+00  0.00000000E+00
  0.00000000E+00  0.00000000E+00  0.00000000E+00
  0.00000000E+00  0.00000000E+00  0.00000000E+00
  0.00000000E+00  0.00000000E+00  0.00000000E+00
  0.00000000E+00  0.00000000E+00  0.00000000E+00
  0.00000000E+00  0.00000000E+00  0.00000000E+00
  0.00000000E+00  0.00000000E+00  0.00000000E+00
  0.00000000E+00  0.00000000E+00  0.00000000E+00
  0.00000000E+00  0.00000000E+00  0.00000000E+00
  0.00000000E+00  0.00000000E+00  0.00000000E+00
  0.00000000E+00  0.00000000E+00  0.00000000E+00
  0.00000000E+00  0.00000000E+00  0.00000000E+00
  0.00000000E+00  0.00000000E+00  0.00000000E+00
  0.00000000E+00  0.00000000E+00  0.00000000E+00
  0.00000000E+00  0.00000000E+00  0.00000000E+00
  0.00000000E+00  0.00000000E+00  0.00000000E+00
  0.00000000E+00  0.00000000E+00  0.00000000E+00
  0.00000000E+00  0.00000000E+00  0.00000000E+00
  0.00000000E+00  0.00000000E+00  0.00000000E+00
  0.00000000E+00  0.00000000E+00  0.00000000E+00
  0.00000000E+00  0.00000000E+00  0.00000000E+00
  0.00000000E+00  0.00000000E+00  0.00000000E+00
  0.00000000E+00  0.00000000E+00  0.00000000E+00
  0.00000000E+00  0.00000000E+00  0.00000000E+00
  0.00000000E+00  0.00000000E+00  0.00000000E+00
  0.00000000E+00  0.00000000E+00  0.00000000E+00
  0.00000000E+00  0.00000000E+00  0.00000000E+00
  0.00000000E+00  0.00000000E+00  0.00000000E+00
  0.00000000E+00  0.00000000E+00  0.00000000E+00
  0.00000000E+00  0.00000000E+00  0.00000000E+00
  0.00000000E+00  0.00000000E+00  0.00000000E+00
  0.00000000E+00  0.00000000E+00  0.00000000E+00
  0.00000000E+00  0.00000000E+00  0.00000000E+00
  0.00000000E+00  0.00000000E+00  0.00000000E+00
  0.00000000E+00  0.00000000E+00  0.00000000E+00
  0.00000000E+00  0.00000000E+00  0.00000000E+00
  0.00000000E+00  0.00000000E+00  0.00000000E+00
  0.00000000E+00  0.00000000E+00  0.00000000E+00
  0.00000000E+00  0.00000000E+00  0.00000000E+00
  0.00000000E+00  0.00000000E+00  0.00000000E+00
  0.00000000E+00  0.00000000E+00  0.00000000E+00
  0.00000000E+00  0.00000000E+00  0.00000000E+00
  0.00000000E+00  0.00000000E+00  0.00000000E+00
  0.00000000E+00  0.00000000E+00  0.00000000E+00
  0.00000000E+00  0.00000000E+00  0.00000000E+00
  0.00000000E+00  0.00000000E+00  0.00000000E+00
  0.00000000E+00  0.00000000E+00  0.00000000E+00
