SrTiFeO                                 
   1.00000000000000     
    11.1989999999999998    0.0000000000000000    0.0000000000000000
     0.0000000000000000   11.1989999999999998    0.0000000000000000
     0.0000000000000000    0.0000000000000000   15.9830000000000005
   Sr   Ti   Fe   O 
    32    31     1    94
Direct
  0.9993740679763179  0.2502342272452045  0.1243780050913460
  0.9999879760870320  0.2445932022663218  0.6276642761155891
  0.9984246426351552  0.7499162862942005  0.1251045571089604
  0.0043264603656131  0.7535368032354250  0.6272118618626392
  0.4999952683350344  0.2506821058017418  0.1251797360782904
  0.5029712075108258  0.2459286314399267  0.6262417917429814
  0.5005044960910636  0.7502776849554335  0.1237228015856186
  0.4993976649942168  0.7528150123575112  0.6277859951329136
  0.9999879760870320  0.2445932022663218  0.3723357238844109
  0.9993740679763179  0.2502342272452045  0.8756219949086540
  0.0043264603656131  0.7535368032354250  0.3727881381373607
  0.9984246426351552  0.7499162862942005  0.8748954428910396
  0.5029712075108258  0.2459286314399267  0.3737582082570185
  0.4999952683350344  0.2506821058017418  0.8748202639217096
  0.4993976649942168  0.7528150123575112  0.3722140048670864
  0.5005044960910636  0.7502776849554335  0.8762771984143813
  0.2498710772953811  0.9995210940927043  0.1249188861438261
  0.2502149086007880  0.9991382281714851  0.6263312530516439
  0.2494906928235828  0.5004855597340772  0.1248133684419122
  0.2479892612840127  0.5026545363915043  0.6281426867410561
  0.7493734998901330  0.9984380419034353  0.1254192251231236
  0.7511100425232065  0.9983646951189402  0.6225404780086298
  0.7487357565166161  0.4998327614766161  0.1232088421662322
  0.7521419251468103  0.4935954075192317  0.6314546670508806
  0.2502149086007880  0.9991382281714851  0.3736687469483560
  0.2498710772953811  0.9995210940927043  0.8750811138561738
  0.2479892612840127  0.5026545363915043  0.3718573132589439
  0.2494906928235828  0.5004855597340772  0.8751866315580948
  0.7511100425232065  0.9983646951189402  0.3774595219913703
  0.7493734998901330  0.9984380419034353  0.8745807748768765
  0.7521419251468103  0.4935954075192317  0.3685453329491193
  0.7487357565166161  0.4998327614766161  0.8767911578337677
  0.9996695017889521  0.9994863745145410 -0.0000000000000000
  0.9985788685059729  0.9983996103003605  0.5000000000000000
  0.0003922723820486  0.4994342850092842 -0.0000000000000000
  0.0059509004469101  0.4892127450290987  0.5000000000000000
  0.5002913337266498  0.9999682190991641 -0.0000000000000000
  0.5011542734147014  0.9971780024505998  0.5000000000000000
  0.4990240224653341  0.4996242102137364 -0.0000000000000000
  0.2500942944502050  0.2506023365224470 -0.0000000000000000
  0.2513796794610927  0.2414816259163513  0.5000000000000000
  0.2496364815148487  0.7500516168050070 -0.0000000000000000
  0.2509574085860392  0.7523147307027478  0.5000000000000000
  0.7502643126083995  0.2492850104548333 -0.0000000000000000
  0.7506141438326842  0.2511624221756600  0.5000000000000000
  0.7498450352516733  0.7508755387411059 -0.0000000000000000
  0.2504287651333079  0.2500830319640994  0.2503748971794242
  0.2504287651333079  0.2500830319640994  0.7496251028205758
  0.2504667917554421  0.7499944883361400  0.2493268746970741
  0.2504667917554421  0.7499944883361400  0.7506731253029258
  0.7500344606519318  0.2486659882529891  0.2493979614760447
  0.7500344606519318  0.2486659882529891  0.7506020385239552
  0.7501595884976878  0.7477913961296473  0.2523603342462369
  0.7501595884976878  0.7477913961296473  0.7476396657537632
  0.9998270649914748  0.9997843439964060  0.2498891580234116
  0.9998270649914748  0.9997843439964060  0.7501108419765884
  0.9992479052910449  0.5005771505615362  0.2492855865071799
  0.9992479052910449  0.5005771505615362  0.7507144134928272
  0.5005814326912699  0.9997764277232298  0.2500279637212098
  0.5005814326912699  0.9997764277232298  0.7499720362787903
  0.5005014219023581  0.5008015604892594  0.2497912463336279
  0.5005014219023581  0.5008015604892594  0.7502087536663721
  0.4885346753712332  0.4935871538261343  0.5000000000000000
  0.7497808520071962  0.7479107736174818  0.5000000000000000
  0.1100901856802376  0.1405941325010555  0.2480438628419606
  0.1100901856802376  0.1405941325010555  0.7519561371580393
  0.1095589069220085  0.6399610124401719  0.2504145635937837
  0.1095589069220085  0.6399610124401719  0.7495854364062163
  0.6098024567198685  0.1398630504463407  0.2491185453209359
  0.6098024567198685  0.1398630504463407  0.7508814546790641
  0.6088823466222322  0.6404905071282283  0.2461278224328994
  0.3905021680261804  0.3612044656290588  0.2549254099508119
  0.3905021680261804  0.3612044656290588  0.7450745900491881
  0.3899343040052309  0.8601499254004473  0.2495830721894571
  0.3899343040052309  0.8601499254004473  0.7504169278105429
  0.8901590824019615  0.3599495540273513  0.2522687837155008
  0.8901590824019615  0.3599495540273513  0.7477312162844992
  0.8897420707086943  0.8586714299154107  0.2540185382040353
  0.8897420707086943  0.8586714299154107  0.7459814617959647
  0.3597561724356299  0.1106780591452972  0.2485669696072833
  0.3597561724356299  0.1106780591452972  0.7514330303927167
  0.3594558690753926  0.6091634156107283  0.2509300509609739
  0.3594558690753926  0.6091634156107283  0.7490699490390261
  0.8596068227337651  0.1090349522939740  0.2510199270608258
  0.8596068227337651  0.1090349522939740  0.7489800729391742
  0.8593904905814512  0.6082397676671043  0.2442068343336011
  0.8593904905814512  0.6082397676671043  0.7557931656663990
  0.1390338022123207  0.3909331736994924  0.2541629475858077
  0.1390338022123207  0.3909331736994924  0.7458370524141923
  0.1395100700919134  0.8894017746004317  0.2508326580266531
  0.1395100700919134  0.8894017746004317  0.7491673419733469
  0.6393090890933181  0.3895393181765102  0.2491326653157545
  0.6406115037464715  0.8888265374264682  0.2556359669285569
  0.6406115037464715  0.8888265374264682  0.7443640330714431
  0.3588276019914146  0.3908980509324929 -0.0000000000000000
  0.3592929501066491  0.8908943193263557 -0.0000000000000000
  0.3546642352308150  0.8953409041606372  0.5000000000000000
  0.8598783948209008  0.3904146978990859 -0.0000000000000000
  0.8559097043993747  0.3987892534302081  0.5000000000000000
  0.8593256408703835  0.8908679355369646 -0.0000000000000000
  0.8660879607943446  0.8935950801244242  0.5000000000000000
  0.1410322975589557  0.1096446606617126 -0.0000000000000000
  0.1445989805841913  0.1080616985444932  0.5000000000000000
  0.1403030788853490  0.6090603358705490 -0.0000000000000000
  0.1337491083536396  0.6126304262929462  0.5000000000000000
  0.6408028129373129  0.1093202338580293 -0.0000000000000000
  0.6406027939950363  0.1121676469540417  0.5000000000000000
  0.6396373740710057  0.6099963855691174 -0.0000000000000000
  0.1094182884448172  0.3584725271037428 -0.0000000000000000
  0.1063257589894602  0.3561375450685733  0.5000000000000000
  0.1091610783558465  0.8593238490406027 -0.0000000000000000
  0.1102996885832790  0.8590404608973875  0.5000000000000000
  0.6097248324581621  0.3597499501474227 -0.0000000000000000
  0.6090903186219617  0.8594641773982328 -0.0000000000000000
  0.6014359124154430  0.8612424333808163  0.5000000000000000
  0.3906173101857880  0.1408214938530988 -0.0000000000000000
  0.3938690865490446  0.1473536452920581  0.5000000000000000
  0.3904041064659933  0.6404841271690275 -0.0000000000000000
  0.3982110421537898  0.6458196972383564  0.5000000000000000
  0.8913319282452110  0.1404117511320301 -0.0000000000000000
  0.8927374337576373  0.1451941256751504  0.5000000000000000
  0.8900155806163577  0.6398181162744296 -0.0000000000000000
  0.9987369409497967  0.9979791348057674  0.1253888718436192
  0.0029523079556257  0.0036098923420635  0.6253681934021917
  0.0025203608089332  0.4971724818234023  0.1252213233799785
  0.9914369827667320  0.5115434241186393  0.6223002125320836
  0.5020480324952484  0.9982041849477652  0.1253384665126204
  0.4968424025777424  0.0037056408289495  0.6253531152065671
  0.4976480478882891  0.4979113369346755  0.1252916227798446
  0.0029523079556257  0.0036098923420635  0.3746318065978084
  0.9987369409497967  0.9979791348057674  0.8746111281563809
  0.9914369827667320  0.5115434241186393  0.3776997874679165
  0.0025203608089332  0.4971724818234023  0.8747786766200215
  0.4968424025777424  0.0037056408289495  0.3746468847934399
  0.5020480324952484  0.9982041849477652  0.8746615334873796
  0.4976480478882891  0.4979113369346755  0.8747083772201554
  0.2490449609120610  0.2487710894819435  0.3756217854983350
  0.2511114758177533  0.2540988421258507  0.8743191603055250
  0.2507267977507964  0.7489807464839278  0.3752477238154758
  0.2497804295386285  0.7497122704346028  0.8748555240520944
  0.7488730934024431  0.2502949222816042  0.3751726128528831
  0.7515390494712008  0.2499392290405357  0.8748492592842347
  0.7520374690993030  0.7293095926273553  0.3771634930590206
  0.7498261385644235  0.7540061575269938  0.8747488396887250
  0.2511114758177533  0.2540988421258507  0.1256808396944749
  0.2490449609120610  0.2487710894819435  0.6243782145016650
  0.2497804295386285  0.7497122704346028  0.1251444759479056
  0.2507267977507964  0.7489807464839278  0.6247522761845241
  0.7515390494712008  0.2499392290405357  0.1251507407157653
  0.7488730934024431  0.2502949222816042  0.6248273871471169
  0.7498261385644235  0.7540061575269938  0.1252511603112751
  0.6393090890933181  0.3895393181765102  0.7508673346842455
  0.6088823466222322  0.6404905071282283  0.7538721775671007
  0.5095855054429635  0.5103817437394251  0.3778328318975928
  0.6111747040973925  0.3683758239643211  0.5000000000000000
  0.3528785086686648  0.3964131296078681  0.5000000000000000
  0.7520374690993030  0.7293095926273553  0.6228365069409794
  0.5095855054429635  0.5103817437394251  0.6221671681024072
 
  0.00000000E+00  0.00000000E+00  0.00000000E+00
  0.00000000E+00  0.00000000E+00  0.00000000E+00
  0.00000000E+00  0.00000000E+00  0.00000000E+00
  0.00000000E+00  0.00000000E+00  0.00000000E+00
  0.00000000E+00  0.00000000E+00  0.00000000E+00
  0.00000000E+00  0.00000000E+00  0.00000000E+00
  0.00000000E+00  0.00000000E+00  0.00000000E+00
  0.00000000E+00  0.00000000E+00  0.00000000E+00
  0.00000000E+00  0.00000000E+00  0.00000000E+00
  0.00000000E+00  0.00000000E+00  0.00000000E+00
  0.00000000E+00  0.00000000E+00  0.00000000E+00
  0.00000000E+00  0.00000000E+00  0.00000000E+00
  0.00000000E+00  0.00000000E+00  0.00000000E+00
  0.00000000E+00  0.00000000E+00  0.00000000E+00
  0.00000000E+00  0.00000000E+00  0.00000000E+00
  0.00000000E+00  0.00000000E+00  0.00000000E+00
  0.00000000E+00  0.00000000E+00  0.00000000E+00
  0.00000000E+00  0.00000000E+00  0.00000000E+00
  0.00000000E+00  0.00000000E+00  0.00000000E+00
  0.00000000E+00  0.00000000E+00  0.00000000E+00
  0.00000000E+00  0.00000000E+00  0.00000000E+00
  0.00000000E+00  0.00000000E+00  0.00000000E+00
  0.00000000E+00  0.00000000E+00  0.00000000E+00
  0.00000000E+00  0.00000000E+00  0.00000000E+00
  0.00000000E+00  0.00000000E+00  0.00000000E+00
  0.00000000E+00  0.00000000E+00  0.00000000E+00
  0.00000000E+00  0.00000000E+00  0.00000000E+00
  0.00000000E+00  0.00000000E+00  0.00000000E+00
  0.00000000E+00  0.00000000E+00  0.00000000E+00
  0.00000000E+00  0.00000000E+00  0.00000000E+00
  0.00000000E+00  0.00000000E+00  0.00000000E+00
  0.00000000E+00  0.00000000E+00  0.00000000E+00
  0.00000000E+00  0.00000000E+00  0.00000000E+00
  0.00000000E+00  0.00000000E+00  0.00000000E+00
  0.00000000E+00  0.00000000E+00  0.00000000E+00
  0.00000000E+00  0.00000000E+00  0.00000000E+00
  0.00000000E+00  0.00000000E+00  0.00000000E+00
  0.00000000E+00  0.00000000E+00  0.00000000E+00
  0.00000000E+00  0.00000000E+00  0.00000000E+00
  0.00000000E+00  0.00000000E+00  0.00000000E+00
  0.00000000E+00  0.00000000E+00  0.00000000E+00
  0.00000000E+00  0.00000000E+00  0.00000000E+00
  0.00000000E+00  0.00000000E+00  0.00000000E+00
  0.00000000E+00  0.00000000E+00  0.00000000E+00
  0.00000000E+00  0.00000000E+00  0.00000000E+00
  0.00000000E+00  0.00000000E+00  0.00000000E+00
  0.00000000E+00  0.00000000E+00  0.00000000E+00
  0.00000000E+00  0.00000000E+00  0.00000000E+00
  0.00000000E+00  0.00000000E+00  0.00000000E+00
  0.00000000E+00  0.00000000E+00  0.00000000E+00
  0.00000000E+00  0.00000000E+00  0.00000000E+00
  0.00000000E+00  0.00000000E+00  0.00000000E+00
  0.00000000E+00  0.00000000E+00  0.00000000E+00
  0.00000000E+00  0.00000000E+00  0.00000000E+00
  0.00000000E+00  0.00000000E+00  0.00000000E+00
  0.00000000E+00  0.00000000E+00  0.00000000E+00
  0.00000000E+00  0.00000000E+00  0.00000000E+00
  0.00000000E+00  0.00000000E+00  0.00000000E+00
  0.00000000E+00  0.00000000E+00  0.00000000E+00
  0.00000000E+00  0.00000000E+00  0.00000000E+00
  0.00000000E+00  0.00000000E+00  0.00000000E+00
  0.00000000E+00  0.00000000E+00  0.00000000E+00
  0.00000000E+00  0.00000000E+00  0.00000000E+00
  0.00000000E+00  0.00000000E+00  0.00000000E+00
  0.00000000E+00  0.00000000E+00  0.00000000E+00
  0.00000000E+00  0.00000000E+00  0.00000000E+00
  0.00000000E+00  0.00000000E+00  0.00000000E+00
  0.00000000E+00  0.00000000E+00  0.00000000E+00
  0.00000000E+00  0.00000000E+00  0.00000000E+00
  0.00000000E+00  0.00000000E+00  0.00000000E+00
  0.00000000E+00  0.00000000E+00  0.00000000E+00
  0.00000000E+00  0.00000000E+00  0.00000000E+00
  0.00000000E+00  0.00000000E+00  0.00000000E+00
  0.00000000E+00  0.00000000E+00  0.00000000E+00
  0.00000000E+00  0.00000000E+00  0.00000000E+00
  0.00000000E+00  0.00000000E+00  0.00000000E+00
  0.00000000E+00  0.00000000E+00  0.00000000E+00
  0.00000000E+00  0.00000000E+00  0.00000000E+00
  0.00000000E+00  0.00000000E+00  0.00000000E+00
  0.00000000E+00  0.00000000E+00  0.00000000E+00
  0.00000000E+00  0.00000000E+00  0.00000000E+00
  0.00000000E+00  0.00000000E+00  0.00000000E+00
  0.00000000E+00  0.00000000E+00  0.00000000E+00
  0.00000000E+00  0.00000000E+00  0.00000000E+00
  0.00000000E+00  0.00000000E+00  0.00000000E+00
  0.00000000E+00  0.00000000E+00  0.00000000E+00
  0.00000000E+00  0.00000000E+00  0.00000000E+00
  0.00000000E+00  0.00000000E+00  0.00000000E+00
  0.00000000E+00  0.00000000E+00  0.00000000E+00
  0.00000000E+00  0.00000000E+00  0.00000000E+00
  0.00000000E+00  0.00000000E+00  0.00000000E+00
  0.00000000E+00  0.00000000E+00  0.00000000E+00
  0.00000000E+00  0.00000000E+00  0.00000000E+00
  0.00000000E+00  0.00000000E+00  0.00000000E+00
  0.00000000E+00  0.00000000E+00  0.00000000E+00
  0.00000000E+00  0.00000000E+00  0.00000000E+00
  0.00000000E+00  0.00000000E+00  0.00000000E+00
  0.00000000E+00  0.00000000E+00  0.00000000E+00
  0.00000000E+00  0.00000000E+00  0.00000000E+00
  0.00000000E+00  0.00000000E+00  0.00000000E+00
  0.00000000E+00  0.00000000E+00  0.00000000E+00
  0.00000000E+00  0.00000000E+00  0.00000000E+00
  0.00000000E+00  0.00000000E+00  0.00000000E+00
  0.00000000E+00  0.00000000E+00  0.00000000E+00
  0.00000000E+00  0.00000000E+00  0.00000000E+00
  0.00000000E+00  0.00000000E+00  0.00000000E+00
  0.00000000E+00  0.00000000E+00  0.00000000E+00
  0.00000000E+00  0.00000000E+00  0.00000000E+00
  0.00000000E+00  0.00000000E+00  0.00000000E+00
  0.00000000E+00  0.00000000E+00  0.00000000E+00
  0.00000000E+00  0.00000000E+00  0.00000000E+00
  0.00000000E+00  0.00000000E+00  0.00000000E+00
  0.00000000E+00  0.00000000E+00  0.00000000E+00
  0.00000000E+00  0.00000000E+00  0.00000000E+00
  0.00000000E+00  0.00000000E+00  0.00000000E+00
  0.00000000E+00  0.00000000E+00  0.00000000E+00
  0.00000000E+00  0.00000000E+00  0.00000000E+00
  0.00000000E+00  0.00000000E+00  0.00000000E+00
  0.00000000E+00  0.00000000E+00  0.00000000E+00
  0.00000000E+00  0.00000000E+00  0.00000000E+00
  0.00000000E+00  0.00000000E+00  0.00000000E+00
  0.00000000E+00  0.00000000E+00  0.00000000E+00
  0.00000000E+00  0.00000000E+00  0.00000000E+00
  0.00000000E+00  0.00000000E+00  0.00000000E+00
  0.00000000E+00  0.00000000E+00  0.00000000E+00
  0.00000000E+00  0.00000000E+00  0.00000000E+00
  0.00000000E+00  0.00000000E+00  0.00000000E+00
  0.00000000E+00  0.00000000E+00  0.00000000E+00
  0.00000000E+00  0.00000000E+00  0.00000000E+00
  0.00000000E+00  0.00000000E+00  0.00000000E+00
  0.00000000E+00  0.00000000E+00  0.00000000E+00
  0.00000000E+00  0.00000000E+00  0.00000000E+00
  0.00000000E+00  0.00000000E+00  0.00000000E+00
  0.00000000E+00  0.00000000E+00  0.00000000E+00
  0.00000000E+00  0.00000000E+00  0.00000000E+00
  0.00000000E+00  0.00000000E+00  0.00000000E+00
  0.00000000E+00  0.00000000E+00  0.00000000E+00
  0.00000000E+00  0.00000000E+00  0.00000000E+00
  0.00000000E+00  0.00000000E+00  0.00000000E+00
  0.00000000E+00  0.00000000E+00  0.00000000E+00
  0.00000000E+00  0.00000000E+00  0.00000000E+00
  0.00000000E+00  0.00000000E+00  0.00000000E+00
  0.00000000E+00  0.00000000E+00  0.00000000E+00
  0.00000000E+00  0.00000000E+00  0.00000000E+00
  0.00000000E+00  0.00000000E+00  0.00000000E+00
  0.00000000E+00  0.00000000E+00  0.00000000E+00
  0.00000000E+00  0.00000000E+00  0.00000000E+00
  0.00000000E+00  0.00000000E+00  0.00000000E+00
  0.00000000E+00  0.00000000E+00  0.00000000E+00
  0.00000000E+00  0.00000000E+00  0.00000000E+00
  0.00000000E+00  0.00000000E+00  0.00000000E+00
  0.00000000E+00  0.00000000E+00  0.00000000E+00
  0.00000000E+00  0.00000000E+00  0.00000000E+00
  0.00000000E+00  0.00000000E+00  0.00000000E+00
  0.00000000E+00  0.00000000E+00  0.00000000E+00
  0.00000000E+00  0.00000000E+00  0.00000000E+00
  0.00000000E+00  0.00000000E+00  0.00000000E+00
  0.00000000E+00  0.00000000E+00  0.00000000E+00
