SrTiFeO                                 
   1.00000000000000     
    11.1989999999999998    0.0000000000000000    0.0000000000000000
     0.0000000000000000   11.1989999999999998    0.0000000000000000
     0.0000000000000000    0.0000000000000000   15.9830000000000005
   Sr   Ti   Fe   O 
    32    31     1    94
Direct
  0.9990867057195316  0.2503746287886189  0.1244533536408185
  0.0000807806024400  0.2424212826488615  0.6277014152871535
  0.9991287620675521  0.7493866088974961  0.1244857181598864
  0.0051565941614615  0.7578578185386405  0.6289246827743502
  0.5004406142322119  0.2487794890573709  0.1249419601731788
  0.5006708603060945  0.2414963262223961  0.6262373412861320
  0.5012085610374512  0.7507635175786971  0.1250842454120703
  0.4999509580336062  0.7561007086530664  0.6233215573328009
  0.0003469226626722  0.2434026857292227  0.3723548713278967
  0.9988186926611645  0.2503204006488225  0.8755064064695096
  0.0049920477154222  0.7567437866333829  0.3714440058485767
  0.9994402533472467  0.7491408275298599  0.8755721200406771
  0.5016416701486951  0.2473303893277758  0.3738262301856423
  0.4999662912092593  0.2474586368875778  0.8754527820734170
  0.5004166865907281  0.7520481095696681  0.3752090908959131
  0.5013580074032019  0.7518151863791340  0.8756427318375806
  0.2497408148606432  0.9997687983780740  0.1248634817775377
  0.2495947081687625 -0.0000990206944771  0.6249048143144186
  0.2484660183717166  0.4999712992381055  0.1253017976455570
  0.2449064422809500  0.5037545238597948  0.6253041548514194
  0.7500654534050313  0.9985340530764563  0.1256963384459636
  0.7536194074024100  0.9969360189188364  0.6225304838797218
  0.7500013457301945  0.4995503638615780  0.1232616005338654
  0.7529660163820540  0.4987447352477579  0.6296933160950575
  0.2508888454521425  0.0003409452513878  0.3750890623510648
  0.2500416356570555  0.9999934472280866  0.8750000196712278
  0.2525924532230291  0.5017579665687232  0.3744449840034659
  0.2471023552615155  0.5006792915196189  0.8752540368026601
  0.7524741207817713  0.9980899433548365  0.3772413237191075
  0.7498287640946356  0.9978180034260917  0.8742252281854218
  0.7486345367314844  0.4990459555998714  0.3703234631420823
  0.7511102762890303  0.4990863526311056  0.8774926751085194
  0.0002733000841516 -0.0000304790788127  0.9998091866262533
 -0.0001968446480738  0.9995083211281055  0.4994481927543001
  0.0006782933387946  0.4992405853680505  0.0001961591935920
  0.0055247735628615  0.4877633370958957  0.4995035008091444
  0.5003049936060379  0.9994944705398834  0.0001211580588332
  0.5016912160809180  0.9982326506348626  0.4994125933169640
  0.4995121395279864  0.5001374401541023  0.0016156798488757
  0.2499980016120772  0.2509767220626211  0.9998927948240822
  0.2556875548738922  0.2460362350976335  0.5006141511143255
  0.2504186933562463  0.7499975574918787  1.0000271840560040
  0.2498171614318551  0.7518742090107661  0.5003091378479033
  0.7497742311398192  0.2495016134637143  0.9999885279467223
  0.7487122512463200  0.2505690647152499  0.5005956654044295
  0.7491228561957645  0.7502017653338191 -0.0000415120419711
  0.2507363574860555  0.2505980760111491  0.2501022987985769
  0.2498861380950738  0.2504678351493135  0.7491217272826632
  0.2512873602590918  0.7497569899028097  0.2495146538391877
  0.2511200548169727  0.7500551796574820  0.7499944291107131
  0.7499997846346336  0.2498954367219327  0.2499006320816496
  0.7500248201008165  0.2488008824776680  0.7496953311982232
  0.7514984625064254  0.7485560472138194  0.2523096405527105
  0.7515741626695102  0.7484373826790416  0.7471687364707539
  0.0006116780685229  0.0004693508234628  0.2494335648265489
  0.0003884376022398  0.0000948418151601  0.7520326437886609
  0.9992433005582348  0.5011030746632291  0.2499857914971804
  0.9987146598487436  0.5007503791020990  0.7505290982450202
  0.5007405687873885  0.9998287007408473  0.2502449673137465
  0.5006331313484049  0.9992562776700084  0.7499065680269086
  0.4999731242639201  0.5001561966273681  0.2478381766242691
  0.4997127154104389  0.4997398579584610  0.7546344569683370
  0.5012037946130581  0.4990727112929106  0.4958973578449719
  0.7448091974968858  0.7519053724151976  0.5007569669724885
  0.1104818465520084  0.1412158559646116  0.2490776144509271
  0.1103301988974685  0.1405656926145993  0.7535423107216095
  0.1095738557224156  0.6404704743999728  0.2504862309545193
  0.1106513582059272  0.6391995502195735  0.7499302111000270
  0.6098613297945935  0.1402552285124353  0.2491734024513383
  0.6107451797520453  0.1387471952903247  0.7509846304919419
  0.6088358790365592  0.6400796572632356  0.2513595034035835
  0.3906771725886123  0.3596081109646490  0.2488628646661003
  0.3900662241957757  0.3625909551333066  0.7416125973454123
  0.3913797582724907  0.8590503984543909  0.2503004137789218
  0.3905401931144268  0.8597811392634217  0.7501284474851039
  0.8907636644223754  0.3600527220882110  0.2525427834686563
  0.8896799263904164  0.3605754261024038  0.7478967035035939
  0.8910194930966385  0.8599308880696369  0.2489022800797288
  0.8909720003831978  0.8602061021769331  0.7534705976113465
  0.3592221779106029  0.1102473475989776  0.2482592261050165
  0.3607885557597111  0.1112933660795992  0.7513724175379080
  0.3593271695510647  0.6082755841419794  0.2488305050184231
  0.3619139130156084  0.6085381866469410  0.7426760761732424
  0.8599408628534906  0.1102141073889474  0.2513390424812496
  0.8604203604179935  0.1097834388976545  0.7511878161213184
  0.8595761616249959  0.6084119480486122  0.2425583890087772
  0.8600357805885275  0.6084233928884268  0.7578502103416007
  0.1391434681005095  0.3918584450863399  0.2561483090700767
  0.1379912872777271  0.3907237662423106  0.7444595475599266
  0.1405830189856845  0.8895209739550259  0.2523042855617739
  0.1400848709253250  0.8895247389681260  0.7507988600310863
  0.6398514822020875  0.3907184808033278  0.2489387739496715
  0.6411669744261441  0.8893242740818489  0.2552174567356750
  0.6405154448500833  0.8879400369347600  0.7448180564082448
  0.3590664130810006  0.3919116236604906  0.0003221267933501
  0.3593083591343154  0.8910921774000348  0.9995039739878235
  0.3580866685921697  0.8908899195005183  0.5000236766954876
  0.8599804119967954  0.3903527775298982  0.0000599022184168
  0.8522790806510616  0.4028604716677576  0.4998001294718547
  0.8596247796145747  0.8898576420781867  0.9991451525940430
  0.8701715099725243  0.8891371879997650  0.4983274799236840
  0.1415391619776808  0.1103245801065381  0.9989299863334111
  0.1419174232342260  0.1116944698783618  0.4983922052837606
  0.1404401413196072  0.6093453491625729 -0.0000189078300881
  0.1246097055830199  0.6173327534836860  0.4997789227120912
  0.6406129868390262  0.1093749984157985  0.9994281100730621
  0.6421175257310817  0.1093933333989577  0.5000030802572466
  0.6401368101871071  0.6086453530185637  0.0001076284776913
  0.1094654247159523  0.3587942669346593  0.9993286045846081
  0.1058988262369517  0.3580298739572054  0.4996511255888553
  0.1099037023247095  0.8593664869120035  0.9990469822836074
  0.1139235802176988  0.8635806116563488  0.4982881551642392
  0.6088053192466515  0.3595077596346396  0.0000755647735794
  0.6086178916621513  0.8593915890341671  0.0000027545213596
  0.6024680347934079  0.8632740350484532  0.4983119219600979
  0.3905104410355452  0.1410348586766683 -0.0001203852077947
  0.3918814966056726  0.1428891909051499  0.5000134998146928
  0.3914003844392922  0.6409625898613932  0.0003562191004458
  0.3858688550055286  0.6357229309869272  0.5074726547756829
  0.8904731596354793  0.1404799658705934  0.9992081389458252
  0.8914427623634539  0.1443497330866743  0.4987358782298026
  0.8899876804394135  0.6392772607517522  0.9995981947500348
  0.0012276398042852  0.0003740206134939  0.1246557890973639
  0.0015931867924124  0.0024231094853772  0.6261166995836136
  0.0037659191104864  0.4964186940643416  0.1253599511292898
  0.9876062895955782  0.5147884238835374  0.6212247118063214
  0.5017877808154456  0.9984274136717514  0.1252481836731497
  0.4974127877741018  0.0021365271348529  0.6250875384706757
  0.5003748076106299  0.5003323971847436  0.1248456971758282
  0.0014391439383602  0.0030427222924027  0.3737192874755549
  0.0009267128110052  0.0003303096077820  0.8757649159982760
  0.9859336752954405  0.5153368219684309  0.3786511896110403
  0.0034868271577687  0.4964916132301091  0.8747625606983923
  0.4962070642814186  0.0041780057397833  0.3744168785285767
  0.5019105987512036  0.9981371717470173  0.8746143531185168
  0.4997024323795131  0.5003088089956049  0.8747676045626713
  0.2533933760575863  0.2523502599835816  0.3756518063908041
  0.2530167479539714  0.2568357027559637  0.8737932076632565
  0.2546324608711370  0.7453044018271802  0.3757698981827218
  0.2530754740591281  0.7464783922490014  0.8741108581111956
  0.7460921930116151  0.2532314325359427  0.3760540418169465
  0.7484799462376145  0.2540127757639634  0.8740739851297284
  0.7624648835635826  0.7358616875590422  0.3746600696024963
  0.7431589217170600  0.7494175075608396  0.8746408181240439
  0.2479454459036597  0.2535602547552145  0.1250885900263174
  0.2453965759230821  0.2436899824410564  0.6250726377231275
  0.2495788882423624  0.7510499930991469  0.1250586448046332
  0.2465112254363179  0.7528780317325549  0.6251053841387728
  0.7513282717727595  0.2502340593533772  0.1251109544202634
  0.7536825694287372  0.2463178778923537  0.6248176588174479
  0.7472202779751965  0.7522959661416049  0.1245770141778295
  0.6364720276745046  0.3893796659206055  0.7436054374256945
  0.6089265938294045  0.6366269995671258  0.7404021574593403
  0.4969374099841277  0.4984894362498680  0.3750895832314751
  0.6029854856486875  0.3560120696550405  0.5070519973108071
  0.3556507228291942  0.3922378837091207  0.5078673056380875
  0.7696675990756109  0.7416780603759112  0.6261654594944375
  0.6341159191701989  0.6004690778577468  0.5118500350128763
 
  0.00000000E+00  0.00000000E+00  0.00000000E+00
  0.00000000E+00  0.00000000E+00  0.00000000E+00
  0.00000000E+00  0.00000000E+00  0.00000000E+00
  0.00000000E+00  0.00000000E+00  0.00000000E+00
  0.00000000E+00  0.00000000E+00  0.00000000E+00
  0.00000000E+00  0.00000000E+00  0.00000000E+00
  0.00000000E+00  0.00000000E+00  0.00000000E+00
  0.00000000E+00  0.00000000E+00  0.00000000E+00
  0.00000000E+00  0.00000000E+00  0.00000000E+00
  0.00000000E+00  0.00000000E+00  0.00000000E+00
  0.00000000E+00  0.00000000E+00  0.00000000E+00
  0.00000000E+00  0.00000000E+00  0.00000000E+00
  0.00000000E+00  0.00000000E+00  0.00000000E+00
  0.00000000E+00  0.00000000E+00  0.00000000E+00
  0.00000000E+00  0.00000000E+00  0.00000000E+00
  0.00000000E+00  0.00000000E+00  0.00000000E+00
  0.00000000E+00  0.00000000E+00  0.00000000E+00
  0.00000000E+00  0.00000000E+00  0.00000000E+00
  0.00000000E+00  0.00000000E+00  0.00000000E+00
  0.00000000E+00  0.00000000E+00  0.00000000E+00
  0.00000000E+00  0.00000000E+00  0.00000000E+00
  0.00000000E+00  0.00000000E+00  0.00000000E+00
  0.00000000E+00  0.00000000E+00  0.00000000E+00
  0.00000000E+00  0.00000000E+00  0.00000000E+00
  0.00000000E+00  0.00000000E+00  0.00000000E+00
  0.00000000E+00  0.00000000E+00  0.00000000E+00
  0.00000000E+00  0.00000000E+00  0.00000000E+00
  0.00000000E+00  0.00000000E+00  0.00000000E+00
  0.00000000E+00  0.00000000E+00  0.00000000E+00
  0.00000000E+00  0.00000000E+00  0.00000000E+00
  0.00000000E+00  0.00000000E+00  0.00000000E+00
  0.00000000E+00  0.00000000E+00  0.00000000E+00
  0.00000000E+00  0.00000000E+00  0.00000000E+00
  0.00000000E+00  0.00000000E+00  0.00000000E+00
  0.00000000E+00  0.00000000E+00  0.00000000E+00
  0.00000000E+00  0.00000000E+00  0.00000000E+00
  0.00000000E+00  0.00000000E+00  0.00000000E+00
  0.00000000E+00  0.00000000E+00  0.00000000E+00
  0.00000000E+00  0.00000000E+00  0.00000000E+00
  0.00000000E+00  0.00000000E+00  0.00000000E+00
  0.00000000E+00  0.00000000E+00  0.00000000E+00
  0.00000000E+00  0.00000000E+00  0.00000000E+00
  0.00000000E+00  0.00000000E+00  0.00000000E+00
  0.00000000E+00  0.00000000E+00  0.00000000E+00
  0.00000000E+00  0.00000000E+00  0.00000000E+00
  0.00000000E+00  0.00000000E+00  0.00000000E+00
  0.00000000E+00  0.00000000E+00  0.00000000E+00
  0.00000000E+00  0.00000000E+00  0.00000000E+00
  0.00000000E+00  0.00000000E+00  0.00000000E+00
  0.00000000E+00  0.00000000E+00  0.00000000E+00
  0.00000000E+00  0.00000000E+00  0.00000000E+00
  0.00000000E+00  0.00000000E+00  0.00000000E+00
  0.00000000E+00  0.00000000E+00  0.00000000E+00
  0.00000000E+00  0.00000000E+00  0.00000000E+00
  0.00000000E+00  0.00000000E+00  0.00000000E+00
  0.00000000E+00  0.00000000E+00  0.00000000E+00
  0.00000000E+00  0.00000000E+00  0.00000000E+00
  0.00000000E+00  0.00000000E+00  0.00000000E+00
  0.00000000E+00  0.00000000E+00  0.00000000E+00
  0.00000000E+00  0.00000000E+00  0.00000000E+00
  0.00000000E+00  0.00000000E+00  0.00000000E+00
  0.00000000E+00  0.00000000E+00  0.00000000E+00
  0.00000000E+00  0.00000000E+00  0.00000000E+00
  0.00000000E+00  0.00000000E+00  0.00000000E+00
  0.00000000E+00  0.00000000E+00  0.00000000E+00
  0.00000000E+00  0.00000000E+00  0.00000000E+00
  0.00000000E+00  0.00000000E+00  0.00000000E+00
  0.00000000E+00  0.00000000E+00  0.00000000E+00
  0.00000000E+00  0.00000000E+00  0.00000000E+00
  0.00000000E+00  0.00000000E+00  0.00000000E+00
  0.00000000E+00  0.00000000E+00  0.00000000E+00
  0.00000000E+00  0.00000000E+00  0.00000000E+00
  0.00000000E+00  0.00000000E+00  0.00000000E+00
  0.00000000E+00  0.00000000E+00  0.00000000E+00
  0.00000000E+00  0.00000000E+00  0.00000000E+00
  0.00000000E+00  0.00000000E+00  0.00000000E+00
  0.00000000E+00  0.00000000E+00  0.00000000E+00
  0.00000000E+00  0.00000000E+00  0.00000000E+00
  0.00000000E+00  0.00000000E+00  0.00000000E+00
  0.00000000E+00  0.00000000E+00  0.00000000E+00
  0.00000000E+00  0.00000000E+00  0.00000000E+00
  0.00000000E+00  0.00000000E+00  0.00000000E+00
  0.00000000E+00  0.00000000E+00  0.00000000E+00
  0.00000000E+00  0.00000000E+00  0.00000000E+00
  0.00000000E+00  0.00000000E+00  0.00000000E+00
  0.00000000E+00  0.00000000E+00  0.00000000E+00
  0.00000000E+00  0.00000000E+00  0.00000000E+00
  0.00000000E+00  0.00000000E+00  0.00000000E+00
  0.00000000E+00  0.00000000E+00  0.00000000E+00
  0.00000000E+00  0.00000000E+00  0.00000000E+00
  0.00000000E+00  0.00000000E+00  0.00000000E+00
  0.00000000E+00  0.00000000E+00  0.00000000E+00
  0.00000000E+00  0.00000000E+00  0.00000000E+00
  0.00000000E+00  0.00000000E+00  0.00000000E+00
  0.00000000E+00  0.00000000E+00  0.00000000E+00
  0.00000000E+00  0.00000000E+00  0.00000000E+00
  0.00000000E+00  0.00000000E+00  0.00000000E+00
  0.00000000E+00  0.00000000E+00  0.00000000E+00
  0.00000000E+00  0.00000000E+00  0.00000000E+00
  0.00000000E+00  0.00000000E+00  0.00000000E+00
  0.00000000E+00  0.00000000E+00  0.00000000E+00
  0.00000000E+00  0.00000000E+00  0.00000000E+00
  0.00000000E+00  0.00000000E+00  0.00000000E+00
  0.00000000E+00  0.00000000E+00  0.00000000E+00
  0.00000000E+00  0.00000000E+00  0.00000000E+00
  0.00000000E+00  0.00000000E+00  0.00000000E+00
  0.00000000E+00  0.00000000E+00  0.00000000E+00
  0.00000000E+00  0.00000000E+00  0.00000000E+00
  0.00000000E+00  0.00000000E+00  0.00000000E+00
  0.00000000E+00  0.00000000E+00  0.00000000E+00
  0.00000000E+00  0.00000000E+00  0.00000000E+00
  0.00000000E+00  0.00000000E+00  0.00000000E+00
  0.00000000E+00  0.00000000E+00  0.00000000E+00
  0.00000000E+00  0.00000000E+00  0.00000000E+00
  0.00000000E+00  0.00000000E+00  0.00000000E+00
  0.00000000E+00  0.00000000E+00  0.00000000E+00
  0.00000000E+00  0.00000000E+00  0.00000000E+00
  0.00000000E+00  0.00000000E+00  0.00000000E+00
  0.00000000E+00  0.00000000E+00  0.00000000E+00
  0.00000000E+00  0.00000000E+00  0.00000000E+00
  0.00000000E+00  0.00000000E+00  0.00000000E+00
  0.00000000E+00  0.00000000E+00  0.00000000E+00
  0.00000000E+00  0.00000000E+00  0.00000000E+00
  0.00000000E+00  0.00000000E+00  0.00000000E+00
  0.00000000E+00  0.00000000E+00  0.00000000E+00
  0.00000000E+00  0.00000000E+00  0.00000000E+00
  0.00000000E+00  0.00000000E+00  0.00000000E+00
  0.00000000E+00  0.00000000E+00  0.00000000E+00
  0.00000000E+00  0.00000000E+00  0.00000000E+00
  0.00000000E+00  0.00000000E+00  0.00000000E+00
  0.00000000E+00  0.00000000E+00  0.00000000E+00
  0.00000000E+00  0.00000000E+00  0.00000000E+00
  0.00000000E+00  0.00000000E+00  0.00000000E+00
  0.00000000E+00  0.00000000E+00  0.00000000E+00
  0.00000000E+00  0.00000000E+00  0.00000000E+00
  0.00000000E+00  0.00000000E+00  0.00000000E+00
  0.00000000E+00  0.00000000E+00  0.00000000E+00
  0.00000000E+00  0.00000000E+00  0.00000000E+00
  0.00000000E+00  0.00000000E+00  0.00000000E+00
  0.00000000E+00  0.00000000E+00  0.00000000E+00
  0.00000000E+00  0.00000000E+00  0.00000000E+00
  0.00000000E+00  0.00000000E+00  0.00000000E+00
  0.00000000E+00  0.00000000E+00  0.00000000E+00
  0.00000000E+00  0.00000000E+00  0.00000000E+00
  0.00000000E+00  0.00000000E+00  0.00000000E+00
  0.00000000E+00  0.00000000E+00  0.00000000E+00
  0.00000000E+00  0.00000000E+00  0.00000000E+00
  0.00000000E+00  0.00000000E+00  0.00000000E+00
  0.00000000E+00  0.00000000E+00  0.00000000E+00
  0.00000000E+00  0.00000000E+00  0.00000000E+00
  0.00000000E+00  0.00000000E+00  0.00000000E+00
  0.00000000E+00  0.00000000E+00  0.00000000E+00
  0.00000000E+00  0.00000000E+00  0.00000000E+00
  0.00000000E+00  0.00000000E+00  0.00000000E+00
  0.00000000E+00  0.00000000E+00  0.00000000E+00
  0.00000000E+00  0.00000000E+00  0.00000000E+00
  0.00000000E+00  0.00000000E+00  0.00000000E+00
  0.00000000E+00  0.00000000E+00  0.00000000E+00
