Sr   Ti   Fe   O                        
   1.00000000000000     
    11.1989999999999998    0.0000000000000000    0.0000000000000000
     0.0000000000000000   11.1989999999999998    0.0000000000000000
     0.0000000000000000    0.0000000000000000   15.9830000000000005
   Sr   Ti   Fe   O 
    32    29     3    94
Direct
  0.9989294861461091  0.2496774242036843  0.1235860452241345
  0.0027719853617657  0.2475580683926262  0.6283948084756279
  0.9989099239216916  0.7493890251155146  0.1260624506043894
  0.9984876967888106  0.7540065277563305  0.6250484155875622
  0.5020764670418542  0.2508212815060401  0.1249493949270257
  0.4952637002190928  0.2478184275572930  0.6276274661679576
  0.4996669350942509  0.7488014298166897  0.1243247358139020
  0.5002310223275562  0.7531657527320649  0.6279732782624058
  0.0027719853617657  0.2475580683926262  0.3716051915243725
  0.9989294861461091  0.2496774242036843  0.8764139547758654
  0.9984876967888106  0.7540065277563305  0.3749515844124378
  0.9989099239216916  0.7493890251155146  0.8739375493956093
  0.4952637002190928  0.2478184275572930  0.3723725338320423
  0.5020764670418542  0.2508212815060401  0.8750506050729736
  0.5002310223275562  0.7531657527320649  0.3720267217375934
  0.4996669350942509  0.7488014298166897  0.8756752641861049
  0.2497550313959509  0.9995846638766155  0.1249451936065492
  0.2501511899659457  0.0000113544009410  0.6261025068243247
  0.2506940463201987  0.4992981584926218  0.1240388230068571
  0.2569932777071749  0.4987101850529320  0.6282579462865807
  0.7501824502753072  0.0012052087340142  0.1255360279764883
  0.7487266032633950  1.0005413450754497  0.6235704952223398
  0.7494073617814727  0.5003357446417348  0.1236132294070227
  0.7477577784824514  0.5041150990305685  0.6338584034880261
  0.2501511899659457  0.0000113544009410  0.3738974931756744
  0.2497550313959509  0.9995846638766155  0.8750548063934519
  0.2569932777071749  0.4987101850529320  0.3717420537134191
  0.2506940463201987  0.4992981584926218  0.8759611769931421
  0.7487266032633950  1.0005413450754497  0.3764295047776600
  0.7501824502753072  0.0012052087340142  0.8744639720235111
  0.7477577784824514  0.5041150990305685  0.3661415965119741
  0.7494073617814727  0.5003357446417348  0.8763867705929758
  0.9992755850892153  0.9994965632481284  0.0000000000000000
  0.0024649944604776  0.0036678435182357  0.5000000000000000
  0.0007183798213753  0.5004523093933116  0.0000000000000000
  0.0141725800950692  0.5098980462314059  0.5000000000000000
  0.5002145593155151  0.0003983487816216  0.0000000000000000
  0.5026699301800207  0.9984641350852335  0.5000000000000000
  0.4995619117730527  0.5001480232298492  0.0000000000000000
  0.2499902775035144  0.2495665685373087  0.0000000000000000
  0.2510245992165003  0.2480923826324722  0.5000000000000000
  0.2490024752858804  0.7497597010642536  0.0000000000000000
  0.2558170714175486  0.7564771028409698  0.5000000000000000
  0.7500899171318343  0.2490476797689584  0.0000000000000000
  0.7496500892046563  0.7509605052318800  0.0000000000000000
  0.2495502134718342  0.2497483079644481  0.2489005376682560
  0.2495502134718342  0.2497483079644481  0.7510994623317442
  0.2491407338202614  0.7496915448791106  0.2499211434431461
  0.2491407338202614  0.7496915448791106  0.7500788565568544
  0.7497508975604669  0.2518220090395645  0.2524352762990082
  0.7497508975604669  0.2518220090395645  0.7475647237009856
  0.7493181066332620  0.7504424476676811  0.2507542402508131
  0.7493181066332620  0.7504424476676811  0.7492457597491864
  0.9994756214083053  0.0001342733373364  0.2503025000684044
  0.9994756214083053  0.0001342733373364  0.7496974999315945
  0.9996613979488118  0.4991358827901274  0.2497877799256301
  0.9996613979488118  0.4991358827901274  0.7502122200743701
  0.4999570864268275 -0.0000596823056955  0.2499026902719426
  0.4999570864268275 -0.0000596823056955  0.7500973097280634
  0.4989541620027091  0.5000051519959358  0.2499406522811984
  0.4989541620027091  0.5000051519959358  0.7500593477188019
  0.7517669660356949  0.2448246962847612  0.5000000000000000
  0.4911975850678214  0.5038302092073282  0.5000000000000000
  0.7592503394467451  0.7590556453078685  0.5000000000000000
  0.1096002819093960  0.1398220931616126  0.2485417913347331
  0.1096002819093960  0.1398220931616126  0.7514582086652662
  0.1087155351111740  0.6387408718672154  0.2555810594439743
  0.1087155351111740  0.6387408718672154  0.7444189405560333
  0.6100977535034804  0.1407779811367224  0.2541736678882556
  0.6100977535034804  0.1407779811367224  0.7458263321117377
  0.6100956237965884  0.6396045525357316  0.2484097585146322
  0.6100956237965884  0.6396045525357316  0.7515902414853672
  0.3889277740557218  0.3585804490665986  0.2476358049790600
  0.3889277740557218  0.3585804490665986  0.7523641950209403
  0.3893719656355503  0.8598645120505556  0.2476241392368183
  0.3893719656355503  0.8598645120505556  0.7523758607631816
  0.8902272598488806  0.3604366989962246  0.2458472041270212
  0.8902272598488806  0.3604366989962246  0.7541527958729790
  0.8886047736725682  0.8606836572831491  0.2525324589157658
  0.8886047736725682  0.8606836572831491  0.7474675410842344
  0.3601555489972301  0.1103796270805518  0.2505746408487545
  0.3601555489972301  0.1103796270805518  0.7494253591512446
  0.3582717477313137  0.6102326141157891  0.2472177010661651
  0.3582717477313137  0.6102326141157891  0.7527822989338339
  0.8593931032694115  0.1112085151803888  0.2554130050739150
  0.8593931032694115  0.1112085151803888  0.7445869949260860
  0.8620357777670379  0.6117639973651064  0.2470526271179186
  0.8620357777670379  0.6117639973651064  0.7529473728820818
  0.1401658664656928  0.3906326705190324  0.2512795014266559
  0.1401658664656928  0.3906326705190324  0.7487204985733453
  0.1390488889300121  0.8894076761459080  0.2485125098182978
  0.1390488889300121  0.8894076761459080  0.7514874901817016
  0.6388754389523852  0.3901637798633060  0.2448552482541438
  0.6388754389523852  0.3901637798633060  0.7551447517458563
  0.6400851598215297  0.8906632705766824  0.2510315544607989
  0.6400851598215297  0.8906632705766824  0.7489684455392008
  0.3588668394008712  0.3898426584326580  0.0000000000000000
  0.3587871392081432  0.8908163299196650  0.0000000000000000
  0.3544384934849170  0.8954872246903085  0.5000000000000000
  0.8603509087452477  0.3902718241109113  0.0000000000000000
  0.8584077407174578  0.8912979174112756  0.0000000000000000
  0.8607828405941810  0.8942802478077976  0.5000000000000000
  0.1401696181265617  0.1083291645580517  0.0000000000000000
  0.1477060458078572  0.1045334388183691  0.5000000000000000
  0.1408878874425288  0.6088146501512895  0.0000000000000000
  0.1498921243465378  0.6034909487018233  0.5000000000000000
  0.6406923838814335  0.1087443262359968  0.0000000000000000
  0.6338724305919334  0.1066517871570836  0.5000000000000000
  0.6405142587222824  0.6102280950316155  0.0000000000000000
  0.1093494257524130  0.3591244856135589  0.0000000000000000
  0.1012138939949495  0.3546950419436198  0.5000000000000000
  0.1078871224785392  0.8595430731528144  0.0000000000000000
  0.1085947356730406  0.8529554147781135  0.5000000000000000
  0.6104348222754675  0.3596473159624159  0.0000000000000000
  0.6082209068424044  0.8594122536905132  0.0000000000000000
  0.6054855448994898  0.8514562538726224  0.5000000000000000
  0.3906888468951978  0.1407256995668023  0.0000000000000000
  0.3909293121517715  0.1412267578672212  0.5000000000000000
  0.3895909608328622  0.6415983106846550  0.0000000000000000
  0.8911166113465947  0.1406482406362731  0.0000000000000000
  0.9033156779825532  0.1430303460950028  0.5000000000000000
  0.8905646626400564  0.6404725181743907  0.0000000000000000
  0.9962629975744093  0.0005088515735828  0.1255911827288680
  0.0051206608153668  0.9980069865043503  0.6253496804865385
  0.0033364244494580  0.5013607592162468  0.1252437996964293
  0.9879121809065226  0.4883148056829399  0.6214769615355559
  0.5013638449057191  0.0020771495081532  0.1253144401339394
  0.4971314921498668  0.9967387595690606  0.6255909292009522
  0.4980673896495786  0.5009998225696355  0.1234668961608886
  0.4939664074588291  0.4979520246796954  0.6288401858789967
  0.0051206608153668  0.9980069865043503  0.3746503195134616
  0.9962629975744093  0.0005088515735828  0.8744088172711318
  0.9879121809065226  0.4883148056829399  0.3785230384644447
  0.0033364244494580  0.5013607592162468  0.8747562003035706
  0.4971314921498668  0.9967387595690606  0.3744090707990498
  0.5013638449057191  0.0020771495081532  0.8746855598660608
  0.4980673896495786  0.5009998225696355  0.8765331038391119
  0.2492976395725186  0.2501872538628179  0.3745121992330999
  0.2483796357033191  0.2490294819831161  0.8753456112343510
  0.2521574137723214  0.7506561384080970  0.3748388359696139
  0.2459142616090452  0.7489269640370190  0.8750647592706422
  0.7500678326632451  0.2457195301406187  0.8747738607605831
  0.7498707583081431  0.7519916988294038  0.8749648760255128
  0.2483796357033191  0.2490294819831161  0.1246543887656488
  0.2492976395725186  0.2501872538628179  0.6254878007669001
  0.2459142616090452  0.7489269640370190  0.1249352407293580
  0.2521574137723214  0.7506561384080970  0.6251611640303868
  0.7500678326632451  0.2457195301406187  0.1252261392394191
  0.7493632883598549  0.2690317052044082  0.6229335105297605
  0.7498707583081431  0.7519916988294038  0.1250351239744873
  0.7450285969517593  0.7423732229284600  0.6237876875185108
  0.7493632883598549  0.2690317052044082  0.3770664894702387
  0.4003287122558442  0.6503761329821131  0.5000000000000000
  0.4939664074588291  0.4979520246796954  0.3711598141210021
  0.3646797803449182  0.3843317665119856  0.5000000000000000
  0.8913735310810449  0.6337652621360944  0.5000000000000000
  0.7450285969517593  0.7423732229284600  0.3762123124814888
  0.6558358091051097  0.4896182464156141  0.5000000000000000
 
  0.00000000E+00  0.00000000E+00  0.00000000E+00
  0.00000000E+00  0.00000000E+00  0.00000000E+00
  0.00000000E+00  0.00000000E+00  0.00000000E+00
  0.00000000E+00  0.00000000E+00  0.00000000E+00
  0.00000000E+00  0.00000000E+00  0.00000000E+00
  0.00000000E+00  0.00000000E+00  0.00000000E+00
  0.00000000E+00  0.00000000E+00  0.00000000E+00
  0.00000000E+00  0.00000000E+00  0.00000000E+00
  0.00000000E+00  0.00000000E+00  0.00000000E+00
  0.00000000E+00  0.00000000E+00  0.00000000E+00
  0.00000000E+00  0.00000000E+00  0.00000000E+00
  0.00000000E+00  0.00000000E+00  0.00000000E+00
  0.00000000E+00  0.00000000E+00  0.00000000E+00
  0.00000000E+00  0.00000000E+00  0.00000000E+00
  0.00000000E+00  0.00000000E+00  0.00000000E+00
  0.00000000E+00  0.00000000E+00  0.00000000E+00
  0.00000000E+00  0.00000000E+00  0.00000000E+00
  0.00000000E+00  0.00000000E+00  0.00000000E+00
  0.00000000E+00  0.00000000E+00  0.00000000E+00
  0.00000000E+00  0.00000000E+00  0.00000000E+00
  0.00000000E+00  0.00000000E+00  0.00000000E+00
  0.00000000E+00  0.00000000E+00  0.00000000E+00
  0.00000000E+00  0.00000000E+00  0.00000000E+00
  0.00000000E+00  0.00000000E+00  0.00000000E+00
  0.00000000E+00  0.00000000E+00  0.00000000E+00
  0.00000000E+00  0.00000000E+00  0.00000000E+00
  0.00000000E+00  0.00000000E+00  0.00000000E+00
  0.00000000E+00  0.00000000E+00  0.00000000E+00
  0.00000000E+00  0.00000000E+00  0.00000000E+00
  0.00000000E+00  0.00000000E+00  0.00000000E+00
  0.00000000E+00  0.00000000E+00  0.00000000E+00
  0.00000000E+00  0.00000000E+00  0.00000000E+00
  0.00000000E+00  0.00000000E+00  0.00000000E+00
  0.00000000E+00  0.00000000E+00  0.00000000E+00
  0.00000000E+00  0.00000000E+00  0.00000000E+00
  0.00000000E+00  0.00000000E+00  0.00000000E+00
  0.00000000E+00  0.00000000E+00  0.00000000E+00
  0.00000000E+00  0.00000000E+00  0.00000000E+00
  0.00000000E+00  0.00000000E+00  0.00000000E+00
  0.00000000E+00  0.00000000E+00  0.00000000E+00
  0.00000000E+00  0.00000000E+00  0.00000000E+00
  0.00000000E+00  0.00000000E+00  0.00000000E+00
  0.00000000E+00  0.00000000E+00  0.00000000E+00
  0.00000000E+00  0.00000000E+00  0.00000000E+00
  0.00000000E+00  0.00000000E+00  0.00000000E+00
  0.00000000E+00  0.00000000E+00  0.00000000E+00
  0.00000000E+00  0.00000000E+00  0.00000000E+00
  0.00000000E+00  0.00000000E+00  0.00000000E+00
  0.00000000E+00  0.00000000E+00  0.00000000E+00
  0.00000000E+00  0.00000000E+00  0.00000000E+00
  0.00000000E+00  0.00000000E+00  0.00000000E+00
  0.00000000E+00  0.00000000E+00  0.00000000E+00
  0.00000000E+00  0.00000000E+00  0.00000000E+00
  0.00000000E+00  0.00000000E+00  0.00000000E+00
  0.00000000E+00  0.00000000E+00  0.00000000E+00
  0.00000000E+00  0.00000000E+00  0.00000000E+00
  0.00000000E+00  0.00000000E+00  0.00000000E+00
  0.00000000E+00  0.00000000E+00  0.00000000E+00
  0.00000000E+00  0.00000000E+00  0.00000000E+00
  0.00000000E+00  0.00000000E+00  0.00000000E+00
  0.00000000E+00  0.00000000E+00  0.00000000E+00
  0.00000000E+00  0.00000000E+00  0.00000000E+00
  0.00000000E+00  0.00000000E+00  0.00000000E+00
  0.00000000E+00  0.00000000E+00  0.00000000E+00
  0.00000000E+00  0.00000000E+00  0.00000000E+00
  0.00000000E+00  0.00000000E+00  0.00000000E+00
  0.00000000E+00  0.00000000E+00  0.00000000E+00
  0.00000000E+00  0.00000000E+00  0.00000000E+00
  0.00000000E+00  0.00000000E+00  0.00000000E+00
  0.00000000E+00  0.00000000E+00  0.00000000E+00
  0.00000000E+00  0.00000000E+00  0.00000000E+00
  0.00000000E+00  0.00000000E+00  0.00000000E+00
  0.00000000E+00  0.00000000E+00  0.00000000E+00
  0.00000000E+00  0.00000000E+00  0.00000000E+00
  0.00000000E+00  0.00000000E+00  0.00000000E+00
  0.00000000E+00  0.00000000E+00  0.00000000E+00
  0.00000000E+00  0.00000000E+00  0.00000000E+00
  0.00000000E+00  0.00000000E+00  0.00000000E+00
  0.00000000E+00  0.00000000E+00  0.00000000E+00
  0.00000000E+00  0.00000000E+00  0.00000000E+00
  0.00000000E+00  0.00000000E+00  0.00000000E+00
  0.00000000E+00  0.00000000E+00  0.00000000E+00
  0.00000000E+00  0.00000000E+00  0.00000000E+00
  0.00000000E+00  0.00000000E+00  0.00000000E+00
  0.00000000E+00  0.00000000E+00  0.00000000E+00
  0.00000000E+00  0.00000000E+00  0.00000000E+00
  0.00000000E+00  0.00000000E+00  0.00000000E+00
  0.00000000E+00  0.00000000E+00  0.00000000E+00
  0.00000000E+00  0.00000000E+00  0.00000000E+00
  0.00000000E+00  0.00000000E+00  0.00000000E+00
  0.00000000E+00  0.00000000E+00  0.00000000E+00
  0.00000000E+00  0.00000000E+00  0.00000000E+00
  0.00000000E+00  0.00000000E+00  0.00000000E+00
  0.00000000E+00  0.00000000E+00  0.00000000E+00
  0.00000000E+00  0.00000000E+00  0.00000000E+00
  0.00000000E+00  0.00000000E+00  0.00000000E+00
  0.00000000E+00  0.00000000E+00  0.00000000E+00
  0.00000000E+00  0.00000000E+00  0.00000000E+00
  0.00000000E+00  0.00000000E+00  0.00000000E+00
  0.00000000E+00  0.00000000E+00  0.00000000E+00
  0.00000000E+00  0.00000000E+00  0.00000000E+00
  0.00000000E+00  0.00000000E+00  0.00000000E+00
  0.00000000E+00  0.00000000E+00  0.00000000E+00
  0.00000000E+00  0.00000000E+00  0.00000000E+00
  0.00000000E+00  0.00000000E+00  0.00000000E+00
  0.00000000E+00  0.00000000E+00  0.00000000E+00
  0.00000000E+00  0.00000000E+00  0.00000000E+00
  0.00000000E+00  0.00000000E+00  0.00000000E+00
  0.00000000E+00  0.00000000E+00  0.00000000E+00
  0.00000000E+00  0.00000000E+00  0.00000000E+00
  0.00000000E+00  0.00000000E+00  0.00000000E+00
  0.00000000E+00  0.00000000E+00  0.00000000E+00
  0.00000000E+00  0.00000000E+00  0.00000000E+00
  0.00000000E+00  0.00000000E+00  0.00000000E+00
  0.00000000E+00  0.00000000E+00  0.00000000E+00
  0.00000000E+00  0.00000000E+00  0.00000000E+00
  0.00000000E+00  0.00000000E+00  0.00000000E+00
  0.00000000E+00  0.00000000E+00  0.00000000E+00
  0.00000000E+00  0.00000000E+00  0.00000000E+00
  0.00000000E+00  0.00000000E+00  0.00000000E+00
  0.00000000E+00  0.00000000E+00  0.00000000E+00
  0.00000000E+00  0.00000000E+00  0.00000000E+00
  0.00000000E+00  0.00000000E+00  0.00000000E+00
  0.00000000E+00  0.00000000E+00  0.00000000E+00
  0.00000000E+00  0.00000000E+00  0.00000000E+00
  0.00000000E+00  0.00000000E+00  0.00000000E+00
  0.00000000E+00  0.00000000E+00  0.00000000E+00
  0.00000000E+00  0.00000000E+00  0.00000000E+00
  0.00000000E+00  0.00000000E+00  0.00000000E+00
  0.00000000E+00  0.00000000E+00  0.00000000E+00
  0.00000000E+00  0.00000000E+00  0.00000000E+00
  0.00000000E+00  0.00000000E+00  0.00000000E+00
  0.00000000E+00  0.00000000E+00  0.00000000E+00
  0.00000000E+00  0.00000000E+00  0.00000000E+00
  0.00000000E+00  0.00000000E+00  0.00000000E+00
  0.00000000E+00  0.00000000E+00  0.00000000E+00
  0.00000000E+00  0.00000000E+00  0.00000000E+00
  0.00000000E+00  0.00000000E+00  0.00000000E+00
  0.00000000E+00  0.00000000E+00  0.00000000E+00
  0.00000000E+00  0.00000000E+00  0.00000000E+00
  0.00000000E+00  0.00000000E+00  0.00000000E+00
  0.00000000E+00  0.00000000E+00  0.00000000E+00
  0.00000000E+00  0.00000000E+00  0.00000000E+00
  0.00000000E+00  0.00000000E+00  0.00000000E+00
  0.00000000E+00  0.00000000E+00  0.00000000E+00
  0.00000000E+00  0.00000000E+00  0.00000000E+00
  0.00000000E+00  0.00000000E+00  0.00000000E+00
  0.00000000E+00  0.00000000E+00  0.00000000E+00
  0.00000000E+00  0.00000000E+00  0.00000000E+00
  0.00000000E+00  0.00000000E+00  0.00000000E+00
  0.00000000E+00  0.00000000E+00  0.00000000E+00
  0.00000000E+00  0.00000000E+00  0.00000000E+00
  0.00000000E+00  0.00000000E+00  0.00000000E+00
  0.00000000E+00  0.00000000E+00  0.00000000E+00
  0.00000000E+00  0.00000000E+00  0.00000000E+00
  0.00000000E+00  0.00000000E+00  0.00000000E+00
  0.00000000E+00  0.00000000E+00  0.00000000E+00
  0.00000000E+00  0.00000000E+00  0.00000000E+00
