Sr   Ti   Fe   O                        
   1.00000000000000     
    11.1989999999999998    0.0000000000000000    0.0000000000000000
     0.0000000000000000   11.1989999999999998    0.0000000000000000
     0.0000000000000000    0.0000000000000000   15.9830000000000005
   Sr   Ti   Fe   O 
    32    29     3    94
Direct
  0.9984909883064611  0.2507920591381664  0.1246213932552036
  0.0017403560471483  0.2444695459455368  0.6262609506568226
  0.9974948095766151  0.7501142628666611  0.1250597475768951
  0.0064645321104536  0.7550436373247099  0.6283813956003430
  0.5005617900695800  0.2512031321483885  0.1246460867952430
  0.4994968085988896  0.2475581545951897  0.6277066610212154
  0.5006898125355211  0.7486027508229471  0.1242442829047641
  0.4980390327722249  0.7527186423025602  0.6280610623765527
  0.0017403560471483  0.2444695459455368  0.3737390493431774
  0.9984909883064611  0.2507920591381664  0.8753786067447974
  0.0064645321104536  0.7550436373247099  0.3716186043996572
  0.9974948095766151  0.7501142628666611  0.8749402524231037
  0.4994968085988896  0.2475581545951897  0.3722933389787867
  0.5005617900695800  0.2512031321483885  0.8753539132047654
  0.4980390327722249  0.7527186423025602  0.3719389376234467
  0.5006898125355211  0.7486027508229471  0.8757557170952349
  0.2494725296120986  0.0001799012636736  0.1248446041859852
  0.2505985062899931  0.9998637981017253  0.6253213105187020
  0.2496345043369297  0.4990407936088366  0.1245672001864335
  0.2549986351191040  0.5014300587700371  0.6267264640050579
  0.7494920853385455  0.9989722117256441  0.1262769169451400
  0.7507602136316692  0.0021738833965913  0.6221454057380610
  0.7480311841671381  0.5001477183432450  0.1233492645410404
  0.7516730593630885  0.4928811374418154  0.6309992480370284
  0.2505985062899931  0.9998637981017253  0.3746786894812982
  0.2494725296120986  0.0001799012636736  0.8751553958140151
  0.2549986351191040  0.5014300587700371  0.3732735359949417
  0.2496345043369297  0.4990407936088366  0.8754327998135664
  0.7507602136316692  0.0021738833965913  0.3778545942619395
  0.7494920853385455  0.9989722117256441  0.8737230830548610
  0.7516730593630885  0.4928811374418154  0.3690007519629652
  0.7480311841671381  0.5001477183432450  0.8766507354589584
  0.9990285820312446  0.9998504911623591 -0.0000000000000000
  0.0016517262590406  0.9983813871875586  0.5000000000000000
  0.0002390958249607  0.4995078507312450 -0.0000000000000000
  0.0111665037396925  0.4862217490015039  0.5000000000000000
  0.5002328275011848  0.9995036961988573 -0.0000000000000000
  0.5019913979543426  0.9992390626160547  0.5000000000000000
  0.4989981917626444  0.5001469302792535 -0.0000000000000000
  0.2492505429593786  0.2499839185728619 -0.0000000000000000
  0.2572087838123914  0.2440444140383558  0.5000000000000000
  0.2491702523648335  0.7506883177139303 -0.0000000000000000
  0.2523650092586225  0.7526280975980765  0.5000000000000000
  0.7503118226973787  0.2492583394323707 -0.0000000000000000
  0.7492981270842016  0.7509894795859590 -0.0000000000000000
  0.2499149608590850  0.2498397618423955  0.2497918231819093
  0.2499149608590850  0.2498397618423955  0.7502081768180907
  0.2503247934147264  0.7500104752022475  0.2483547515207797
  0.2503247934147264  0.7500104752022475  0.7516452484792200
  0.7490903079245882  0.2500593509958438  0.2513747679232803
  0.7490903079245882  0.2500593509958438  0.7486252320767197
  0.7503920777154934  0.7475488318245708  0.2529197634457617
  0.7503920777154934  0.7475488318245708  0.7470802365542383
 -0.0002328993668440  0.0004316669501318  0.2500590350873662
 -0.0002328993668440  0.0004316669501318  0.7499409649126333
  0.9997372392986504  0.5013120178479099  0.2499275900776556
  0.9997372392986504  0.5013120178479099  0.7500724099223441
  0.5006126152786414  0.9995648080914198  0.2500122913516346
  0.5006126152786414  0.9995648080914198  0.7499877086483653
  0.4990226724601939  0.5004176507088289  0.2503877159391930
  0.4990226724601939  0.5004176507088289  0.7496122840608062
  0.7608836926420286  0.2470209077029588  0.5000000000000000
  0.4879380882322087  0.5025464251940679  0.5000000000000000
  0.7482640869542775  0.7581021315030080  0.5000000000000000
  0.1085350305373306  0.1410801941857724  0.2479371891663953
  0.1085350305373306  0.1410801941857724  0.7520628108336045
  0.1089301560209451  0.6413156990246789  0.2491458990925609
  0.1089301560209451  0.6413156990246789  0.7508541009074382
  0.6093087891733320  0.1398352353742613  0.2488738179060128
  0.6093087891733320  0.1398352353742613  0.7511261820939862
  0.6089534752712733  0.6404154363892430  0.2482780219198844
  0.6089534752712733  0.6404154363892430  0.7517219780801166
  0.3884947263517894  0.3589157983594428  0.2478471713710605
  0.3884947263517894  0.3589157983594428  0.7521528286289477
  0.3903271131026081  0.8597008700441611  0.2489960057012904
  0.3903271131026081  0.8597008700441611  0.7510039942987100
  0.8902950737158259  0.3605152670828911  0.2537043717585379
  0.8902950737158259  0.3605152670828911  0.7462956282414613
  0.8892723893995806  0.8596966265727667  0.2537606216127193
  0.8892723893995806  0.8596966265727667  0.7462393783872803
  0.3594182735394146  0.1097786927338142  0.2486171486368677
  0.3594182735394146  0.1097786927338142  0.7513828513631325
  0.3573103337025486  0.6104383438148524  0.2459146134295820
  0.3573103337025486  0.6104383438148524  0.7540853865704188
  0.8587380156804433  0.1103446721501208  0.2542120643753923
  0.8587380156804433  0.1103446721501208  0.7457879356246088
  0.8605297247314257  0.6096932476191902  0.2430511289054794
  0.8605297247314257  0.6096932476191902  0.7569488710945200
  0.1386752505784002  0.3917572236542595  0.2556807925103221
  0.1386752505784002  0.3917572236542595  0.7443192074896793
  0.1392418873076446  0.8903651760890566  0.2503206723815564
  0.1392418873076446  0.8903651760890566  0.7496793276184427
  0.6383158189301928  0.3893271123082876  0.2466761103713379
  0.6383158189301928  0.3893271123082876  0.7533238896286623
  0.6409614590056395  0.8889112160248838  0.2565403341332193
  0.6409614590056395  0.8889112160248838  0.7434596658667733
  0.3586256920817239  0.3899227354555734 -0.0000000000000000
  0.3586721977152713  0.8916201995785379 -0.0000000000000000
  0.3553751481674126  0.8950227844870753  0.5000000000000000
  0.8596141933012965  0.3907893350822507 -0.0000000000000000
  0.8585406830522637  0.8912736646693820 -0.0000000000000000
  0.8703991331676795  0.8887818860836280  0.5000000000000000
  0.1403095465323878  0.1083413495040933 -0.0000000000000000
  0.1424610808024488  0.1112859773208562  0.5000000000000000
  0.1400135372008723  0.6092788500998344 -0.0000000000000000
  0.1326178073194121  0.6160396492823453  0.5000000000000000
  0.6410633069607929  0.1091598178691612 -0.0000000000000000
  0.6340552632698542  0.1200961173622743  0.5000000000000000
  0.6401770629067166  0.6104277445764833 -0.0000000000000000
  0.1087723667438704  0.3587086147226555 -0.0000000000000000
  0.1174746045662798  0.3609488769517204  0.5000000000000000
  0.1076328716066697  0.8597789886202066 -0.0000000000000000
  0.1129811519626114  0.8609321494518162  0.5000000000000000
  0.6103586021642512  0.3593053775138999 -0.0000000000000000
  0.6082704088023700  0.8592050128944686 -0.0000000000000000
  0.6005655819113770  0.8602169918648614  0.5000000000000000
  0.3905010210837691  0.1404722385077326 -0.0000000000000000
  0.3910165607073129  0.1401089637431945  0.5000000000000000
  0.3891977609021485  0.6415194179434784 -0.0000000000000000
  0.8914860113463301  0.1410705846744524 -0.0000000000000000
  0.8924352072542449  0.1384936728151291  0.5000000000000000
  0.8901011679534795  0.6399946689399675 -0.0000000000000000
  0.9964878792747690  0.9993420328385656  0.1256375127634526
  0.0044851434077403  0.0026339484391337  0.6255066849721165
  0.0026915593232621  0.4964405028589631  0.1254258857127560
  0.9904506205286369  0.5166449515499402  0.6212359602670190
  0.5024866816883208  0.9979195727168982  0.1252891234515627
  0.4971927782956471  0.0028158075000513  0.6256454477274435
  0.4986922694908608  0.5002712936548520  0.1234864713162551
  0.4908884634280237  0.5027816997903951  0.6292201034369653
  0.0044851434077403  0.0026339484391337  0.3744933150278840
  0.9964878792747690  0.9993420328385656  0.8743624872365483
  0.9904506205286369  0.5166449515499402  0.3787640397329822
  0.0026915593232621  0.4964405028589631  0.8745741142872444
  0.4971927782956471  0.0028158075000513  0.3743545522725555
  0.5024866816883208  0.9979195727168982  0.8747108765484363
  0.4986922694908608  0.5002712936548520  0.8765135286837380
  0.2507457888237060  0.2475553242214270  0.3745205592034551
  0.2470123406053000  0.2516331506089993  0.8750558217594512
  0.2510822264451866  0.7492991468195686  0.3740755754568085
  0.2477806906920673  0.7527913813521386  0.8757139032313368
  0.7529869768037846  0.2490739468085990  0.8745417524079649
  0.7487826901333298  0.7541023314299666  0.8745013365055316
  0.2470123406053000  0.2516331506089993  0.1249441782405487
  0.2507457888237060  0.2475553242214270  0.6254794407965439
  0.2477806906920673  0.7527913813521386  0.1242860967686716
  0.2510822264451866  0.7492991468195686  0.6259244245431932
  0.7529869768037846  0.2490739468085990  0.1254582475920351
  0.7405330512553271  0.2559309785999521  0.6237923747033813
  0.7487826901333298  0.7541023314299666  0.1254986634944681
  0.7551314084177086  0.7281232874995874  0.6216632797641664
  0.7405330512553271  0.2559309785999521  0.3762076252966182
  0.8717456266055762  0.3885178652642481  0.5000000000000000
  0.3951712163352039  0.6487696123086544  0.5000000000000000
  0.4908884634280237  0.5027816997903951  0.3707798965630356
  0.3668700623034890  0.3822604731437620  0.5000000000000000
  0.7551314084177086  0.7281232874995874  0.3783367202358346
  0.6478731490303181  0.4735634441852525  0.5000000000000000
 
  0.00000000E+00  0.00000000E+00  0.00000000E+00
  0.00000000E+00  0.00000000E+00  0.00000000E+00
  0.00000000E+00  0.00000000E+00  0.00000000E+00
  0.00000000E+00  0.00000000E+00  0.00000000E+00
  0.00000000E+00  0.00000000E+00  0.00000000E+00
  0.00000000E+00  0.00000000E+00  0.00000000E+00
  0.00000000E+00  0.00000000E+00  0.00000000E+00
  0.00000000E+00  0.00000000E+00  0.00000000E+00
  0.00000000E+00  0.00000000E+00  0.00000000E+00
  0.00000000E+00  0.00000000E+00  0.00000000E+00
  0.00000000E+00  0.00000000E+00  0.00000000E+00
  0.00000000E+00  0.00000000E+00  0.00000000E+00
  0.00000000E+00  0.00000000E+00  0.00000000E+00
  0.00000000E+00  0.00000000E+00  0.00000000E+00
  0.00000000E+00  0.00000000E+00  0.00000000E+00
  0.00000000E+00  0.00000000E+00  0.00000000E+00
  0.00000000E+00  0.00000000E+00  0.00000000E+00
  0.00000000E+00  0.00000000E+00  0.00000000E+00
  0.00000000E+00  0.00000000E+00  0.00000000E+00
  0.00000000E+00  0.00000000E+00  0.00000000E+00
  0.00000000E+00  0.00000000E+00  0.00000000E+00
  0.00000000E+00  0.00000000E+00  0.00000000E+00
  0.00000000E+00  0.00000000E+00  0.00000000E+00
  0.00000000E+00  0.00000000E+00  0.00000000E+00
  0.00000000E+00  0.00000000E+00  0.00000000E+00
  0.00000000E+00  0.00000000E+00  0.00000000E+00
  0.00000000E+00  0.00000000E+00  0.00000000E+00
  0.00000000E+00  0.00000000E+00  0.00000000E+00
  0.00000000E+00  0.00000000E+00  0.00000000E+00
  0.00000000E+00  0.00000000E+00  0.00000000E+00
  0.00000000E+00  0.00000000E+00  0.00000000E+00
  0.00000000E+00  0.00000000E+00  0.00000000E+00
  0.00000000E+00  0.00000000E+00  0.00000000E+00
  0.00000000E+00  0.00000000E+00  0.00000000E+00
  0.00000000E+00  0.00000000E+00  0.00000000E+00
  0.00000000E+00  0.00000000E+00  0.00000000E+00
  0.00000000E+00  0.00000000E+00  0.00000000E+00
  0.00000000E+00  0.00000000E+00  0.00000000E+00
  0.00000000E+00  0.00000000E+00  0.00000000E+00
  0.00000000E+00  0.00000000E+00  0.00000000E+00
  0.00000000E+00  0.00000000E+00  0.00000000E+00
  0.00000000E+00  0.00000000E+00  0.00000000E+00
  0.00000000E+00  0.00000000E+00  0.00000000E+00
  0.00000000E+00  0.00000000E+00  0.00000000E+00
  0.00000000E+00  0.00000000E+00  0.00000000E+00
  0.00000000E+00  0.00000000E+00  0.00000000E+00
  0.00000000E+00  0.00000000E+00  0.00000000E+00
  0.00000000E+00  0.00000000E+00  0.00000000E+00
  0.00000000E+00  0.00000000E+00  0.00000000E+00
  0.00000000E+00  0.00000000E+00  0.00000000E+00
  0.00000000E+00  0.00000000E+00  0.00000000E+00
  0.00000000E+00  0.00000000E+00  0.00000000E+00
  0.00000000E+00  0.00000000E+00  0.00000000E+00
  0.00000000E+00  0.00000000E+00  0.00000000E+00
  0.00000000E+00  0.00000000E+00  0.00000000E+00
  0.00000000E+00  0.00000000E+00  0.00000000E+00
  0.00000000E+00  0.00000000E+00  0.00000000E+00
  0.00000000E+00  0.00000000E+00  0.00000000E+00
  0.00000000E+00  0.00000000E+00  0.00000000E+00
  0.00000000E+00  0.00000000E+00  0.00000000E+00
  0.00000000E+00  0.00000000E+00  0.00000000E+00
  0.00000000E+00  0.00000000E+00  0.00000000E+00
  0.00000000E+00  0.00000000E+00  0.00000000E+00
  0.00000000E+00  0.00000000E+00  0.00000000E+00
  0.00000000E+00  0.00000000E+00  0.00000000E+00
  0.00000000E+00  0.00000000E+00  0.00000000E+00
  0.00000000E+00  0.00000000E+00  0.00000000E+00
  0.00000000E+00  0.00000000E+00  0.00000000E+00
  0.00000000E+00  0.00000000E+00  0.00000000E+00
  0.00000000E+00  0.00000000E+00  0.00000000E+00
  0.00000000E+00  0.00000000E+00  0.00000000E+00
  0.00000000E+00  0.00000000E+00  0.00000000E+00
  0.00000000E+00  0.00000000E+00  0.00000000E+00
  0.00000000E+00  0.00000000E+00  0.00000000E+00
  0.00000000E+00  0.00000000E+00  0.00000000E+00
  0.00000000E+00  0.00000000E+00  0.00000000E+00
  0.00000000E+00  0.00000000E+00  0.00000000E+00
  0.00000000E+00  0.00000000E+00  0.00000000E+00
  0.00000000E+00  0.00000000E+00  0.00000000E+00
  0.00000000E+00  0.00000000E+00  0.00000000E+00
  0.00000000E+00  0.00000000E+00  0.00000000E+00
  0.00000000E+00  0.00000000E+00  0.00000000E+00
  0.00000000E+00  0.00000000E+00  0.00000000E+00
  0.00000000E+00  0.00000000E+00  0.00000000E+00
  0.00000000E+00  0.00000000E+00  0.00000000E+00
  0.00000000E+00  0.00000000E+00  0.00000000E+00
  0.00000000E+00  0.00000000E+00  0.00000000E+00
  0.00000000E+00  0.00000000E+00  0.00000000E+00
  0.00000000E+00  0.00000000E+00  0.00000000E+00
  0.00000000E+00  0.00000000E+00  0.00000000E+00
  0.00000000E+00  0.00000000E+00  0.00000000E+00
  0.00000000E+00  0.00000000E+00  0.00000000E+00
  0.00000000E+00  0.00000000E+00  0.00000000E+00
  0.00000000E+00  0.00000000E+00  0.00000000E+00
  0.00000000E+00  0.00000000E+00  0.00000000E+00
  0.00000000E+00  0.00000000E+00  0.00000000E+00
  0.00000000E+00  0.00000000E+00  0.00000000E+00
  0.00000000E+00  0.00000000E+00  0.00000000E+00
  0.00000000E+00  0.00000000E+00  0.00000000E+00
  0.00000000E+00  0.00000000E+00  0.00000000E+00
  0.00000000E+00  0.00000000E+00  0.00000000E+00
  0.00000000E+00  0.00000000E+00  0.00000000E+00
  0.00000000E+00  0.00000000E+00  0.00000000E+00
  0.00000000E+00  0.00000000E+00  0.00000000E+00
  0.00000000E+00  0.00000000E+00  0.00000000E+00
  0.00000000E+00  0.00000000E+00  0.00000000E+00
  0.00000000E+00  0.00000000E+00  0.00000000E+00
  0.00000000E+00  0.00000000E+00  0.00000000E+00
  0.00000000E+00  0.00000000E+00  0.00000000E+00
  0.00000000E+00  0.00000000E+00  0.00000000E+00
  0.00000000E+00  0.00000000E+00  0.00000000E+00
  0.00000000E+00  0.00000000E+00  0.00000000E+00
  0.00000000E+00  0.00000000E+00  0.00000000E+00
  0.00000000E+00  0.00000000E+00  0.00000000E+00
  0.00000000E+00  0.00000000E+00  0.00000000E+00
  0.00000000E+00  0.00000000E+00  0.00000000E+00
  0.00000000E+00  0.00000000E+00  0.00000000E+00
  0.00000000E+00  0.00000000E+00  0.00000000E+00
  0.00000000E+00  0.00000000E+00  0.00000000E+00
  0.00000000E+00  0.00000000E+00  0.00000000E+00
  0.00000000E+00  0.00000000E+00  0.00000000E+00
  0.00000000E+00  0.00000000E+00  0.00000000E+00
  0.00000000E+00  0.00000000E+00  0.00000000E+00
  0.00000000E+00  0.00000000E+00  0.00000000E+00
  0.00000000E+00  0.00000000E+00  0.00000000E+00
  0.00000000E+00  0.00000000E+00  0.00000000E+00
  0.00000000E+00  0.00000000E+00  0.00000000E+00
  0.00000000E+00  0.00000000E+00  0.00000000E+00
  0.00000000E+00  0.00000000E+00  0.00000000E+00
  0.00000000E+00  0.00000000E+00  0.00000000E+00
  0.00000000E+00  0.00000000E+00  0.00000000E+00
  0.00000000E+00  0.00000000E+00  0.00000000E+00
  0.00000000E+00  0.00000000E+00  0.00000000E+00
  0.00000000E+00  0.00000000E+00  0.00000000E+00
  0.00000000E+00  0.00000000E+00  0.00000000E+00
  0.00000000E+00  0.00000000E+00  0.00000000E+00
  0.00000000E+00  0.00000000E+00  0.00000000E+00
  0.00000000E+00  0.00000000E+00  0.00000000E+00
  0.00000000E+00  0.00000000E+00  0.00000000E+00
  0.00000000E+00  0.00000000E+00  0.00000000E+00
  0.00000000E+00  0.00000000E+00  0.00000000E+00
  0.00000000E+00  0.00000000E+00  0.00000000E+00
  0.00000000E+00  0.00000000E+00  0.00000000E+00
  0.00000000E+00  0.00000000E+00  0.00000000E+00
  0.00000000E+00  0.00000000E+00  0.00000000E+00
  0.00000000E+00  0.00000000E+00  0.00000000E+00
  0.00000000E+00  0.00000000E+00  0.00000000E+00
  0.00000000E+00  0.00000000E+00  0.00000000E+00
  0.00000000E+00  0.00000000E+00  0.00000000E+00
  0.00000000E+00  0.00000000E+00  0.00000000E+00
  0.00000000E+00  0.00000000E+00  0.00000000E+00
  0.00000000E+00  0.00000000E+00  0.00000000E+00
  0.00000000E+00  0.00000000E+00  0.00000000E+00
  0.00000000E+00  0.00000000E+00  0.00000000E+00
  0.00000000E+00  0.00000000E+00  0.00000000E+00
  0.00000000E+00  0.00000000E+00  0.00000000E+00
  0.00000000E+00  0.00000000E+00  0.00000000E+00
  0.00000000E+00  0.00000000E+00  0.00000000E+00
