SrTiFeO                                 
   1.00000000000000     
    11.1989999999999998    0.0000000000000000    0.0000000000000000
     0.0000000000000000   11.1989999999999998    0.0000000000000000
     0.0000000000000000    0.0000000000000000   15.9830000000000005
   Sr   Ti   Fe   O 
    32    31     1    94
Direct
  0.9996783493897661  0.2511843817530058  0.1244921526125479
  0.0066129492701549  0.2496912666799948  0.6276213876345779
  0.0025340105581749  0.7500422593839060  0.1245153016815937
  0.0026549277685572  0.7483419018970753  0.6261680753446083
  0.5008680989113181  0.2505498001591791  0.1244425658570525
  0.4932689387295019  0.2450270587397448  0.6285918579032078
  0.4981833471574384  0.7486514435441777  0.1243551991650275
  0.4979590091055253  0.7496029757073954  0.6248319524934308
  0.0075914088702991  0.2499536796522295  0.3722838830509789
  0.9996231274862866  0.2509045799874332  0.8755412978507585
  0.0084643656665045  0.7493245337739967  0.3738170093086194
  0.0012198475004924  0.7495556867039975  0.8750592401734862
  0.4921818316773900  0.2448436635101111  0.3710510763829136
  0.5005836470123978  0.2508699962779558  0.8755196081551864
  0.4939204424921600  0.7500211722156895  0.3766685840170749
  0.4991973377088960  0.7488040685667680  0.8749392839084147
  0.2500521872321798 -0.0000159522690986  0.1249967908893404
  0.2496845550866685  0.9991812280001540  0.6249265266125038
  0.2521033119221740  0.5001398960126056  0.1257292538436993
  0.2519660286836640  0.4975862320528295  0.6227643640956465
  0.7493433492576091  0.0028550771678729  0.1247053232523310
  0.7482717027663335  0.9973873009731408  0.6255843698945514
  0.7508667089030898  0.4988353593300444  0.1225392121135574
  0.7508952053193022  0.5013330115736130  0.6296259812364894
  0.2500645149751990  0.0004314983984453  0.3750845506685803
  0.2502190911119081  0.0002687683527699  0.8751320367232750
  0.2530634234933841  0.4964105932849328  0.3774110686435436
  0.2514380577456226  0.4999264633532362  0.8743300989113177
  0.7463824128800595  0.0049361248208361  0.3747093375850479
  0.7500149421974426  0.0015304511406666  0.8747136397588166
  0.7513100714537375  0.4969734817621891  0.3703488122006349
  0.7504070859484798  0.4998962036002051  0.8767148571793889
  0.9990262651138559  0.0000246465691020  0.0000913988217159
  0.0040196591477464  0.9943176256351124  0.4993848226332014
  0.0004907024905043  0.5002119517199658  0.0000017938636906
  0.9994581641781861  0.5012768770251899  0.4994125613645199
  0.4999865301094239  0.9995662638843353  0.9999777694331367
  0.4981500521873984  1.0001711710643204  0.4996942547266156
  0.4997713648463354  0.5008482471005337  1.0000533088710202
  0.2500066653120417  0.2497191256921527  0.0001867102694113
  0.2505590831986745  0.2502236306267862  0.5005166050016556
  0.2504874564416503  0.7497387298561952  0.9998712096417952
  0.2517936400068204  0.7483441908708353  0.5005809087184443
  0.7507095214546675  0.2493547960374862  0.9998084705426578
  0.7498890234870049  0.7504374281618529  0.9983913475809973
  0.2498948496998897  0.2495874109927829  0.2479803122224691
  0.2495089891789776  0.2494221893435732  0.7505507077697974
  0.2507162825160693  0.7494014215247877  0.2501135205147647
  0.2501255532691619  0.7492846446147591  0.7497615863300562
  0.7492748801455523  0.2512546683173495  0.2494462705374224
  0.7488890017731562  0.2507625129265391  0.7500175452316999
  0.7502664404991697  0.7502783464088909  0.2453629527371744
  0.7498464308087358  0.7499942095666706  0.7522077823456913
  0.9995792833862659  1.0000741495393537  0.2508467358321436
  0.9993889013718654  0.9992575713647767  0.7498923672113816
  0.0011839129053278  0.4999723543789237  0.2502924024241173
  0.0000962353081515  0.4999948481576306  0.7500809165322447
  0.4999224201704451  0.9988260911844407  0.2500086312529363
  0.5002394973857008  0.9987292812622934  0.7504910819536145
  0.5015803803140768  0.4984287538036685  0.2528169082781794
  0.5013851717713339  0.4985378857378557  0.7476979465049104
  0.7623154906996774  0.2443922181910978  0.5004970457271470
  0.7509111632698705  0.7487226566215865  0.5041831744784419
  0.4980344526964764  0.5052282501033307  0.4992412978853624
  0.1093943173822521  0.1397072920422454  0.2465114696154183
  0.1087539129366068  0.1395769968650448  0.7508981146310153
  0.1111191740838494  0.6393644676558867  0.2490323985753063
  0.1097081618746115  0.6401776481295152  0.7507974669211801
  0.6107378024163298  0.1394292778127799  0.2500786076336557
  0.6095161290778160  0.1404458268937426  0.7495412650863563
  0.6131953617811137  0.6411820298305285  0.2594553572042334
  0.6098801987463698  0.6412012039502277  0.7487179024082540
  0.3898269784984496  0.3589827445937415  0.2465661778137180
  0.3900565862423718  0.3589757252737359  0.7511024791312580
  0.3902904714039844  0.8594054958160732  0.2498734514521761
  0.3909476962392051  0.8586378667060025  0.7497075587681764
  0.8894778803834307  0.3602295340586903  0.2520405157981389
  0.8899767597078145  0.3592104838658838  0.7475062642196836
  0.8875000023267031  0.8598149479974490  0.2583633043313160
  0.8904134401045184  0.8593168809256488  0.7511273552755032
  0.3604466096034823  0.1098839501342437  0.2492978062565102
  0.3604555440882353  0.1094433562780932  0.7477558081498139
  0.3619028521339945  0.6093999482610299  0.2550305688143633
  0.3606477708451840  0.6088480842610057  0.7449235942138520
  0.8592205886913691  0.1119151574137608  0.2554693591687977
  0.8581214333003646  0.1108171697323755  0.7439464049855469
  0.8604576910332674  0.6133835771114641  0.2563202482952045
  0.8592540608827635  0.6101060108278642  0.7510628894687380
  0.1402405942698790  0.3896543606893890  0.2488535992440856
  0.1398347500778203  0.3901059843821749  0.7486553457154265
  0.1388102495942904  0.8893339141180960  0.2486632388723002
  0.1397892479898731  0.8908196997185862  0.7516811509894672
  0.6415885677324766  0.3900039473157033  0.2422485779853878
  0.6415548676256367  0.3904486773547221  0.7572961703119301
  0.6415720964001362  0.8881821963869976  0.2572298049733164
  0.6417378182036750  0.8907045209005258  0.7511245588680647
  0.3600663031771875  0.3904145826309951  0.0008669525284611
  0.3589373896079241  0.8906975976636882  0.0004873878678523
  0.3589969450412062  0.8920505614102228  0.4999736959171345
  0.8596379262011354  0.3900390941484095  0.9999465888519391
  0.8581363474288017  0.8909251732351319  0.9996883941775971
  0.8577508452518413  0.8942953745049568  0.4921771448746941
  0.1396976649482877  0.1084650015868428  0.0010677106399376
  0.1384074671991364  0.1080421909341683  0.5015415978279053
  0.1406059523190033  0.6094100443680343  0.0005553809040367
  0.1405976681756304  0.6078861811536588  0.4999823330719444
  0.6406581900542988  0.1095629219412541  1.0000041716585926
  0.6328831251253951  0.1252117072332245  0.5002229197086465
  0.6413794231819531  0.6098345202097760  0.9998741593635146
  0.1095043023932246  0.3595084715389508  0.0007984080797703
  0.1056746783253348  0.3585637913719463  0.5011962050538588
  0.1089734831578245  0.8595328760105309  0.0001122685606050
  0.1071121035793297  0.8580795479164823  0.5000095941019813
  0.6106872877075681  0.3600002707159605  0.0004102991352161
  0.6090716827016590  0.8586079933521623  0.9996646827641521
  0.6141739171765118  0.8639873876586885  0.4926278547371987
  0.3906460346829046  0.1401479985443472  0.0009420557003443
  0.3866438976626453  0.1362239900664214  0.5016139170179361
  0.3905973997074044  0.6413917542854207  0.9999869428855541
  0.8911974808828420  0.1405340480959220  0.0006669327079369
  0.8920699247360954  0.1440643998101237  0.5003206964347572
  0.8905119955671998  0.6411841628711802  0.9999154357531188
  0.9932366224763887  0.9970534730821125  0.1262088762531462
  0.9976675687710348  0.9966719185921362  0.6243461515602612
  0.9960715246276652  0.5015064129059599  0.1259169867857579
  0.9967974114405184  0.5038115339084026  0.6239623753517722
  0.5034503093527525  0.9970033966401104  0.1258952722339583
  0.5045913045582742  0.9954820031962148  0.6242311245562679
  0.5006187644261404  0.5067554429393781  0.1253489610914524
  0.5139213587070235  0.4877151258834165  0.6253602793971842
  0.0062389853215821  0.0045335609615945  0.3749299711878236
  0.9965462034296294  0.0020411418754811  0.8749059680430731
  0.0035238064037166  0.4963804973254015  0.3751662703437524
 -0.0002034413828918  0.4986617804328023  0.8748883648654041
  0.4972546727724753  0.0033879815253497  0.3749154744454639
  0.4989641310602260  0.0003948038334288  0.8749455931502148
  0.4977212297468505  0.5026355780829965  0.8754320019204545
  0.2475774658741184  0.2484468066698405  0.3738776142067711
  0.2495745490489638  0.2487968356149280  0.8753434736260289
  0.2478756634219896  0.7525493821639196  0.3749151647289860
  0.2514822291657010  0.7483171520569987  0.8747609068359031
  0.7534895409360115  0.2463757145632378  0.8746528794707761
  0.7497076873389462  0.7496905353140297  0.8751648060701438
  0.2496494868935294  0.2490518677812998  0.1242546123406392
  0.2469959529012485  0.2485294501134532  0.6262531220168860
  0.2517453147844498  0.7482027618083809  0.1253667343326667
  0.2458967752895971  0.7536887660756050  0.6255849096485989
  0.7534220618858807  0.2465774138453044  0.1252247391365130
  0.7348189945651722  0.2639558806304046  0.6213620114490070
  0.7497323871246320  0.7503167847929180  0.1252024010378661
  0.7515357438781960  0.7529991691213208  0.6249571681434367
  0.7353153129723716  0.2623364920381816  0.3787692361568912
  0.8472048082043655  0.3976350393318557  0.5002102011957992
  0.3867641788860613  0.6476368636269316  0.5016608098485685
  0.5082681474343425  0.4804998773730951  0.3738369293524343
  0.3608399885294369  0.3798721611065618  0.5016370339938458
  0.8939361502371261  0.6469446287185071  0.4929935742407864
  0.6495863038203258  0.6157427911154153  0.4883104090919306
 
  0.00000000E+00  0.00000000E+00  0.00000000E+00
  0.00000000E+00  0.00000000E+00  0.00000000E+00
  0.00000000E+00  0.00000000E+00  0.00000000E+00
  0.00000000E+00  0.00000000E+00  0.00000000E+00
  0.00000000E+00  0.00000000E+00  0.00000000E+00
  0.00000000E+00  0.00000000E+00  0.00000000E+00
  0.00000000E+00  0.00000000E+00  0.00000000E+00
  0.00000000E+00  0.00000000E+00  0.00000000E+00
  0.00000000E+00  0.00000000E+00  0.00000000E+00
  0.00000000E+00  0.00000000E+00  0.00000000E+00
  0.00000000E+00  0.00000000E+00  0.00000000E+00
  0.00000000E+00  0.00000000E+00  0.00000000E+00
  0.00000000E+00  0.00000000E+00  0.00000000E+00
  0.00000000E+00  0.00000000E+00  0.00000000E+00
  0.00000000E+00  0.00000000E+00  0.00000000E+00
  0.00000000E+00  0.00000000E+00  0.00000000E+00
  0.00000000E+00  0.00000000E+00  0.00000000E+00
  0.00000000E+00  0.00000000E+00  0.00000000E+00
  0.00000000E+00  0.00000000E+00  0.00000000E+00
  0.00000000E+00  0.00000000E+00  0.00000000E+00
  0.00000000E+00  0.00000000E+00  0.00000000E+00
  0.00000000E+00  0.00000000E+00  0.00000000E+00
  0.00000000E+00  0.00000000E+00  0.00000000E+00
  0.00000000E+00  0.00000000E+00  0.00000000E+00
  0.00000000E+00  0.00000000E+00  0.00000000E+00
  0.00000000E+00  0.00000000E+00  0.00000000E+00
  0.00000000E+00  0.00000000E+00  0.00000000E+00
  0.00000000E+00  0.00000000E+00  0.00000000E+00
  0.00000000E+00  0.00000000E+00  0.00000000E+00
  0.00000000E+00  0.00000000E+00  0.00000000E+00
  0.00000000E+00  0.00000000E+00  0.00000000E+00
  0.00000000E+00  0.00000000E+00  0.00000000E+00
  0.00000000E+00  0.00000000E+00  0.00000000E+00
  0.00000000E+00  0.00000000E+00  0.00000000E+00
  0.00000000E+00  0.00000000E+00  0.00000000E+00
  0.00000000E+00  0.00000000E+00  0.00000000E+00
  0.00000000E+00  0.00000000E+00  0.00000000E+00
  0.00000000E+00  0.00000000E+00  0.00000000E+00
  0.00000000E+00  0.00000000E+00  0.00000000E+00
  0.00000000E+00  0.00000000E+00  0.00000000E+00
  0.00000000E+00  0.00000000E+00  0.00000000E+00
  0.00000000E+00  0.00000000E+00  0.00000000E+00
  0.00000000E+00  0.00000000E+00  0.00000000E+00
  0.00000000E+00  0.00000000E+00  0.00000000E+00
  0.00000000E+00  0.00000000E+00  0.00000000E+00
  0.00000000E+00  0.00000000E+00  0.00000000E+00
  0.00000000E+00  0.00000000E+00  0.00000000E+00
  0.00000000E+00  0.00000000E+00  0.00000000E+00
  0.00000000E+00  0.00000000E+00  0.00000000E+00
  0.00000000E+00  0.00000000E+00  0.00000000E+00
  0.00000000E+00  0.00000000E+00  0.00000000E+00
  0.00000000E+00  0.00000000E+00  0.00000000E+00
  0.00000000E+00  0.00000000E+00  0.00000000E+00
  0.00000000E+00  0.00000000E+00  0.00000000E+00
  0.00000000E+00  0.00000000E+00  0.00000000E+00
  0.00000000E+00  0.00000000E+00  0.00000000E+00
  0.00000000E+00  0.00000000E+00  0.00000000E+00
  0.00000000E+00  0.00000000E+00  0.00000000E+00
  0.00000000E+00  0.00000000E+00  0.00000000E+00
  0.00000000E+00  0.00000000E+00  0.00000000E+00
  0.00000000E+00  0.00000000E+00  0.00000000E+00
  0.00000000E+00  0.00000000E+00  0.00000000E+00
  0.00000000E+00  0.00000000E+00  0.00000000E+00
  0.00000000E+00  0.00000000E+00  0.00000000E+00
  0.00000000E+00  0.00000000E+00  0.00000000E+00
  0.00000000E+00  0.00000000E+00  0.00000000E+00
  0.00000000E+00  0.00000000E+00  0.00000000E+00
  0.00000000E+00  0.00000000E+00  0.00000000E+00
  0.00000000E+00  0.00000000E+00  0.00000000E+00
  0.00000000E+00  0.00000000E+00  0.00000000E+00
  0.00000000E+00  0.00000000E+00  0.00000000E+00
  0.00000000E+00  0.00000000E+00  0.00000000E+00
  0.00000000E+00  0.00000000E+00  0.00000000E+00
  0.00000000E+00  0.00000000E+00  0.00000000E+00
  0.00000000E+00  0.00000000E+00  0.00000000E+00
  0.00000000E+00  0.00000000E+00  0.00000000E+00
  0.00000000E+00  0.00000000E+00  0.00000000E+00
  0.00000000E+00  0.00000000E+00  0.00000000E+00
  0.00000000E+00  0.00000000E+00  0.00000000E+00
  0.00000000E+00  0.00000000E+00  0.00000000E+00
  0.00000000E+00  0.00000000E+00  0.00000000E+00
  0.00000000E+00  0.00000000E+00  0.00000000E+00
  0.00000000E+00  0.00000000E+00  0.00000000E+00
  0.00000000E+00  0.00000000E+00  0.00000000E+00
  0.00000000E+00  0.00000000E+00  0.00000000E+00
  0.00000000E+00  0.00000000E+00  0.00000000E+00
  0.00000000E+00  0.00000000E+00  0.00000000E+00
  0.00000000E+00  0.00000000E+00  0.00000000E+00
  0.00000000E+00  0.00000000E+00  0.00000000E+00
  0.00000000E+00  0.00000000E+00  0.00000000E+00
  0.00000000E+00  0.00000000E+00  0.00000000E+00
  0.00000000E+00  0.00000000E+00  0.00000000E+00
  0.00000000E+00  0.00000000E+00  0.00000000E+00
  0.00000000E+00  0.00000000E+00  0.00000000E+00
  0.00000000E+00  0.00000000E+00  0.00000000E+00
  0.00000000E+00  0.00000000E+00  0.00000000E+00
  0.00000000E+00  0.00000000E+00  0.00000000E+00
  0.00000000E+00  0.00000000E+00  0.00000000E+00
  0.00000000E+00  0.00000000E+00  0.00000000E+00
  0.00000000E+00  0.00000000E+00  0.00000000E+00
  0.00000000E+00  0.00000000E+00  0.00000000E+00
  0.00000000E+00  0.00000000E+00  0.00000000E+00
  0.00000000E+00  0.00000000E+00  0.00000000E+00
  0.00000000E+00  0.00000000E+00  0.00000000E+00
  0.00000000E+00  0.00000000E+00  0.00000000E+00
  0.00000000E+00  0.00000000E+00  0.00000000E+00
  0.00000000E+00  0.00000000E+00  0.00000000E+00
  0.00000000E+00  0.00000000E+00  0.00000000E+00
  0.00000000E+00  0.00000000E+00  0.00000000E+00
  0.00000000E+00  0.00000000E+00  0.00000000E+00
  0.00000000E+00  0.00000000E+00  0.00000000E+00
  0.00000000E+00  0.00000000E+00  0.00000000E+00
  0.00000000E+00  0.00000000E+00  0.00000000E+00
  0.00000000E+00  0.00000000E+00  0.00000000E+00
  0.00000000E+00  0.00000000E+00  0.00000000E+00
  0.00000000E+00  0.00000000E+00  0.00000000E+00
  0.00000000E+00  0.00000000E+00  0.00000000E+00
  0.00000000E+00  0.00000000E+00  0.00000000E+00
  0.00000000E+00  0.00000000E+00  0.00000000E+00
  0.00000000E+00  0.00000000E+00  0.00000000E+00
  0.00000000E+00  0.00000000E+00  0.00000000E+00
  0.00000000E+00  0.00000000E+00  0.00000000E+00
  0.00000000E+00  0.00000000E+00  0.00000000E+00
  0.00000000E+00  0.00000000E+00  0.00000000E+00
  0.00000000E+00  0.00000000E+00  0.00000000E+00
  0.00000000E+00  0.00000000E+00  0.00000000E+00
  0.00000000E+00  0.00000000E+00  0.00000000E+00
  0.00000000E+00  0.00000000E+00  0.00000000E+00
  0.00000000E+00  0.00000000E+00  0.00000000E+00
  0.00000000E+00  0.00000000E+00  0.00000000E+00
  0.00000000E+00  0.00000000E+00  0.00000000E+00
  0.00000000E+00  0.00000000E+00  0.00000000E+00
  0.00000000E+00  0.00000000E+00  0.00000000E+00
  0.00000000E+00  0.00000000E+00  0.00000000E+00
  0.00000000E+00  0.00000000E+00  0.00000000E+00
  0.00000000E+00  0.00000000E+00  0.00000000E+00
  0.00000000E+00  0.00000000E+00  0.00000000E+00
  0.00000000E+00  0.00000000E+00  0.00000000E+00
  0.00000000E+00  0.00000000E+00  0.00000000E+00
  0.00000000E+00  0.00000000E+00  0.00000000E+00
  0.00000000E+00  0.00000000E+00  0.00000000E+00
  0.00000000E+00  0.00000000E+00  0.00000000E+00
  0.00000000E+00  0.00000000E+00  0.00000000E+00
  0.00000000E+00  0.00000000E+00  0.00000000E+00
  0.00000000E+00  0.00000000E+00  0.00000000E+00
  0.00000000E+00  0.00000000E+00  0.00000000E+00
  0.00000000E+00  0.00000000E+00  0.00000000E+00
  0.00000000E+00  0.00000000E+00  0.00000000E+00
  0.00000000E+00  0.00000000E+00  0.00000000E+00
  0.00000000E+00  0.00000000E+00  0.00000000E+00
  0.00000000E+00  0.00000000E+00  0.00000000E+00
  0.00000000E+00  0.00000000E+00  0.00000000E+00
  0.00000000E+00  0.00000000E+00  0.00000000E+00
  0.00000000E+00  0.00000000E+00  0.00000000E+00
  0.00000000E+00  0.00000000E+00  0.00000000E+00
  0.00000000E+00  0.00000000E+00  0.00000000E+00
  0.00000000E+00  0.00000000E+00  0.00000000E+00
  0.00000000E+00  0.00000000E+00  0.00000000E+00
