Sr   Ti   Fe   O                        
   1.00000000000000     
    11.1989999999999998    0.0000000000000000    0.0000000000000000
     0.0000000000000000   11.1989999999999998    0.0000000000000000
     0.0000000000000000    0.0000000000000000   15.9830000000000005
   Sr   Ti   Fe   O 
    32    31     1    94
Direct
  0.9998144382415740  0.2506072342494338  0.1250043016900707
  0.0062198548718466  0.2498331025161997  0.6251632921977678
  0.0006760612621853  0.7510694663149481  0.1242013139103234
  0.0022801098551317  0.7484177543151053  0.6252757070662934
  0.5003079836172654  0.2510228571448987  0.1242516534623403
  0.4948957404822358  0.2506843854915552  0.6275975439438990
  0.4977143454723299  0.7484399890059330  0.1238920552854495
  0.4966303808771838  0.7480785376774384  0.6287264680572894
  0.0072343968168939  0.2501826271747108  0.3755337237773083
  0.9995686102351157  0.2503517799936336  0.8752109680529764
  0.0091807118156987  0.7488981592329618  0.3733626457889465
  0.9988800837740932  0.7506615682034891  0.8740339961093284
  0.4938988977900475  0.2504481754368800  0.3725026788486382
  0.5004578488222232  0.2509859662525116  0.8756085105418824
  0.4884095929640730  0.7490234314772973  0.3709853394047358
  0.4981804989528693  0.7489067891607343  0.8757033166474594
  0.2491134555144217  0.0001403959357994  0.1250887164731539
  0.2488846046926717  0.9999697376418881  0.6247079534650162
  0.2515035397962606  0.4998233401919333  0.1246419845689335
  0.2542941552570885  0.4985263639012974  0.6241832285043342
  0.7495960156340755  0.0021187293470300  0.1245211862812069
  0.7496792084197894  0.9990110554720173  0.6251193366655616
  0.7494093726064904  0.4992779393132430  0.1229463919428876
  0.7547146308450982  0.4959905641213047  0.6320416522652893
  0.2491508914114599  0.0014335383695801  0.3750772586013283
  0.2491130633997838  0.0001267854834461  0.8749276601527477
  0.2539355119476371  0.4974004183889710  0.3755437957864385
  0.2507479474225122  0.4988422773452514  0.8756026527955666
  0.7483680887810678  0.0070062641445775  0.3748382834840378
  0.7499768541770151  0.0001441355731563  0.8742411325745483
  0.7570033617327060  0.4910144901203061  0.3697009705838011
  0.7482367209409624  0.5006551633074336  0.8758372420799788
  0.9987447466808610  0.9999905338403499  0.9999236971318326
  0.0030297671889072  0.9950725994802992  0.4995018735807468
  0.9998976875724184  0.5002270169911186  0.9998995279351647
  0.0032873920660360  0.5001220917637069  0.4992975638508210
  0.4999507984211432  0.9997592680336636  0.9999208977987828
  0.4981884577500880  0.9990013249135110  0.4994891004496090
  0.4994954228037781  0.5003436326568728  0.0001535977224724
  0.2494918683332338  0.2493493137967812  0.0001846150259389
  0.2524913779760003  0.2503504998453926  0.5005068872959716
  0.2490627538256482  0.7506407877306502  0.9996238709928359
  0.2539174894718399  0.7485140208630884  0.5004964124042731
  0.7505145745077445  0.2496042075705573  0.9997150291749745
  0.7497530878513438  0.7508038244253751  0.9972489071463253
  0.2500410454893828  0.2496539059898426  0.2480273020580997
  0.2498406034862330  0.2491033769788373  0.7506124526283787
  0.2493583812935429  0.7499777856876032  0.2483029838703608
  0.2489853887077403  0.7498285819854035  0.7506892884229314
  0.7490816014689069  0.2507985996843108  0.2493386905166302
  0.7486702184880509  0.2503661933350812  0.7501589096190360
  0.7500723810871583  0.7503501033138529  0.2450282554441842
  0.7491646432553658  0.7487697958309725  0.7496070197049524
  0.9994611675904050  0.0006956561382278  0.2510117317489594
  0.9990048288107537  0.9997638175883156  0.7492385134343511
  0.0016122558705219  0.5000368622413700  0.2499179562055761
  0.0009075830754777  0.5003518008986421  0.7503695656455860
  0.4999725734092583  0.9999845143286389  0.2500624060635938
  0.5002594412196394  0.9988487510939729  0.7500687521017677
  0.5001551022147572  0.4998417633763442  0.2509976346874903
  0.4988584368302623  0.5000131903761006  0.7501636753634642
  0.7616129842396113  0.2485333267247304  0.5005940967682082
  0.7533752339436333  0.7495730812428751  0.5002480145069942
  0.4962008854813835  0.5019795625358988  0.5000974912790279
  0.1089203364801661  0.1401406182489079  0.2472606180212713
  0.1081055284935241  0.1402739947602182  0.7512763651101542
  0.1104602155914609  0.6401412715495061  0.2474282897688277
  0.1085691506465624  0.6413435026083936  0.7511241858811597
  0.6100460012679039  0.1401001116573707  0.2506170707847531
  0.6089003976498394  0.1404282184531862  0.7486765197580061
  0.6132398843068835  0.6419117398777233  0.2550119468711020
  0.6093589705646074  0.6405063899569485  0.7557583633458974
  0.3885800807986646  0.3583060180935529  0.2447393999897207
  0.3883893502656913  0.3573703053395341  0.7541732870417978
  0.3891716298060868  0.8611909933921571  0.2484752164140190
  0.3901682955520515  0.8596088189863476  0.7508518660683432
  0.8892551104267894  0.3607645720691904  0.2527373803043362
  0.8898061929506702  0.3598386158714690  0.7472512164359404
  0.8868551153909462  0.8606489015604865  0.2588658907467860
  0.8891614063020395  0.8599570862337033  0.7473125467961843
  0.3603005038852613  0.1097317241836554  0.2494960778215612
  0.3600434581899728  0.1083907026273574  0.7484228959736541
  0.3595637483599223  0.6129206774520487  0.2466345132814458
  0.3569560727360132  0.6112320513423403  0.7538400137118866
  0.8584212732334964  0.1120058695545706  0.2542279818749899
  0.8574666827773230  0.1108535144411335  0.7448833322823818
  0.8620242299785584  0.6144210172910685  0.2550932552458519
  0.8611841330720517  0.6109030576582872  0.7547934149517472
  0.1403132379798641  0.3898125609274745  0.2473277989151166
  0.1398506378272852  0.3905850088151814  0.7483268893604081
  0.1377365020226435  0.8900023222031410  0.2494354408256367
  0.1389652177633049  0.8912926965439752  0.7509901127706167
  0.6403223564854484  0.3893058846065783  0.2449497777434685
  0.6397524909940829  0.3889871274437349  0.7553762612980273
  0.6408603798445343  0.8886659703233860  0.2569695888375926
  0.6407883659817730  0.8904965102179728  0.7500761386134098
  0.3590256500182522  0.3893516446052007  0.0014382608755568
  0.3590189615255951  0.8914163765022788  0.0003394946050453
  0.3569982148411847  0.8933397164232549  0.4996506559667309
  0.8589851899495969  0.3906190889843002  0.9996624365530079
  0.8577337212918736  0.8917646945059369  0.0004577051805632
  0.8590192312069759  0.8941737273850682  0.4946964989207223
  0.1393960187802109  0.1079738566998029  0.0006538263698821
  0.1369943544754816  0.1110515856115555  0.5009850230384624
  0.1398936936061289  0.6093304040324957  0.0007358236601580
  0.1418339641248135  0.6105117213673495  0.5000814583978925
  0.6410457826627739  0.1094041892331932  0.9999853586461132
  0.6334573972856410  0.1215695039001671  0.5003758849410775
  0.6412900097144894  0.6107048364320187  0.9995463316031793
  0.1090861932590381  0.3593859976635557  0.0011946236856863
  0.1181215319839691  0.3636830519561918  0.5021988446359517
  0.1073278758021911  0.8599789902470673  0.0000065619805399
  0.1078307923774354  0.8586528127190902  0.5000277023119255
  0.6108862725388982  0.3591060284067499  0.0005591006515251
  0.6084266164203797  0.8589710014121419  0.0001561507410348
  0.6065715772338270  0.8490934423080490  0.4918372503217145
  0.3908803486985395  0.1400306736002452  0.0004713443547499
  0.3878195542360031  0.1345898269995316  0.5014313131007733
  0.3888524467273097  0.6416161743490608  0.0002824069565473
  0.8910534329769850  0.1413821812932214  0.0006620263253917
  0.8858497841243503  0.1376828113703951  0.5006689510512051
  0.8905162780911903  0.6410736998451108  0.9993161702227347
  0.9935959252660553  0.9977956369317882  0.1263275351571065
  1.0000411857905118  0.9993472781255076  0.6245520987505838
  0.9953387101409236  0.5006858299541012  0.1253818354582667
  0.9978254830227885  0.5068071118214031  0.6244966957248197
  0.5037719984776786  0.9986264936803465  0.1256507923812613
  0.5044804322771371  0.9938665554005396  0.6239169993864399
  0.5017474998748961  0.5044533126756237  0.1234735998129231
  0.4937634173825565  0.5004401155647764  0.6334516826524994
  0.0052095057035397  0.0053652181361032  0.3749332992292636
  0.9950914142163908  0.0008489757818173  0.8746165149298051
  0.0086130023301324  0.4971196109487388  0.3739508069585665
  0.0014292573296514  0.4970250527975855  0.8752301740183571
  0.4979465689310633  0.0024989043720604  0.3750121528456773
  0.5005027256908352  0.0006597507127459  0.8749273679178714
  0.4973823487423185  0.4995285755089254  0.8781110615979326
  0.2487228681792731  0.2484177827324635  0.3735263440649891
  0.2476225060329070  0.2478334717618825  0.8758370124293059
  0.2488828430962360  0.7512919144974516  0.3737223876198315
  0.2475440482758050  0.7527272245660805  0.8759087211123963
  0.7526081118001073  0.2470996450476262  0.8745368006003449
  0.7515025525989747  0.7540031015740997  0.8755385410635735
  0.2485506517663192  0.2467244231537658  0.1239358149930592
  0.2494310704600820  0.2473842254535224  0.6267304582799601
  0.2479486130506497  0.7530456733026472  0.1240546786688614
  0.2482345852487870  0.7518105964966109  0.6262186841593403
  0.7525925608635949  0.2478342486329175  0.1253733447757755
  0.7382856129986552  0.2607232231189947  0.6219280013622045
  0.7513049394314998  0.7519620687737532  0.1248339756095095
  0.7442110653489756  0.7402166435361195  0.6264672551464617
  0.7381875791105283  0.2587228769342882  0.3782311906570002
  0.8780983166251843  0.3778277833213727  0.4989739859474894
  0.3907780187642531  0.6491858393465256  0.5006125482883146
  0.4911009307340999  0.4957392533452415  0.3675023796276771
  0.3665626146621657  0.3766649958234026  0.5008924959059603
  0.8882975544372914  0.6370756365424110  0.4893495510370364
  0.6626004508397461  0.4852958370509560  0.5003986682961814
 
  0.00000000E+00  0.00000000E+00  0.00000000E+00
  0.00000000E+00  0.00000000E+00  0.00000000E+00
  0.00000000E+00  0.00000000E+00  0.00000000E+00
  0.00000000E+00  0.00000000E+00  0.00000000E+00
  0.00000000E+00  0.00000000E+00  0.00000000E+00
  0.00000000E+00  0.00000000E+00  0.00000000E+00
  0.00000000E+00  0.00000000E+00  0.00000000E+00
  0.00000000E+00  0.00000000E+00  0.00000000E+00
  0.00000000E+00  0.00000000E+00  0.00000000E+00
  0.00000000E+00  0.00000000E+00  0.00000000E+00
  0.00000000E+00  0.00000000E+00  0.00000000E+00
  0.00000000E+00  0.00000000E+00  0.00000000E+00
  0.00000000E+00  0.00000000E+00  0.00000000E+00
  0.00000000E+00  0.00000000E+00  0.00000000E+00
  0.00000000E+00  0.00000000E+00  0.00000000E+00
  0.00000000E+00  0.00000000E+00  0.00000000E+00
  0.00000000E+00  0.00000000E+00  0.00000000E+00
  0.00000000E+00  0.00000000E+00  0.00000000E+00
  0.00000000E+00  0.00000000E+00  0.00000000E+00
  0.00000000E+00  0.00000000E+00  0.00000000E+00
  0.00000000E+00  0.00000000E+00  0.00000000E+00
  0.00000000E+00  0.00000000E+00  0.00000000E+00
  0.00000000E+00  0.00000000E+00  0.00000000E+00
  0.00000000E+00  0.00000000E+00  0.00000000E+00
  0.00000000E+00  0.00000000E+00  0.00000000E+00
  0.00000000E+00  0.00000000E+00  0.00000000E+00
  0.00000000E+00  0.00000000E+00  0.00000000E+00
  0.00000000E+00  0.00000000E+00  0.00000000E+00
  0.00000000E+00  0.00000000E+00  0.00000000E+00
  0.00000000E+00  0.00000000E+00  0.00000000E+00
  0.00000000E+00  0.00000000E+00  0.00000000E+00
  0.00000000E+00  0.00000000E+00  0.00000000E+00
  0.00000000E+00  0.00000000E+00  0.00000000E+00
  0.00000000E+00  0.00000000E+00  0.00000000E+00
  0.00000000E+00  0.00000000E+00  0.00000000E+00
  0.00000000E+00  0.00000000E+00  0.00000000E+00
  0.00000000E+00  0.00000000E+00  0.00000000E+00
  0.00000000E+00  0.00000000E+00  0.00000000E+00
  0.00000000E+00  0.00000000E+00  0.00000000E+00
  0.00000000E+00  0.00000000E+00  0.00000000E+00
  0.00000000E+00  0.00000000E+00  0.00000000E+00
  0.00000000E+00  0.00000000E+00  0.00000000E+00
  0.00000000E+00  0.00000000E+00  0.00000000E+00
  0.00000000E+00  0.00000000E+00  0.00000000E+00
  0.00000000E+00  0.00000000E+00  0.00000000E+00
  0.00000000E+00  0.00000000E+00  0.00000000E+00
  0.00000000E+00  0.00000000E+00  0.00000000E+00
  0.00000000E+00  0.00000000E+00  0.00000000E+00
  0.00000000E+00  0.00000000E+00  0.00000000E+00
  0.00000000E+00  0.00000000E+00  0.00000000E+00
  0.00000000E+00  0.00000000E+00  0.00000000E+00
  0.00000000E+00  0.00000000E+00  0.00000000E+00
  0.00000000E+00  0.00000000E+00  0.00000000E+00
  0.00000000E+00  0.00000000E+00  0.00000000E+00
  0.00000000E+00  0.00000000E+00  0.00000000E+00
  0.00000000E+00  0.00000000E+00  0.00000000E+00
  0.00000000E+00  0.00000000E+00  0.00000000E+00
  0.00000000E+00  0.00000000E+00  0.00000000E+00
  0.00000000E+00  0.00000000E+00  0.00000000E+00
  0.00000000E+00  0.00000000E+00  0.00000000E+00
  0.00000000E+00  0.00000000E+00  0.00000000E+00
  0.00000000E+00  0.00000000E+00  0.00000000E+00
  0.00000000E+00  0.00000000E+00  0.00000000E+00
  0.00000000E+00  0.00000000E+00  0.00000000E+00
  0.00000000E+00  0.00000000E+00  0.00000000E+00
  0.00000000E+00  0.00000000E+00  0.00000000E+00
  0.00000000E+00  0.00000000E+00  0.00000000E+00
  0.00000000E+00  0.00000000E+00  0.00000000E+00
  0.00000000E+00  0.00000000E+00  0.00000000E+00
  0.00000000E+00  0.00000000E+00  0.00000000E+00
  0.00000000E+00  0.00000000E+00  0.00000000E+00
  0.00000000E+00  0.00000000E+00  0.00000000E+00
  0.00000000E+00  0.00000000E+00  0.00000000E+00
  0.00000000E+00  0.00000000E+00  0.00000000E+00
  0.00000000E+00  0.00000000E+00  0.00000000E+00
  0.00000000E+00  0.00000000E+00  0.00000000E+00
  0.00000000E+00  0.00000000E+00  0.00000000E+00
  0.00000000E+00  0.00000000E+00  0.00000000E+00
  0.00000000E+00  0.00000000E+00  0.00000000E+00
  0.00000000E+00  0.00000000E+00  0.00000000E+00
  0.00000000E+00  0.00000000E+00  0.00000000E+00
  0.00000000E+00  0.00000000E+00  0.00000000E+00
  0.00000000E+00  0.00000000E+00  0.00000000E+00
  0.00000000E+00  0.00000000E+00  0.00000000E+00
  0.00000000E+00  0.00000000E+00  0.00000000E+00
  0.00000000E+00  0.00000000E+00  0.00000000E+00
  0.00000000E+00  0.00000000E+00  0.00000000E+00
  0.00000000E+00  0.00000000E+00  0.00000000E+00
  0.00000000E+00  0.00000000E+00  0.00000000E+00
  0.00000000E+00  0.00000000E+00  0.00000000E+00
  0.00000000E+00  0.00000000E+00  0.00000000E+00
  0.00000000E+00  0.00000000E+00  0.00000000E+00
  0.00000000E+00  0.00000000E+00  0.00000000E+00
  0.00000000E+00  0.00000000E+00  0.00000000E+00
  0.00000000E+00  0.00000000E+00  0.00000000E+00
  0.00000000E+00  0.00000000E+00  0.00000000E+00
  0.00000000E+00  0.00000000E+00  0.00000000E+00
  0.00000000E+00  0.00000000E+00  0.00000000E+00
  0.00000000E+00  0.00000000E+00  0.00000000E+00
  0.00000000E+00  0.00000000E+00  0.00000000E+00
  0.00000000E+00  0.00000000E+00  0.00000000E+00
  0.00000000E+00  0.00000000E+00  0.00000000E+00
  0.00000000E+00  0.00000000E+00  0.00000000E+00
  0.00000000E+00  0.00000000E+00  0.00000000E+00
  0.00000000E+00  0.00000000E+00  0.00000000E+00
  0.00000000E+00  0.00000000E+00  0.00000000E+00
  0.00000000E+00  0.00000000E+00  0.00000000E+00
  0.00000000E+00  0.00000000E+00  0.00000000E+00
  0.00000000E+00  0.00000000E+00  0.00000000E+00
  0.00000000E+00  0.00000000E+00  0.00000000E+00
  0.00000000E+00  0.00000000E+00  0.00000000E+00
  0.00000000E+00  0.00000000E+00  0.00000000E+00
  0.00000000E+00  0.00000000E+00  0.00000000E+00
  0.00000000E+00  0.00000000E+00  0.00000000E+00
  0.00000000E+00  0.00000000E+00  0.00000000E+00
  0.00000000E+00  0.00000000E+00  0.00000000E+00
  0.00000000E+00  0.00000000E+00  0.00000000E+00
  0.00000000E+00  0.00000000E+00  0.00000000E+00
  0.00000000E+00  0.00000000E+00  0.00000000E+00
  0.00000000E+00  0.00000000E+00  0.00000000E+00
  0.00000000E+00  0.00000000E+00  0.00000000E+00
  0.00000000E+00  0.00000000E+00  0.00000000E+00
  0.00000000E+00  0.00000000E+00  0.00000000E+00
  0.00000000E+00  0.00000000E+00  0.00000000E+00
  0.00000000E+00  0.00000000E+00  0.00000000E+00
  0.00000000E+00  0.00000000E+00  0.00000000E+00
  0.00000000E+00  0.00000000E+00  0.00000000E+00
  0.00000000E+00  0.00000000E+00  0.00000000E+00
  0.00000000E+00  0.00000000E+00  0.00000000E+00
  0.00000000E+00  0.00000000E+00  0.00000000E+00
  0.00000000E+00  0.00000000E+00  0.00000000E+00
  0.00000000E+00  0.00000000E+00  0.00000000E+00
  0.00000000E+00  0.00000000E+00  0.00000000E+00
  0.00000000E+00  0.00000000E+00  0.00000000E+00
  0.00000000E+00  0.00000000E+00  0.00000000E+00
  0.00000000E+00  0.00000000E+00  0.00000000E+00
  0.00000000E+00  0.00000000E+00  0.00000000E+00
  0.00000000E+00  0.00000000E+00  0.00000000E+00
  0.00000000E+00  0.00000000E+00  0.00000000E+00
  0.00000000E+00  0.00000000E+00  0.00000000E+00
  0.00000000E+00  0.00000000E+00  0.00000000E+00
  0.00000000E+00  0.00000000E+00  0.00000000E+00
  0.00000000E+00  0.00000000E+00  0.00000000E+00
  0.00000000E+00  0.00000000E+00  0.00000000E+00
  0.00000000E+00  0.00000000E+00  0.00000000E+00
  0.00000000E+00  0.00000000E+00  0.00000000E+00
  0.00000000E+00  0.00000000E+00  0.00000000E+00
  0.00000000E+00  0.00000000E+00  0.00000000E+00
  0.00000000E+00  0.00000000E+00  0.00000000E+00
  0.00000000E+00  0.00000000E+00  0.00000000E+00
  0.00000000E+00  0.00000000E+00  0.00000000E+00
  0.00000000E+00  0.00000000E+00  0.00000000E+00
  0.00000000E+00  0.00000000E+00  0.00000000E+00
  0.00000000E+00  0.00000000E+00  0.00000000E+00
  0.00000000E+00  0.00000000E+00  0.00000000E+00
  0.00000000E+00  0.00000000E+00  0.00000000E+00
  0.00000000E+00  0.00000000E+00  0.00000000E+00
  0.00000000E+00  0.00000000E+00  0.00000000E+00
