SrTiFeO                                 
   1.00000000000000     
    11.1989999999999998    0.0000000000000000    0.0000000000000000
     0.0000000000000000   11.1989999999999998    0.0000000000000000
     0.0000000000000000    0.0000000000000000   15.9830000000000005
   Sr   Ti   Fe   O 
    32    30     2    94
Direct
  0.9990734356154903  0.2507927268634030  0.1245980966124101
  0.0006565191025950  0.2448438595834759  0.6266270489348691
  0.9986627744269498  0.7493884023264572  0.1243135611049112
  0.0051495933393318  0.7572066271864833  0.6274921990672595
  0.5003233000483603  0.2493898854154811  0.1245591665348651
  0.4995111430556565  0.2393694191403148  0.6241733014263228
  0.5011059460312238  0.7500302936252476  0.1254917712845480
  0.4967266964322943  0.7593997595946337  0.6235913058269887
  0.0003354157633494  0.2460635890617713  0.3747382209185226
 -0.0008090915343447  0.2500294481671028  0.8752053686895211
  0.0049216140662188  0.7577280040843952  0.3718495697230077
  0.9988849046802084  0.7490834738371187  0.8749968293581643
  0.4996809454530562  0.2498596353393023  0.3746085204777613
  0.5007330953369032  0.2458935377207047  0.8746205854016220
  0.4984934720125036  0.7509617733548524  0.3754428273836872
  0.4998364510574436  0.7519412538484509  0.8760468291940402
  0.2493118287116399  0.0003322561601361  0.1249160375093522
  0.2484287136494494  0.0000516857661334  0.6245260365026145
  0.2483411540101698  0.4996781289761408  0.1250390420195849
  0.2405139333611896  0.5021535882591402  0.6239932433294811
  0.7500210149087129  0.9986003961105575  0.1257545209534418
  0.7540496666669682  0.0004648367145233  0.6243004084147121
  0.7495468269779938  0.4994496415820185  0.1229941785832497
  0.7555817708228254  0.4992130486022726  0.6272428586432012
  0.2502310047794575  0.0013307643462317  0.3765991195154468
  0.2497305825098682  0.9994268730010045  0.8742498814255276
  0.2532680130461805  0.5018154966907410  0.3742379044308454
  0.2459899006128163  0.5006739195771870  0.8752223688540431
  0.7519166623856051  0.0011547598615254  0.3773083804938887
  0.7498729985491370  0.9977854095160814  0.8735566778044824
  0.7457052724205179  0.4996033333393213  0.3710283107412157
  0.7520507356304684  0.4980069153892154  0.8768127098898558
  0.0000592497703291  0.9997087148660573  0.9997244802024595
 -0.0001559117003595  0.9998050357372146  0.4994270622483139
  0.0003600471028816  0.4992962124938661  0.9996456710079888
  0.0040912651230905  0.4925344628926730  0.4969334088811629
  0.5003189278204172  0.9992658390967468  0.0002928801491864
  0.4992570637466475  0.0019725132712691  0.4992325081695344
  0.4994036340656610  0.5000942576752077  0.0005525566754965
  0.2503902359239242  0.2506945453299752  0.9995062072746430
  0.2523612761776781  0.2513602690674842  0.5011359241725776
  0.2504293277462197  0.7500727012430826  0.0000136701629176
  0.2509957543078865  0.7502640733968791  0.5005013614688030
  0.7492388688914738  0.2492854596376157  0.9997117368615767
  0.7472175717925037  0.2534331061640699  0.5010351702269776
  0.7485951335533629  0.7497158013634462  0.9997753846853507
  0.2501180877602413  0.2512307770761320  0.2502305397252109
  0.2503257714218516  0.2507171631359122  0.7482374799025361
  0.2507935645699017  0.7502089502728557  0.2493301573898505
  0.2504596368508227  0.7485978426296904  0.7499491791190994
  0.7492034085788754  0.2503489766440875  0.2499382271197021
  0.7503330480945334  0.2501618414856588  0.7493511265553521
  0.7508354554603373  0.7489189735881107  0.2521209417745969
  0.7513921174297900  0.7477266988543398  0.7460987544228099
 -0.0000296013445400  0.0011460185994982  0.2500400707034054
  0.0005477596864982  0.0001249595410252  0.7518910789458101
  0.9985148206726417  0.5014867447860961  0.2498192262897453
  0.9989165789421746  0.5003960396184748  0.7488328032078612
  0.5001191604718886  0.0001409206032741  0.2505108558978724
  0.5001492220530077  0.9990572161556838  0.7499191224126794
  0.4996143214164458  0.5001995023329473  0.2473869135587990
  0.4997878552425102  0.4997337011170606  0.7565076391099226
  0.5010771212866416  0.4998002795338303  0.4906448325116944
  0.7380572962619896  0.7560551860859946  0.5007651575408797
  0.1095535426053324  0.1418421286951856  0.2511613084066092
  0.1110749784749818  0.1398437131530602  0.7541755408951586
  0.1092033389924693  0.6417287089835536  0.2495536127103374
  0.1093009083191733  0.6406056952063830  0.7512336433252244
  0.6087924838082117  0.1406158142355160  0.2497185284663381
  0.6127587131804638  0.1362197328261904  0.7494446386486120
  0.6086688219808338  0.6411417949144831  0.2524728129970769
  0.3903885225623496  0.3596227466485026  0.2471159178705385
  0.3912206177508960  0.3637941513266930  0.7354993972412319
  0.3915831726944273  0.8590013680674525  0.2506665275051775
  0.3894342448347377  0.8607679182614092  0.7509161044926479
  0.8902786423118036  0.3593827145520469  0.2523547999227261
  0.8910406920051551  0.3589453912856790  0.7503702752414069
  0.8905722021263506  0.8598608974234299  0.2495562083956036
  0.8896799773109147  0.8595799397024325  0.7516761278209924
  0.3590699814543238  0.1094506605903187  0.2499230630765538
  0.3631905349611850  0.1111576520621722  0.7529946986431085
  0.3585105536485459  0.6087356681668505  0.2477380217337453
  0.3582108996531644  0.6114051172766868  0.7426729203190352
  0.8589312634646109  0.1101290194028055  0.2515208775598585
  0.8616904748074257  0.1088625815816403  0.7519176880059643
  0.8582282449485088  0.6090330685568563  0.2430945493797728
  0.8581931550922994  0.6082878531755093  0.7569049582413920
  0.1394509406714323  0.3922988017771483  0.2545481109405713
  0.1403297230847688  0.3897966279763896  0.7470240444394713
  0.1406683916078736  0.8905660113217020  0.2542401753993803
  0.1388882961474495  0.8902113110206181  0.7509126874811860
  0.6401450529025179  0.3908159828101950  0.2484412480479900
  0.6415518969315095  0.8895167929182871  0.2557756024432142
  0.6393766698937864  0.8855013428587818  0.7431404989857101
  0.3592246240285086  0.3917509110299136  0.0018761182309758
  0.3588479439945659  0.8920102423265340  0.9994519152365676
  0.3628174933599042  0.8876389242439054  0.4995431988670960
  0.8596987175744729  0.3899178116057580  0.0001035669960160
  0.8550788126706483  0.3971731179145560  0.4976642989302620
  0.8586914236101137  0.8898100081213512  0.9993593781272839
  0.8691625316678327  0.8792926409723519  0.4984646828880532
  0.1417094667470988  0.1099213479510802  0.9977698772301765
  0.1385984630421408  0.1124949024054595  0.4969021716352627
  0.1404280820604455  0.6095946714801759  0.0009290859460209
  0.1247713535164617  0.6218748658114638  0.4989675470122092
  0.6410890246040618  0.1083074015532287  0.0000461576650450
  0.6390378975923653  0.1109877990666353  0.5012695444625315
  0.6407981381583906  0.6087570819633022  0.0001399610031936
  0.1099578844184813  0.3586974762156740  0.9994900687369088
  0.1132291388732939  0.3585081375105700  0.5062475709413535
  0.1088814203114122  0.8594258974285659  0.9998142565690031
  0.1163202567098778  0.8665559513888432  0.4968666506813136
  0.6094299930242559  0.3580620226215359  0.0004903140845521
  0.6078416032761577  0.8584652638094402  0.0003354605338755
  0.6091637057733892  0.8632445383043994  0.4998848330222071
  0.3917584793502560  0.1407606767126429 -0.0001513090783059
  0.3898210017651871  0.1385229275657659  0.4988449841769802
  0.3903664089851453  0.6425777824449799  0.0025227487072187
  0.3862784149080171  0.6337491535468752  0.5105340348293427
  0.8910744861469736  0.1402006223282068  0.0000415061712469
  0.8880276061547039  0.1389449505333434  0.4977168790992471
  0.8894853351495202  0.6399142077812563  0.9996730428719443
  0.0018019320028074  0.0006940668045876  0.1253410769811827
  0.0008532527402430  0.0018185648797814  0.6252597701412215
  0.0022816244840338  0.4967799009494754  0.1249582463151403
  0.9930625615252745  0.5087176134674360  0.6265377151705104
  0.5019327712813078  0.9981166690475977  0.1256643199993109
  0.4962473851838214  0.0007270455592690  0.6247297728730726
  0.5023281855963443  0.5016116548196395  0.1252169008346962
  0.9982398625575667  0.0019282864336453  0.3739678792239093
 -0.0003004891506855  0.9986089600198566  0.8760056432515944
  0.9881062034372124  0.5145955257367247  0.3747864343657561
  0.0028337279046305  0.4977171139918791  0.8760713213193305
  0.4991606256019720  0.0015728364165182  0.3751060719277138
  0.5041583771232796  0.9971931660195564  0.8747820880706630
  0.4988791992302163  0.5020050081513519  0.8771191838324786
  0.2549436903763278  0.2558770442749956  0.3755924266922344
  0.2570686806209234  0.2575095731805639  0.8739575460838396
  0.2565049828654771  0.7442401452909265  0.3757206215548645
  0.2520467667403293  0.7477788961579932  0.8752425520854203
  0.7432818873647330  0.2527380055051431  0.3760085319809834
  0.7483304790337596  0.2511540732632782  0.8748412540835162
  0.7620420491966576  0.7355601582538789  0.3779758720796153
  0.7412015980108752  0.7485485472156836  0.8732407574233221
  0.2477274911550587  0.2504319287611085  0.1251461113308026
  0.2473406257729372  0.2375701904263172  0.6261466087054928
  0.2483517097833335  0.7539457439645624  0.1257617337294205
  0.2445400329001788  0.7555696708448680  0.6246262418448298
  0.7510898688346951  0.2492604536844590  0.1255129936508559
  0.7582776383042801  0.2447347780274699  0.6246057135292727
  0.7466051883494043  0.7526345537359793  0.1251772440682845
  0.6404525054959096  0.3867412070746513  0.7436192695573467
  0.6089797686475802  0.6346530113637028  0.7332213986774352
  0.4961615122730570  0.4973747316380919  0.3726880539979500
  0.6076992145287377  0.3612644969988582  0.5112449888947608
  0.3630076873965974  0.3899288024864174  0.5117905102169684
  0.7712027184914234  0.7413958202013540  0.6221702574499084
  0.6403576755305606  0.6068416865990325  0.5084007444174986
 
  0.00000000E+00  0.00000000E+00  0.00000000E+00
  0.00000000E+00  0.00000000E+00  0.00000000E+00
  0.00000000E+00  0.00000000E+00  0.00000000E+00
  0.00000000E+00  0.00000000E+00  0.00000000E+00
  0.00000000E+00  0.00000000E+00  0.00000000E+00
  0.00000000E+00  0.00000000E+00  0.00000000E+00
  0.00000000E+00  0.00000000E+00  0.00000000E+00
  0.00000000E+00  0.00000000E+00  0.00000000E+00
  0.00000000E+00  0.00000000E+00  0.00000000E+00
  0.00000000E+00  0.00000000E+00  0.00000000E+00
  0.00000000E+00  0.00000000E+00  0.00000000E+00
  0.00000000E+00  0.00000000E+00  0.00000000E+00
  0.00000000E+00  0.00000000E+00  0.00000000E+00
  0.00000000E+00  0.00000000E+00  0.00000000E+00
  0.00000000E+00  0.00000000E+00  0.00000000E+00
  0.00000000E+00  0.00000000E+00  0.00000000E+00
  0.00000000E+00  0.00000000E+00  0.00000000E+00
  0.00000000E+00  0.00000000E+00  0.00000000E+00
  0.00000000E+00  0.00000000E+00  0.00000000E+00
  0.00000000E+00  0.00000000E+00  0.00000000E+00
  0.00000000E+00  0.00000000E+00  0.00000000E+00
  0.00000000E+00  0.00000000E+00  0.00000000E+00
  0.00000000E+00  0.00000000E+00  0.00000000E+00
  0.00000000E+00  0.00000000E+00  0.00000000E+00
  0.00000000E+00  0.00000000E+00  0.00000000E+00
  0.00000000E+00  0.00000000E+00  0.00000000E+00
  0.00000000E+00  0.00000000E+00  0.00000000E+00
  0.00000000E+00  0.00000000E+00  0.00000000E+00
  0.00000000E+00  0.00000000E+00  0.00000000E+00
  0.00000000E+00  0.00000000E+00  0.00000000E+00
  0.00000000E+00  0.00000000E+00  0.00000000E+00
  0.00000000E+00  0.00000000E+00  0.00000000E+00
  0.00000000E+00  0.00000000E+00  0.00000000E+00
  0.00000000E+00  0.00000000E+00  0.00000000E+00
  0.00000000E+00  0.00000000E+00  0.00000000E+00
  0.00000000E+00  0.00000000E+00  0.00000000E+00
  0.00000000E+00  0.00000000E+00  0.00000000E+00
  0.00000000E+00  0.00000000E+00  0.00000000E+00
  0.00000000E+00  0.00000000E+00  0.00000000E+00
  0.00000000E+00  0.00000000E+00  0.00000000E+00
  0.00000000E+00  0.00000000E+00  0.00000000E+00
  0.00000000E+00  0.00000000E+00  0.00000000E+00
  0.00000000E+00  0.00000000E+00  0.00000000E+00
  0.00000000E+00  0.00000000E+00  0.00000000E+00
  0.00000000E+00  0.00000000E+00  0.00000000E+00
  0.00000000E+00  0.00000000E+00  0.00000000E+00
  0.00000000E+00  0.00000000E+00  0.00000000E+00
  0.00000000E+00  0.00000000E+00  0.00000000E+00
  0.00000000E+00  0.00000000E+00  0.00000000E+00
  0.00000000E+00  0.00000000E+00  0.00000000E+00
  0.00000000E+00  0.00000000E+00  0.00000000E+00
  0.00000000E+00  0.00000000E+00  0.00000000E+00
  0.00000000E+00  0.00000000E+00  0.00000000E+00
  0.00000000E+00  0.00000000E+00  0.00000000E+00
  0.00000000E+00  0.00000000E+00  0.00000000E+00
  0.00000000E+00  0.00000000E+00  0.00000000E+00
  0.00000000E+00  0.00000000E+00  0.00000000E+00
  0.00000000E+00  0.00000000E+00  0.00000000E+00
  0.00000000E+00  0.00000000E+00  0.00000000E+00
  0.00000000E+00  0.00000000E+00  0.00000000E+00
  0.00000000E+00  0.00000000E+00  0.00000000E+00
  0.00000000E+00  0.00000000E+00  0.00000000E+00
  0.00000000E+00  0.00000000E+00  0.00000000E+00
  0.00000000E+00  0.00000000E+00  0.00000000E+00
  0.00000000E+00  0.00000000E+00  0.00000000E+00
  0.00000000E+00  0.00000000E+00  0.00000000E+00
  0.00000000E+00  0.00000000E+00  0.00000000E+00
  0.00000000E+00  0.00000000E+00  0.00000000E+00
  0.00000000E+00  0.00000000E+00  0.00000000E+00
  0.00000000E+00  0.00000000E+00  0.00000000E+00
  0.00000000E+00  0.00000000E+00  0.00000000E+00
  0.00000000E+00  0.00000000E+00  0.00000000E+00
  0.00000000E+00  0.00000000E+00  0.00000000E+00
  0.00000000E+00  0.00000000E+00  0.00000000E+00
  0.00000000E+00  0.00000000E+00  0.00000000E+00
  0.00000000E+00  0.00000000E+00  0.00000000E+00
  0.00000000E+00  0.00000000E+00  0.00000000E+00
  0.00000000E+00  0.00000000E+00  0.00000000E+00
  0.00000000E+00  0.00000000E+00  0.00000000E+00
  0.00000000E+00  0.00000000E+00  0.00000000E+00
  0.00000000E+00  0.00000000E+00  0.00000000E+00
  0.00000000E+00  0.00000000E+00  0.00000000E+00
  0.00000000E+00  0.00000000E+00  0.00000000E+00
  0.00000000E+00  0.00000000E+00  0.00000000E+00
  0.00000000E+00  0.00000000E+00  0.00000000E+00
  0.00000000E+00  0.00000000E+00  0.00000000E+00
  0.00000000E+00  0.00000000E+00  0.00000000E+00
  0.00000000E+00  0.00000000E+00  0.00000000E+00
  0.00000000E+00  0.00000000E+00  0.00000000E+00
  0.00000000E+00  0.00000000E+00  0.00000000E+00
  0.00000000E+00  0.00000000E+00  0.00000000E+00
  0.00000000E+00  0.00000000E+00  0.00000000E+00
  0.00000000E+00  0.00000000E+00  0.00000000E+00
  0.00000000E+00  0.00000000E+00  0.00000000E+00
  0.00000000E+00  0.00000000E+00  0.00000000E+00
  0.00000000E+00  0.00000000E+00  0.00000000E+00
  0.00000000E+00  0.00000000E+00  0.00000000E+00
  0.00000000E+00  0.00000000E+00  0.00000000E+00
  0.00000000E+00  0.00000000E+00  0.00000000E+00
  0.00000000E+00  0.00000000E+00  0.00000000E+00
  0.00000000E+00  0.00000000E+00  0.00000000E+00
  0.00000000E+00  0.00000000E+00  0.00000000E+00
  0.00000000E+00  0.00000000E+00  0.00000000E+00
  0.00000000E+00  0.00000000E+00  0.00000000E+00
  0.00000000E+00  0.00000000E+00  0.00000000E+00
  0.00000000E+00  0.00000000E+00  0.00000000E+00
  0.00000000E+00  0.00000000E+00  0.00000000E+00
  0.00000000E+00  0.00000000E+00  0.00000000E+00
  0.00000000E+00  0.00000000E+00  0.00000000E+00
  0.00000000E+00  0.00000000E+00  0.00000000E+00
  0.00000000E+00  0.00000000E+00  0.00000000E+00
  0.00000000E+00  0.00000000E+00  0.00000000E+00
  0.00000000E+00  0.00000000E+00  0.00000000E+00
  0.00000000E+00  0.00000000E+00  0.00000000E+00
  0.00000000E+00  0.00000000E+00  0.00000000E+00
  0.00000000E+00  0.00000000E+00  0.00000000E+00
  0.00000000E+00  0.00000000E+00  0.00000000E+00
  0.00000000E+00  0.00000000E+00  0.00000000E+00
  0.00000000E+00  0.00000000E+00  0.00000000E+00
  0.00000000E+00  0.00000000E+00  0.00000000E+00
  0.00000000E+00  0.00000000E+00  0.00000000E+00
  0.00000000E+00  0.00000000E+00  0.00000000E+00
  0.00000000E+00  0.00000000E+00  0.00000000E+00
  0.00000000E+00  0.00000000E+00  0.00000000E+00
  0.00000000E+00  0.00000000E+00  0.00000000E+00
  0.00000000E+00  0.00000000E+00  0.00000000E+00
  0.00000000E+00  0.00000000E+00  0.00000000E+00
  0.00000000E+00  0.00000000E+00  0.00000000E+00
  0.00000000E+00  0.00000000E+00  0.00000000E+00
  0.00000000E+00  0.00000000E+00  0.00000000E+00
  0.00000000E+00  0.00000000E+00  0.00000000E+00
  0.00000000E+00  0.00000000E+00  0.00000000E+00
  0.00000000E+00  0.00000000E+00  0.00000000E+00
  0.00000000E+00  0.00000000E+00  0.00000000E+00
  0.00000000E+00  0.00000000E+00  0.00000000E+00
  0.00000000E+00  0.00000000E+00  0.00000000E+00
  0.00000000E+00  0.00000000E+00  0.00000000E+00
  0.00000000E+00  0.00000000E+00  0.00000000E+00
  0.00000000E+00  0.00000000E+00  0.00000000E+00
  0.00000000E+00  0.00000000E+00  0.00000000E+00
  0.00000000E+00  0.00000000E+00  0.00000000E+00
  0.00000000E+00  0.00000000E+00  0.00000000E+00
  0.00000000E+00  0.00000000E+00  0.00000000E+00
  0.00000000E+00  0.00000000E+00  0.00000000E+00
  0.00000000E+00  0.00000000E+00  0.00000000E+00
  0.00000000E+00  0.00000000E+00  0.00000000E+00
  0.00000000E+00  0.00000000E+00  0.00000000E+00
  0.00000000E+00  0.00000000E+00  0.00000000E+00
  0.00000000E+00  0.00000000E+00  0.00000000E+00
  0.00000000E+00  0.00000000E+00  0.00000000E+00
  0.00000000E+00  0.00000000E+00  0.00000000E+00
  0.00000000E+00  0.00000000E+00  0.00000000E+00
  0.00000000E+00  0.00000000E+00  0.00000000E+00
  0.00000000E+00  0.00000000E+00  0.00000000E+00
  0.00000000E+00  0.00000000E+00  0.00000000E+00
  0.00000000E+00  0.00000000E+00  0.00000000E+00
  0.00000000E+00  0.00000000E+00  0.00000000E+00
  0.00000000E+00  0.00000000E+00  0.00000000E+00
