Sr   Ti   Fe   O                        
   1.00000000000000     
    11.1989999999999998    0.0000000000000000    0.0000000000000000
     0.0000000000000000   11.1989999999999998    0.0000000000000000
     0.0000000000000000    0.0000000000000000   15.9830000000000005
   Sr   Ti   Fe   O 
    32    30     2    94
Direct
  0.0006915930863975  0.2506596197780053  0.1241343558364787
  0.0024680511114058  0.2439189325582248  0.6276412226950583
  0.9983656331801763  0.7508866636304035  0.1241985206508773
  0.0056376770117179  0.7591017290550668  0.6267162003290039
  0.5008560387444978  0.2521914113234023  0.1239165408909878
  0.5041862325782771  0.2443046602023502  0.6202399688198168
  0.5015614502669281  0.7490442054912498  0.1238946020293732
  0.4950616002392763  0.7537054678266604  0.6259299837045170
  0.0025021418674454  0.2453798602351158  0.3722258394075151
  0.0007506737262568  0.2515071685193173  0.8755701281996315
  0.0045231037527767  0.7554625088949275  0.3731422943485295
  0.9995515196142986  0.7503132509029017  0.8748197067463166
  0.5017818138652245  0.2477418001634923  0.3723103675733345
  0.5015343018890440  0.2535124082304336  0.8711726430791485
  0.4955264668085055  0.7473342735000660  0.3723866617035526
  0.5024679521339608  0.7510908907462607  0.8752772696900913
  0.2512248839393441  0.0015307843696454  0.1236695029857432
  0.2508917550454750  0.0002798628274228  0.6227162499563776
  0.2510761234430496  0.5007947611200936  0.1252320039045596
  0.2465873978408562  0.5060150851013154  0.6235706182474229
  0.7492265242629409  0.9978042394635828  0.1248758157085886
  0.7569276900880816  0.0012513766198947  0.6249401914130694
  0.7484263304160015  0.5010298717951408  0.1221041255899494
  0.7589044077090602  0.4960047169821717  0.6329882129685559
  0.2508326759711934  0.9996804384002232  0.3747726947992440
  0.2530335956129476  0.0024436541136138  0.8732030455915472
  0.2568274366801889  0.5013275802076379  0.3773578104573314
  0.2534253324233809  0.5028090670387861  0.8732488947515703
  0.7552777689805281  0.0020351096008395  0.3733115446784666
  0.7517789369190625  0.9989460945421329  0.8744558761215242
  0.7498814591550753  0.4919702251864571  0.3652587890348886
  0.7486180628469417  0.5011967637052768  0.8747804482949428
  0.0011194668564038  0.0006870880751839  0.9994920945993477
  0.0021515059162607  0.0036266662526392  0.4985532669698389
  0.0014667736404529  0.4998178839815269  0.9997525861771662
  0.0044234368231037  0.4889110412000636  0.4987195820592215
  0.5011368287001502  0.0006544352377267  0.9993148787381678
  0.5037304782288363  0.9936607690701067  0.4986486327974998
  0.4995910775519324  0.5004852402723460  0.9975897554085584
  0.2518783507974941  0.2524162557024866  0.9986424959475313
  0.2575735913509413  0.2458261851005169  0.4999149905015521
  0.2508612299233569  0.7506485914072961  0.9994702230789975
  0.2488367529851475  0.7528848673390308  0.4988486329012674
  0.7506022334774125  0.2501781178254477  0.9991419361570252
  0.7475278145324724  0.2503568993552238  0.4988457459597785
  0.7507293060445754  0.7512876446841673  0.9994584049475195
  0.2511803617533792  0.2512615440125844  0.2499622031966997
  0.2532085971731313  0.2528855986917292  0.7465119885058240
  0.2495213179943860  0.7503239550956803  0.2488443330652438
  0.2513368061416632  0.7520497112519333  0.7495209690351436
  0.7510331349470930  0.2486155170591300  0.2476811365057542
  0.7517339229649329  0.2498694405557265  0.7494214791695309
  0.7504512051709729  0.7474486287725194  0.2527429118730775
  0.7532600579283082  0.7505303439459697  0.7471828416842600
  0.0014156406513587  0.0005374383586390  0.2488265237444836
  0.0028704983773051  0.0021284382562722  0.7515496719314090
  0.0002272791852814  0.5012275708882304  0.2493649867636687
  0.0019660900655518  0.5016087455460271  0.7505645343892912
  0.5005368246125127  0.9991271384679054  0.2498727431735647
  0.5025524746011419  0.0010351740592078  0.7487379620752068
  0.5006684419078189  0.5007078664356243  0.2500221363409223
  0.5057307113752566  0.5054671717729304  0.7407222465999829
  0.4957330254810324  0.4938786181809198  0.5000578077445309
  0.7495354582566642  0.7664348685980242  0.4999244945039672
  0.1111785055049447  0.1424260405446055  0.2496543407087444
  0.1136330537240268  0.1414189982921705  0.7569066143342734
  0.1079415644539987  0.6421837736001303  0.2482905842594105
  0.1128786622885794  0.6404528055759904  0.7493959547147238
  0.6115096172021998  0.1385401942982155  0.2477668547757426
  0.6142147834978227  0.1392637271786923  0.7489441094687810
  0.6101256818294528  0.6404975800834483  0.2470783436152806
  0.3909472040376306  0.3613539297136095  0.2483090554270153
  0.3913876571784141  0.3694853707804630  0.7286914970151883
  0.3907029438376491  0.8595352032514326  0.2494106685403241
  0.3894475766712595  0.8645314629046754  0.7501218944426284
  0.8905573012424118  0.3602334018738886  0.2509051812001318
  0.8914548157192471  0.3619580209343827  0.7478835886600045
  0.8898205399004268  0.8596631678196557  0.2520551234471166
  0.8923713952718445  0.8628191548047025  0.7493961961005366
  0.3609000037492617  0.1106479610461053  0.2493024863307771
  0.3660514152597811  0.1163386000710535  0.7506211629212012
  0.3586175415566502  0.6099547418058183  0.2504618090112396
  0.3654845329294236  0.6152985531458525  0.7401197981705983
  0.8608169120432183  0.1095357015320325  0.2457389182132119
  0.8635303281772866  0.1122613436162230  0.7502271528508673
  0.8592284517081276  0.6081054060701733  0.2434628379937690
  0.8637935861098498  0.6110732750415282  0.7563497579921883
  0.1400606083840265  0.3926489145682429  0.2546055401069690
  0.1408501602320822  0.3920831265177624  0.7443701610824378
  0.1404662145098802  0.8915104344710392  0.2482883598412388
  0.1409834069560036  0.8911873371453314  0.7512685869267016
  0.6400378576040643  0.3878963457377999  0.2469349302294755
  0.6413703787125667  0.8879793059598808  0.2552865863292874
  0.6423999832228234  0.8896375769330765  0.7438865359575377
  0.3592880561531552  0.3930652473323031  0.0023724823708082
  0.3597450796197987  0.8922530247887885  0.9984258642671889
  0.3578932609824393  0.8911092941649501  0.4988526084549227
  0.8603387554608807  0.3912942223037741  0.9987446601271514
  0.8492533233424917  0.4093583577524850  0.4987284465996467
  0.8612265189827391  0.8917121342152710  0.0018985772983413
  0.8719379748712289  0.8894438078751050  0.4972872346891103
  0.1432716603410599  0.1114745978353211  0.9955318273756697
  0.1407365863651642  0.1131774861029948  0.4940209773236400
  0.1415941207610263  0.6097224594797673  0.9994374692398968
  0.1114229783814250  0.6271514751206470  0.4986360692722215
  0.6422388876553342  0.1094798364591360  0.9997390778099714
  0.6474864317663344  0.0998518960698926  0.4999818794456514
  0.6406862066314153  0.6105963042938507  0.9962507265117038
  0.1101727795406047  0.3586744806303171  0.9989292071141580
  0.1071216382328075  0.3613319086974883  0.4982156244176941
  0.1107887321305469  0.8596147938391564  0.9984784633120026
  0.1141117946070029  0.8701804683132067  0.4974623257072330
  0.6097926291318051  0.3599741932432318  0.9982909115466797
  0.6096903394324756  0.8601207553058285  0.0000539515161696
  0.5943978843606259  0.8461888123723255  0.4994455126823667
  0.3924055058031992  0.1420915127894042  0.9987387858819298
  0.3930043889507654  0.1380335710525591  0.4987549784416281
  0.3917815858701602  0.6420685380279151  0.9990128316997071
  0.3715075334884633  0.6372966978439221  0.4976579272942746
  0.8920628374460188  0.1416325303566782  0.9993221405587233
  0.8949947625173753  0.1464304018749135  0.4992769032477706
  0.8912658687504901  0.6400066963070798  0.9998324013312618
  0.0041797900840006  0.0012866767659751  0.1238491733721673
  0.0047077523652001  0.0055986291987211  0.6259521623107841
  0.0035721068167200  0.4967122882176290  0.1244519793619640
  0.9929196439857625  0.5106336547499836  0.6219245357898180
  0.5015162178941758  0.9982100075210677  0.1247759136664138
  0.4992358316587891  0.0018398950382744  0.6241245793123988
  0.5016268733901199  0.5023090286020189  0.1231596026221446
  0.9999191844021081  0.0052135704404506  0.3717998287080026
  0.9988994371253205  0.9992330345240640  0.8756125979712326
  0.9883861433593267  0.5113635406058925  0.3763426441676517
  0.0052605910205451  0.4975653518887136  0.8743391888952546
  0.5001959714002329  0.0016465032496048  0.3742011180376309
  0.5043895918341063  0.9991239023570407  0.8738367475927216
  0.4941063601671118  0.4962642251343035  0.8710708276265517
  0.2561861557790367  0.2552955269625206  0.3746210988235171
  0.2612310639487375  0.2631105404051443  0.8719548982189451
  0.2456272973742062  0.7525393946136157  0.3726026414628689
  0.2539111684238535  0.7469510973551458  0.8734556628951530
  0.7535537844282393  0.2461532837744212  0.3728270459849352
  0.7511405031259902  0.2518238292936817  0.8738945149304049
  0.7548672682834160  0.7267410165983172  0.3794117624658805
  0.7536516553752942  0.7578923415219606  0.8754169027378986
  0.2491290528137729  0.2514777708211726  0.1244994337107524
  0.2390301112064522  0.2359668602886602  0.6245012831013594
  0.2509021173798689  0.7505817418216444  0.1238558529977501
  0.2444018474053570  0.7557586885691681  0.6244362641214821
  0.7514488456989479  0.2515631850373403  0.1233003440717646
  0.7540058266132964  0.2484730422192238  0.6241798143396454
  0.7490324253435051  0.7524330564761101  0.1249365189882268
  0.6406663193647744  0.3896549364929358  0.7477048595254008
  0.6157236861421918  0.6426708689870966  0.7574607016250611
  0.5075187341664370  0.5053072984997712  0.3729355619940026
  0.6099556559533008  0.3466461504047962  0.4963342671382497
  0.3519092216573248  0.3847710548034053  0.5115871957965131
  0.7650999828832418  0.7370715843259517  0.6222713881182701
  0.5417635137670350  0.5350142854720621  0.6171609521849858
 
  0.00000000E+00  0.00000000E+00  0.00000000E+00
  0.00000000E+00  0.00000000E+00  0.00000000E+00
  0.00000000E+00  0.00000000E+00  0.00000000E+00
  0.00000000E+00  0.00000000E+00  0.00000000E+00
  0.00000000E+00  0.00000000E+00  0.00000000E+00
  0.00000000E+00  0.00000000E+00  0.00000000E+00
  0.00000000E+00  0.00000000E+00  0.00000000E+00
  0.00000000E+00  0.00000000E+00  0.00000000E+00
  0.00000000E+00  0.00000000E+00  0.00000000E+00
  0.00000000E+00  0.00000000E+00  0.00000000E+00
  0.00000000E+00  0.00000000E+00  0.00000000E+00
  0.00000000E+00  0.00000000E+00  0.00000000E+00
  0.00000000E+00  0.00000000E+00  0.00000000E+00
  0.00000000E+00  0.00000000E+00  0.00000000E+00
  0.00000000E+00  0.00000000E+00  0.00000000E+00
  0.00000000E+00  0.00000000E+00  0.00000000E+00
  0.00000000E+00  0.00000000E+00  0.00000000E+00
  0.00000000E+00  0.00000000E+00  0.00000000E+00
  0.00000000E+00  0.00000000E+00  0.00000000E+00
  0.00000000E+00  0.00000000E+00  0.00000000E+00
  0.00000000E+00  0.00000000E+00  0.00000000E+00
  0.00000000E+00  0.00000000E+00  0.00000000E+00
  0.00000000E+00  0.00000000E+00  0.00000000E+00
  0.00000000E+00  0.00000000E+00  0.00000000E+00
  0.00000000E+00  0.00000000E+00  0.00000000E+00
  0.00000000E+00  0.00000000E+00  0.00000000E+00
  0.00000000E+00  0.00000000E+00  0.00000000E+00
  0.00000000E+00  0.00000000E+00  0.00000000E+00
  0.00000000E+00  0.00000000E+00  0.00000000E+00
  0.00000000E+00  0.00000000E+00  0.00000000E+00
  0.00000000E+00  0.00000000E+00  0.00000000E+00
  0.00000000E+00  0.00000000E+00  0.00000000E+00
  0.00000000E+00  0.00000000E+00  0.00000000E+00
  0.00000000E+00  0.00000000E+00  0.00000000E+00
  0.00000000E+00  0.00000000E+00  0.00000000E+00
  0.00000000E+00  0.00000000E+00  0.00000000E+00
  0.00000000E+00  0.00000000E+00  0.00000000E+00
  0.00000000E+00  0.00000000E+00  0.00000000E+00
  0.00000000E+00  0.00000000E+00  0.00000000E+00
  0.00000000E+00  0.00000000E+00  0.00000000E+00
  0.00000000E+00  0.00000000E+00  0.00000000E+00
  0.00000000E+00  0.00000000E+00  0.00000000E+00
  0.00000000E+00  0.00000000E+00  0.00000000E+00
  0.00000000E+00  0.00000000E+00  0.00000000E+00
  0.00000000E+00  0.00000000E+00  0.00000000E+00
  0.00000000E+00  0.00000000E+00  0.00000000E+00
  0.00000000E+00  0.00000000E+00  0.00000000E+00
  0.00000000E+00  0.00000000E+00  0.00000000E+00
  0.00000000E+00  0.00000000E+00  0.00000000E+00
  0.00000000E+00  0.00000000E+00  0.00000000E+00
  0.00000000E+00  0.00000000E+00  0.00000000E+00
  0.00000000E+00  0.00000000E+00  0.00000000E+00
  0.00000000E+00  0.00000000E+00  0.00000000E+00
  0.00000000E+00  0.00000000E+00  0.00000000E+00
  0.00000000E+00  0.00000000E+00  0.00000000E+00
  0.00000000E+00  0.00000000E+00  0.00000000E+00
  0.00000000E+00  0.00000000E+00  0.00000000E+00
  0.00000000E+00  0.00000000E+00  0.00000000E+00
  0.00000000E+00  0.00000000E+00  0.00000000E+00
  0.00000000E+00  0.00000000E+00  0.00000000E+00
  0.00000000E+00  0.00000000E+00  0.00000000E+00
  0.00000000E+00  0.00000000E+00  0.00000000E+00
  0.00000000E+00  0.00000000E+00  0.00000000E+00
  0.00000000E+00  0.00000000E+00  0.00000000E+00
  0.00000000E+00  0.00000000E+00  0.00000000E+00
  0.00000000E+00  0.00000000E+00  0.00000000E+00
  0.00000000E+00  0.00000000E+00  0.00000000E+00
  0.00000000E+00  0.00000000E+00  0.00000000E+00
  0.00000000E+00  0.00000000E+00  0.00000000E+00
  0.00000000E+00  0.00000000E+00  0.00000000E+00
  0.00000000E+00  0.00000000E+00  0.00000000E+00
  0.00000000E+00  0.00000000E+00  0.00000000E+00
  0.00000000E+00  0.00000000E+00  0.00000000E+00
  0.00000000E+00  0.00000000E+00  0.00000000E+00
  0.00000000E+00  0.00000000E+00  0.00000000E+00
  0.00000000E+00  0.00000000E+00  0.00000000E+00
  0.00000000E+00  0.00000000E+00  0.00000000E+00
  0.00000000E+00  0.00000000E+00  0.00000000E+00
  0.00000000E+00  0.00000000E+00  0.00000000E+00
  0.00000000E+00  0.00000000E+00  0.00000000E+00
  0.00000000E+00  0.00000000E+00  0.00000000E+00
  0.00000000E+00  0.00000000E+00  0.00000000E+00
  0.00000000E+00  0.00000000E+00  0.00000000E+00
  0.00000000E+00  0.00000000E+00  0.00000000E+00
  0.00000000E+00  0.00000000E+00  0.00000000E+00
  0.00000000E+00  0.00000000E+00  0.00000000E+00
  0.00000000E+00  0.00000000E+00  0.00000000E+00
  0.00000000E+00  0.00000000E+00  0.00000000E+00
  0.00000000E+00  0.00000000E+00  0.00000000E+00
  0.00000000E+00  0.00000000E+00  0.00000000E+00
  0.00000000E+00  0.00000000E+00  0.00000000E+00
  0.00000000E+00  0.00000000E+00  0.00000000E+00
  0.00000000E+00  0.00000000E+00  0.00000000E+00
  0.00000000E+00  0.00000000E+00  0.00000000E+00
  0.00000000E+00  0.00000000E+00  0.00000000E+00
  0.00000000E+00  0.00000000E+00  0.00000000E+00
  0.00000000E+00  0.00000000E+00  0.00000000E+00
  0.00000000E+00  0.00000000E+00  0.00000000E+00
  0.00000000E+00  0.00000000E+00  0.00000000E+00
  0.00000000E+00  0.00000000E+00  0.00000000E+00
  0.00000000E+00  0.00000000E+00  0.00000000E+00
  0.00000000E+00  0.00000000E+00  0.00000000E+00
  0.00000000E+00  0.00000000E+00  0.00000000E+00
  0.00000000E+00  0.00000000E+00  0.00000000E+00
  0.00000000E+00  0.00000000E+00  0.00000000E+00
  0.00000000E+00  0.00000000E+00  0.00000000E+00
  0.00000000E+00  0.00000000E+00  0.00000000E+00
  0.00000000E+00  0.00000000E+00  0.00000000E+00
  0.00000000E+00  0.00000000E+00  0.00000000E+00
  0.00000000E+00  0.00000000E+00  0.00000000E+00
  0.00000000E+00  0.00000000E+00  0.00000000E+00
  0.00000000E+00  0.00000000E+00  0.00000000E+00
  0.00000000E+00  0.00000000E+00  0.00000000E+00
  0.00000000E+00  0.00000000E+00  0.00000000E+00
  0.00000000E+00  0.00000000E+00  0.00000000E+00
  0.00000000E+00  0.00000000E+00  0.00000000E+00
  0.00000000E+00  0.00000000E+00  0.00000000E+00
  0.00000000E+00  0.00000000E+00  0.00000000E+00
  0.00000000E+00  0.00000000E+00  0.00000000E+00
  0.00000000E+00  0.00000000E+00  0.00000000E+00
  0.00000000E+00  0.00000000E+00  0.00000000E+00
  0.00000000E+00  0.00000000E+00  0.00000000E+00
  0.00000000E+00  0.00000000E+00  0.00000000E+00
  0.00000000E+00  0.00000000E+00  0.00000000E+00
  0.00000000E+00  0.00000000E+00  0.00000000E+00
  0.00000000E+00  0.00000000E+00  0.00000000E+00
  0.00000000E+00  0.00000000E+00  0.00000000E+00
  0.00000000E+00  0.00000000E+00  0.00000000E+00
  0.00000000E+00  0.00000000E+00  0.00000000E+00
  0.00000000E+00  0.00000000E+00  0.00000000E+00
  0.00000000E+00  0.00000000E+00  0.00000000E+00
  0.00000000E+00  0.00000000E+00  0.00000000E+00
  0.00000000E+00  0.00000000E+00  0.00000000E+00
  0.00000000E+00  0.00000000E+00  0.00000000E+00
  0.00000000E+00  0.00000000E+00  0.00000000E+00
  0.00000000E+00  0.00000000E+00  0.00000000E+00
  0.00000000E+00  0.00000000E+00  0.00000000E+00
  0.00000000E+00  0.00000000E+00  0.00000000E+00
  0.00000000E+00  0.00000000E+00  0.00000000E+00
  0.00000000E+00  0.00000000E+00  0.00000000E+00
  0.00000000E+00  0.00000000E+00  0.00000000E+00
  0.00000000E+00  0.00000000E+00  0.00000000E+00
  0.00000000E+00  0.00000000E+00  0.00000000E+00
  0.00000000E+00  0.00000000E+00  0.00000000E+00
  0.00000000E+00  0.00000000E+00  0.00000000E+00
  0.00000000E+00  0.00000000E+00  0.00000000E+00
  0.00000000E+00  0.00000000E+00  0.00000000E+00
  0.00000000E+00  0.00000000E+00  0.00000000E+00
  0.00000000E+00  0.00000000E+00  0.00000000E+00
  0.00000000E+00  0.00000000E+00  0.00000000E+00
  0.00000000E+00  0.00000000E+00  0.00000000E+00
  0.00000000E+00  0.00000000E+00  0.00000000E+00
  0.00000000E+00  0.00000000E+00  0.00000000E+00
  0.00000000E+00  0.00000000E+00  0.00000000E+00
  0.00000000E+00  0.00000000E+00  0.00000000E+00
  0.00000000E+00  0.00000000E+00  0.00000000E+00
  0.00000000E+00  0.00000000E+00  0.00000000E+00
  0.00000000E+00  0.00000000E+00  0.00000000E+00
