SrTiFeO                                 
   1.00000000000000     
    11.1989999999999998    0.0000000000000000    0.0000000000000000
     0.0000000000000000   11.1989999999999998    0.0000000000000000
     0.0000000000000000    0.0000000000000000   15.9830000000000005
   Sr   Ti   Fe   O 
    32    31     1    94
Direct
  0.0000473679334389  0.2494659474592315  0.1251541933323894
  0.0002131414408793  0.2482257613560670  0.6229120573309638
  0.0000847811624764  0.7503287196713504  0.1255970390356410
  0.0019004348901640  0.7519567311008912  0.6221344888912789
  0.5005872258895696  0.2512204154387609  0.1253207476687087
  0.5002557354607940  0.2401662927074834  0.6228022041364969
  0.5000655914740728  0.7492530260747532  0.1258459946636515
  0.4967021551107970  0.7605778228252590  0.6216246615427827
  0.9999737622731999  0.2495887031591791  0.3758009044660006
  0.9999778077254570  0.2505766183780432  0.8757339207334995
  0.9995319638756816  0.7496960260931751  0.3755753170068308
  0.0035483058532506  0.7501102735080495  0.8761481637482162
  0.5004637728267920  0.2539608768360880  0.3760627096772433
  0.4988673309713220  0.2471655099558580  0.8762748490688718
  0.4998173197276136  0.7448181301393998  0.3762720200620894
  0.4974108790773867  0.7555006509653368  0.8789863985042623
  0.2496118708553318  0.0003985289259773  0.1252801520385790
  0.2479017923820434  0.0005621198319057  0.6233554893058010
  0.2511687638489574  0.4992514391045881  0.1250285097610840
  0.2407794662018939  0.5011952612875257  0.6231700598846925
  0.7504015287120941  0.9995123820887928  0.1250959820474144
  0.7505617167586810  0.0011523645878272  0.6233147212761228
  0.7500382600207796  0.5000439106600636  0.1264563792688873
  0.7601352527583620  0.4990405013113332  0.6200987309649175
  0.2495629189073260  0.0000918264628376  0.3756598007696943
  0.2495665927314419  0.0015646211968436  0.8753258002954797
  0.2544299756223067  0.4992573821393784  0.3763109400907449
  0.2471286124436040  0.5006917282879140  0.8761140959261210
  0.7506831454904840  0.9989299689316730  0.3761769527183997
  0.7488300121373098  0.0018734291492059  0.8759508558315745
  0.7456232491939400  0.5003551481122378  0.3756899702918134
  0.7521011825595723  0.4992505479093216  0.8782794279989301
  0.9997617065908955  0.0000603793836349  0.9995005006187067
  0.9997492065180904  0.9997877019147886  0.4994062644318447
  0.0000483457335073  0.5002918715147416  0.0005178346018114
  0.0001693690859626  0.4999347875063815  0.4983393351670236
  0.4999661859395423  0.0005313913732904  0.0008422802716124
  0.4999400255187269  0.9999934132778787  0.4983046777164413
  0.5006836477471877  0.5010971774891974  0.0007576455832806
  0.2502858696969358  0.2507823269240345  0.9997879547038645
  0.2512637417743829  0.2516957877098787  0.5008648072693311
  0.2504395115238104  0.7498197264442436  0.0004308348081297
  0.2515399511546106  0.7486401144799735  0.5001502527553386
  0.7494592830378121  0.2505944648599865  0.0001585262030137
  0.7481581078001266  0.2510194279985124  0.5002659714947744
  0.7496478250835776  0.7492247464027701  0.0004766069941486
  0.2507472538359568  0.2505311653290796  0.2500751741364599
  0.2494858563913231  0.2503664097780211  0.7488874470491317
  0.2504690542211766  0.7495775329872441  0.2500717360012756
  0.2497183041755807  0.7518791459016237  0.7485623270326146
  0.7495404915004822  0.2500659966020981  0.2500732691334387
  0.7510294725603620  0.2502167829853988  0.7487018895044614
  0.7500180005862884  0.7500056472896024  0.2501047498345946
  0.7575320730266096  0.7545570180008976  0.7502793887459843
  0.9997541431365169  0.9997547231319656  0.2506881212626266
  0.0016009964584106  0.0031628529953499  0.7509097383677207
  0.0002570223255007  0.4999400429537711  0.2501454326712909
  0.9992122847289588  0.4994593187348667  0.7501153679798657
  0.4999160303034044  0.9999695353820751  0.2502663032299391
  0.4987992390456331  0.0002640875441505  0.7502509141033246
  0.4999026563514353  0.4997446158338720  0.2499956389411150
  0.4984264172632082  0.4961763177586415  0.7533409363317380
  0.7473787911848875  0.7469811741744616  0.5008167985316667
  0.4993404281003062  0.4990423587226864  0.5046280395250295
  0.1088868275760524  0.1411189774228750  0.2510380908745468
  0.1075488229296626  0.1414397869778555  0.7531280023523946
  0.1086168621491756  0.6417236051603826  0.2499873664522328
  0.1112600091819059  0.6390976082905565  0.7496546209292885
  0.6082314484350853  0.1412282755882646  0.2499395715857281
  0.6096046815004417  0.1402645733874074  0.7502229406850062
  0.6102418655506280  0.6417640708995058  0.2466328201737968
  0.3904741216369352  0.3576672590383757  0.2474087021065870
  0.3901552907914239  0.3572618986805775  0.7414198824556649
  0.3914439313744919  0.8587634741675046  0.2501352497572578
  0.3892586814095393  0.8612643432209046  0.7506321191680784
  0.8914166864578151  0.3585069014935397  0.2498166262496929
  0.8928065619783108  0.3570214939243894  0.7500728931040049
  0.8913479991631904  0.8587372907843567  0.2512159247608087
  0.8939300916599329  0.8574243670126009  0.7519742617464135
  0.3581616447096622  0.1084475411485283  0.2500107580538092
  0.3590728969767733  0.1087009811974325  0.7499627719415984
  0.3580075585807343  0.6097185733687970  0.2467090313385808
  0.3719989490889932  0.6150512245653632  0.7350330619334117
  0.8583863986336190  0.1089333122733066  0.2505746806341644
  0.8575831240327290  0.1068385306615618  0.7527451868994308
  0.8589440115753552  0.6086532835134967  0.2503481328031710
  0.8545525601891033  0.6057357258023717  0.7506125054312933
  0.1412388978286951  0.3916125820936140  0.2502014106629168
  0.1413192248589958  0.3915573977352690  0.7506074263327379
  0.1412007759600239  0.8912263948712309  0.2508681817510410
  0.1410776230878696  0.8912152249578932  0.7533923635211889
  0.6419380787503648  0.3901400693305899  0.2471190326848326
  0.6413731876622175  0.8914939761098765  0.2500653071360714
  0.6359815332789497  0.8825885794915694  0.7507780677371532
  0.3592597018169815  0.3912540589952898  0.9976214443306065
  0.3597310582655654  0.8905460132670253  0.9981834404808063
  0.3605405090463597  0.8899897379728468  0.5008278076246673
  0.8597513732588353  0.3905825801878103  0.0002005901640308
  0.8617399040098195  0.3888358089774707  0.4989047197633217
  0.8591576230391682  0.8897733396769713  0.9962577368710703
  0.8600358588871287  0.8885754610165688  0.5026641162919685
  0.1402883328708237  0.1098614513267668  0.9994073975700669
  0.1387981578768841  0.1100021848078488  0.4977246561860903
  0.1409119029193233  0.6093540706512712  0.9997513619964401
  0.1385542533821872  0.6105024453517980  0.4996573130971037
  0.6404560283284118  0.1096979974918756  0.9992894673963942
  0.6396050310112241  0.1094647397852054  0.5001431601744285
  0.6429844058286208  0.6098009799416201  0.0054388845885240
  0.1095004299548588  0.3598553715511736  0.9992112030777591
  0.1100140870329195  0.3606836020408520  0.5002173879558302
  0.1102181928405475  0.8592939790665776  0.9981826196016657
  0.1096137979999476  0.8606564072654056  0.4978726114086936
  0.6093106902154494  0.3592458109089824  0.9991308925600975
  0.6094940360175420  0.8598171607536641  0.0004313820712937
  0.6099645440959565  0.8609016318371309  0.4994438326170303
  0.3907208268390884  0.1408108663339987  0.0002088150236452
  0.3896091158921087  0.1387022566808235  0.4997775841357587
  0.3908088579189279  0.6417657649313560  0.0014269900213679
  0.3867063515031324  0.6408386892904508  0.5096791529639553
  0.8896302170198277  0.1405759769843099  0.9981949898246300
  0.8894665559158361  0.1385312277515797  0.4984473195745954
  0.8913085768243801  0.6410040215956854  0.9987283219570637
  0.9987842382692634  0.9992063793936202  0.1244430527970050
  0.0012486382972333  0.0006641008443254  0.6262725642194861
  0.0000332147090857  0.5005222749893978  0.1247649094068854
  0.9998057885149350  0.4999027243981570  0.6251576734868998
  0.4994167188758067  0.9999259340155933  0.1248129264905588
  0.5010523189880589  0.9998224105629643  0.6251773215661137
  0.4985679048991318  0.4981623724276658  0.1230862219002803
  0.9978375768443987  0.9988660057471354  0.3745836014641826
  0.0002321936809192  1.0000300610672159  0.8754869065144972
  0.9999844635593499  0.5005400350678726  0.3748589183659845
  0.0003527473547021  0.5004373360937033  0.8749389110739695
  0.4995135523291706  0.0001132361122970  0.3748591812692018
  0.5007138578765822  0.0011095732626524  0.8752155162369465
  0.5081149242673875  0.5116234320883440  0.8765098186471092
  0.2535389769353655  0.2544862325589275  0.3755808866243264
  0.2529165900817071  0.2513338680252074  0.8742813575942461
  0.2539468347757077  0.7472422204674537  0.3752156544538551
  0.2543558860514322  0.7429266695095311  0.8735006606331851
  0.7460514094976947  0.2526480397607151  0.3751917196325594
  0.7462319601003955  0.2548393346930596  0.8735623511436549
  0.7483094322949686  0.7476898695299278  0.3755436418259048
  0.7402130531826550  0.7415907104011675  0.8734704101864926
  0.2487225095678725  0.2500839063317062  0.1244130897543927
  0.2417683562792475  0.2415570004032552  0.6256721576922606
  0.2485541451256350  0.7526502123581273  0.1243594701915714
  0.2414218734162041  0.7576347813603093  0.6253576614148936
  0.7507347798835985  0.2484984386326909  0.1242138627006079
  0.7571544764715484  0.2427061817651297  0.6256569390875810
  0.7544907296664971  0.7538185957683222  0.1248420344259903
  0.6425002996306332  0.3967022173412827  0.7384518721795704
  0.4995940598541227  0.5001667748634196  0.3680496961825911
  0.6127905553922621  0.3586129894978773  0.5101208475578284
  0.3591807453212523  0.3872789887521670  0.5115153708945153
  0.7458441910878035  0.7475381026206976  0.6280501275794638
  0.8898836691256751  0.6393342448746187  0.5012360743280357
  0.6406833514529582  0.6116630757596385  0.5059440965447416
 
  0.00000000E+00  0.00000000E+00  0.00000000E+00
  0.00000000E+00  0.00000000E+00  0.00000000E+00
  0.00000000E+00  0.00000000E+00  0.00000000E+00
  0.00000000E+00  0.00000000E+00  0.00000000E+00
  0.00000000E+00  0.00000000E+00  0.00000000E+00
  0.00000000E+00  0.00000000E+00  0.00000000E+00
  0.00000000E+00  0.00000000E+00  0.00000000E+00
  0.00000000E+00  0.00000000E+00  0.00000000E+00
  0.00000000E+00  0.00000000E+00  0.00000000E+00
  0.00000000E+00  0.00000000E+00  0.00000000E+00
  0.00000000E+00  0.00000000E+00  0.00000000E+00
  0.00000000E+00  0.00000000E+00  0.00000000E+00
  0.00000000E+00  0.00000000E+00  0.00000000E+00
  0.00000000E+00  0.00000000E+00  0.00000000E+00
  0.00000000E+00  0.00000000E+00  0.00000000E+00
  0.00000000E+00  0.00000000E+00  0.00000000E+00
  0.00000000E+00  0.00000000E+00  0.00000000E+00
  0.00000000E+00  0.00000000E+00  0.00000000E+00
  0.00000000E+00  0.00000000E+00  0.00000000E+00
  0.00000000E+00  0.00000000E+00  0.00000000E+00
  0.00000000E+00  0.00000000E+00  0.00000000E+00
  0.00000000E+00  0.00000000E+00  0.00000000E+00
  0.00000000E+00  0.00000000E+00  0.00000000E+00
  0.00000000E+00  0.00000000E+00  0.00000000E+00
  0.00000000E+00  0.00000000E+00  0.00000000E+00
  0.00000000E+00  0.00000000E+00  0.00000000E+00
  0.00000000E+00  0.00000000E+00  0.00000000E+00
  0.00000000E+00  0.00000000E+00  0.00000000E+00
  0.00000000E+00  0.00000000E+00  0.00000000E+00
  0.00000000E+00  0.00000000E+00  0.00000000E+00
  0.00000000E+00  0.00000000E+00  0.00000000E+00
  0.00000000E+00  0.00000000E+00  0.00000000E+00
  0.00000000E+00  0.00000000E+00  0.00000000E+00
  0.00000000E+00  0.00000000E+00  0.00000000E+00
  0.00000000E+00  0.00000000E+00  0.00000000E+00
  0.00000000E+00  0.00000000E+00  0.00000000E+00
  0.00000000E+00  0.00000000E+00  0.00000000E+00
  0.00000000E+00  0.00000000E+00  0.00000000E+00
  0.00000000E+00  0.00000000E+00  0.00000000E+00
  0.00000000E+00  0.00000000E+00  0.00000000E+00
  0.00000000E+00  0.00000000E+00  0.00000000E+00
  0.00000000E+00  0.00000000E+00  0.00000000E+00
  0.00000000E+00  0.00000000E+00  0.00000000E+00
  0.00000000E+00  0.00000000E+00  0.00000000E+00
  0.00000000E+00  0.00000000E+00  0.00000000E+00
  0.00000000E+00  0.00000000E+00  0.00000000E+00
  0.00000000E+00  0.00000000E+00  0.00000000E+00
  0.00000000E+00  0.00000000E+00  0.00000000E+00
  0.00000000E+00  0.00000000E+00  0.00000000E+00
  0.00000000E+00  0.00000000E+00  0.00000000E+00
  0.00000000E+00  0.00000000E+00  0.00000000E+00
  0.00000000E+00  0.00000000E+00  0.00000000E+00
  0.00000000E+00  0.00000000E+00  0.00000000E+00
  0.00000000E+00  0.00000000E+00  0.00000000E+00
  0.00000000E+00  0.00000000E+00  0.00000000E+00
  0.00000000E+00  0.00000000E+00  0.00000000E+00
  0.00000000E+00  0.00000000E+00  0.00000000E+00
  0.00000000E+00  0.00000000E+00  0.00000000E+00
  0.00000000E+00  0.00000000E+00  0.00000000E+00
  0.00000000E+00  0.00000000E+00  0.00000000E+00
  0.00000000E+00  0.00000000E+00  0.00000000E+00
  0.00000000E+00  0.00000000E+00  0.00000000E+00
  0.00000000E+00  0.00000000E+00  0.00000000E+00
  0.00000000E+00  0.00000000E+00  0.00000000E+00
  0.00000000E+00  0.00000000E+00  0.00000000E+00
  0.00000000E+00  0.00000000E+00  0.00000000E+00
  0.00000000E+00  0.00000000E+00  0.00000000E+00
  0.00000000E+00  0.00000000E+00  0.00000000E+00
  0.00000000E+00  0.00000000E+00  0.00000000E+00
  0.00000000E+00  0.00000000E+00  0.00000000E+00
  0.00000000E+00  0.00000000E+00  0.00000000E+00
  0.00000000E+00  0.00000000E+00  0.00000000E+00
  0.00000000E+00  0.00000000E+00  0.00000000E+00
  0.00000000E+00  0.00000000E+00  0.00000000E+00
  0.00000000E+00  0.00000000E+00  0.00000000E+00
  0.00000000E+00  0.00000000E+00  0.00000000E+00
  0.00000000E+00  0.00000000E+00  0.00000000E+00
  0.00000000E+00  0.00000000E+00  0.00000000E+00
  0.00000000E+00  0.00000000E+00  0.00000000E+00
  0.00000000E+00  0.00000000E+00  0.00000000E+00
  0.00000000E+00  0.00000000E+00  0.00000000E+00
  0.00000000E+00  0.00000000E+00  0.00000000E+00
  0.00000000E+00  0.00000000E+00  0.00000000E+00
  0.00000000E+00  0.00000000E+00  0.00000000E+00
  0.00000000E+00  0.00000000E+00  0.00000000E+00
  0.00000000E+00  0.00000000E+00  0.00000000E+00
  0.00000000E+00  0.00000000E+00  0.00000000E+00
  0.00000000E+00  0.00000000E+00  0.00000000E+00
  0.00000000E+00  0.00000000E+00  0.00000000E+00
  0.00000000E+00  0.00000000E+00  0.00000000E+00
  0.00000000E+00  0.00000000E+00  0.00000000E+00
  0.00000000E+00  0.00000000E+00  0.00000000E+00
  0.00000000E+00  0.00000000E+00  0.00000000E+00
  0.00000000E+00  0.00000000E+00  0.00000000E+00
  0.00000000E+00  0.00000000E+00  0.00000000E+00
  0.00000000E+00  0.00000000E+00  0.00000000E+00
  0.00000000E+00  0.00000000E+00  0.00000000E+00
  0.00000000E+00  0.00000000E+00  0.00000000E+00
  0.00000000E+00  0.00000000E+00  0.00000000E+00
  0.00000000E+00  0.00000000E+00  0.00000000E+00
  0.00000000E+00  0.00000000E+00  0.00000000E+00
  0.00000000E+00  0.00000000E+00  0.00000000E+00
  0.00000000E+00  0.00000000E+00  0.00000000E+00
  0.00000000E+00  0.00000000E+00  0.00000000E+00
  0.00000000E+00  0.00000000E+00  0.00000000E+00
  0.00000000E+00  0.00000000E+00  0.00000000E+00
  0.00000000E+00  0.00000000E+00  0.00000000E+00
  0.00000000E+00  0.00000000E+00  0.00000000E+00
  0.00000000E+00  0.00000000E+00  0.00000000E+00
  0.00000000E+00  0.00000000E+00  0.00000000E+00
  0.00000000E+00  0.00000000E+00  0.00000000E+00
  0.00000000E+00  0.00000000E+00  0.00000000E+00
  0.00000000E+00  0.00000000E+00  0.00000000E+00
  0.00000000E+00  0.00000000E+00  0.00000000E+00
  0.00000000E+00  0.00000000E+00  0.00000000E+00
  0.00000000E+00  0.00000000E+00  0.00000000E+00
  0.00000000E+00  0.00000000E+00  0.00000000E+00
  0.00000000E+00  0.00000000E+00  0.00000000E+00
  0.00000000E+00  0.00000000E+00  0.00000000E+00
  0.00000000E+00  0.00000000E+00  0.00000000E+00
  0.00000000E+00  0.00000000E+00  0.00000000E+00
  0.00000000E+00  0.00000000E+00  0.00000000E+00
  0.00000000E+00  0.00000000E+00  0.00000000E+00
  0.00000000E+00  0.00000000E+00  0.00000000E+00
  0.00000000E+00  0.00000000E+00  0.00000000E+00
  0.00000000E+00  0.00000000E+00  0.00000000E+00
  0.00000000E+00  0.00000000E+00  0.00000000E+00
  0.00000000E+00  0.00000000E+00  0.00000000E+00
  0.00000000E+00  0.00000000E+00  0.00000000E+00
  0.00000000E+00  0.00000000E+00  0.00000000E+00
  0.00000000E+00  0.00000000E+00  0.00000000E+00
  0.00000000E+00  0.00000000E+00  0.00000000E+00
  0.00000000E+00  0.00000000E+00  0.00000000E+00
  0.00000000E+00  0.00000000E+00  0.00000000E+00
  0.00000000E+00  0.00000000E+00  0.00000000E+00
  0.00000000E+00  0.00000000E+00  0.00000000E+00
  0.00000000E+00  0.00000000E+00  0.00000000E+00
  0.00000000E+00  0.00000000E+00  0.00000000E+00
  0.00000000E+00  0.00000000E+00  0.00000000E+00
  0.00000000E+00  0.00000000E+00  0.00000000E+00
  0.00000000E+00  0.00000000E+00  0.00000000E+00
  0.00000000E+00  0.00000000E+00  0.00000000E+00
  0.00000000E+00  0.00000000E+00  0.00000000E+00
  0.00000000E+00  0.00000000E+00  0.00000000E+00
  0.00000000E+00  0.00000000E+00  0.00000000E+00
  0.00000000E+00  0.00000000E+00  0.00000000E+00
  0.00000000E+00  0.00000000E+00  0.00000000E+00
  0.00000000E+00  0.00000000E+00  0.00000000E+00
  0.00000000E+00  0.00000000E+00  0.00000000E+00
  0.00000000E+00  0.00000000E+00  0.00000000E+00
  0.00000000E+00  0.00000000E+00  0.00000000E+00
  0.00000000E+00  0.00000000E+00  0.00000000E+00
  0.00000000E+00  0.00000000E+00  0.00000000E+00
  0.00000000E+00  0.00000000E+00  0.00000000E+00
  0.00000000E+00  0.00000000E+00  0.00000000E+00
  0.00000000E+00  0.00000000E+00  0.00000000E+00
  0.00000000E+00  0.00000000E+00  0.00000000E+00
  0.00000000E+00  0.00000000E+00  0.00000000E+00
