Sr   Ti   Fe   O                        
   1.00000000000000     
    11.1989999999999998    0.0000000000000000    0.0000000000000000
     0.0000000000000000   11.1989999999999998    0.0000000000000000
     0.0000000000000000    0.0000000000000000   15.9830000000000005
   Sr   Ti   Fe   O 
    32    31     1    94
Direct
  0.9992882973687616  0.2491890698849655  0.1247654496285391
  0.0011100079800983  0.2477343981585186  0.6234493784399195
  0.9985706304902474  0.7508333971712722  0.1262280768462194
  0.0023363136051508  0.7503289076667008  0.6253434038955619
  0.4996765301489043  0.2520446000972674  0.1263631525660119
  0.5015653430215433  0.2428151041974809  0.6219549568303174
  0.4990032156989294  0.7497805275809659  0.1246937254061797
  0.4884997088260519  0.7593292477798824  0.6222493840583195
 -0.0000037423269469  0.2485757944359245  0.3756439949367634
  0.0016241719375384  0.2496782803881909  0.8752048105814629
  0.9997381587861465  0.7473489983753213  0.3766683040287977
  0.0042648628793725  0.7492957337221497  0.8774918510120399
  0.5012681692561735  0.2509914368978216  0.3759146673657954
  0.4987319584696746  0.2508185694857332  0.8750706729626360
  0.4950062196993644  0.7473472679565003  0.3727930658854959
  0.4972596278838749  0.7560404666334967  0.8790377005977601
  0.2500478749453621  0.0002652885342725  0.1251719289415945
  0.2485249142812045  0.0015562045371582  0.6255349012452066
  0.2515238558809952  0.5000491152468891  0.1256408623883281
  0.2418107074201674  0.5017310566703064  0.6227030203372770
  0.7491595443070990  0.9981211819742184  0.1245445386432148
  0.7512026333161603  0.0030255698665700  0.6255154077930988
  0.7493638618654448  0.4994818396880982  0.1267791246879330
  0.7665298026209202  0.4903799692707951  0.6249544669519355
  0.2486360765060675  0.0004516088359153  0.3745389816292855
  0.2499788929279724  0.0027245188443316  0.8754093526778671
  0.2524320769633255  0.5008522999909100  0.3784248093891743
  0.2506989671802208  0.5012771502905862  0.8753367306239870
  0.7501685802539841  0.0020811582553978  0.3723617137234441
  0.7491738563960123  0.0022144380247836  0.8759741175289197
  0.7512090128988150  0.4932318524406389  0.3733810971551378
  0.7523608364876542  0.4994813339731369  0.8789207581102811
  0.9996634733298375  0.0000442783622527  0.9996870768003041
  0.0027647575462847  0.0019188977422844  0.4994199355511204
  0.0003142154240133  0.4997169588563971  0.0008166101745119
  0.9988475071916805  0.4977267024567805  0.4991851411302872
  0.5000147064853998  0.0013357602719419  0.0005908431640899
  0.4991837413532764  0.9988809985940003  0.4989660774924279
  0.5000328438181127  0.5004903613326050  0.0008875706711123
  0.2504652005680933  0.2511305780044605  1.0001343457041347
  0.2522444538305381  0.2519657772317356  0.5007278287314495
  0.2503344166661157  0.7495818588008163  0.0006154805854733
  0.2484243367409831  0.7512627110291707  0.4993104497329808
  0.7495262737767313  0.2504288159148418  0.0003328142860217
  0.7479941220501918  0.2475672152634134  0.4996304214656019
  0.7495498240422244  0.7491428878352024  0.0004796996366590
  0.2500956003963206  0.2507480780343220  0.2505642197874732
  0.2525023542779642  0.2527082815689247  0.7483990848706511
  0.2483700612238219  0.7500348374912812  0.2500264155369332
  0.2499476150726740  0.7521707682038896  0.7493959912652897
  0.7500072655279362  0.2487735880812735  0.2494517485020527
  0.7514009718381804  0.2498727456892634  0.7499707626346354
  0.7478602885311297  0.7475627242944787  0.2516337712343770
  0.7575187048381997  0.7557535514848411  0.7509956216877639
  0.9993057987172902  0.9993090668191602  0.2502553254562868
  0.0020959360755475  0.0029187526278528  0.7514684647580395
  0.0005707270374505  0.4995126291989962  0.2501010027863056
  0.0005934906600200  0.4993412903448667  0.7511423767619734
  0.4990132215273941  0.9996026626038933  0.2500497345105913
  0.4991718371091590  0.0010098730805116  0.7505465448236049
  0.5000887825670294  0.4999999200345228  0.2519901079972621
  0.5050458350753283  0.5025059899718071  0.7504688568029746
  0.7514356198390005  0.7565248272246642  0.5035741564971041
  0.4996449951105003  0.4994422699492072  0.5000459574071695
  0.1087932163952697  0.1404801837998541  0.2471692122668168
  0.1093641114482743  0.1403493240287856  0.7495329110904171
  0.1075489029161573  0.6410358858229941  0.2484892101701434
  0.1129514740578029  0.6383647368996782  0.7497299376609066
  0.6090416006771333  0.1389370526558571  0.2489509425010478
  0.6105509581547965  0.1402689771910960  0.7500568079668906
  0.6093515589381706  0.6399237156084365  0.2412898025166267
  0.3903244389704705  0.3591450170682213  0.2542995539961682
  0.3903748710080771  0.3600019232446088  0.7402884352603943
  0.3888203306663769  0.8597265005610045  0.2500925567849538
  0.3867566064512238  0.8648514046593575  0.7528073225697447
  0.8906078530064023  0.3587020574060036  0.2513381561229844
  0.8935013382521937  0.3570212682943130  0.7503096936954928
  0.8872177644788304  0.8579106977553497  0.2592052756602392
  0.8944047650643535  0.8594632396760808  0.7597885058776784
  0.3587121043712670  0.1092068883395232  0.2497812805009963
  0.3609694603840503  0.1111742921874848  0.7501101416316838
  0.3578383216245221  0.6102717310299993  0.2517204113046870
  0.3743929065153671  0.6185593805892636  0.7358876714331495
  0.8588980790261456  0.1079642357647416  0.2473522714449659
  0.8586360325468926  0.1078822790226977  0.7528237027908030
  0.8582757034431102  0.6081462516281803  0.2508409089226015
  0.8572885846399028  0.6075692509868383  0.7501651471375596
  0.1408326591344441  0.3915217474580359  0.2514526023219866
  0.1420223408824256  0.3915723174027897  0.7512766374577168
  0.1386089779091051  0.8909457234470106  0.2465671411319051
  0.1403602705738056  0.8902093108975532  0.7532206977782843
  0.6411561156136671  0.3882965600415526  0.2483191165600403
  0.6390794623735750  0.8884635629752751  0.2520651297625250
  0.6351330764624518  0.8825903097152219  0.7520008913219668
  0.3584599886615317  0.3912154407286687  0.9969742385354631
  0.3599489685333314  0.8903083058286849  0.9977531347527184
  0.3559482788548382  0.8929674724119571  0.5004726196657387
  0.8597076317889778  0.3904023161161662  0.9998406774496214
  0.8637462769006312  0.3827180042634977  0.4978962413062942
  0.8595709664229457  0.8889952556397587  0.9933076413215282
  0.8552840384862501  0.8862876733426592  0.4927194057842427
  0.1403045769840415  0.1103572717840667  0.0034773773202734
  0.1391567632988925  0.1077020892933641  0.5010457660673231
  0.1406359913471792  0.6090415744931468  0.0003276445568761
  0.1285445603015759  0.6145395275803978  0.5001895047231671
  0.6406685176915592  0.1095484679546362  0.0006873374009109
  0.6425984955781193  0.1004815172546415  0.5003742946651296
  0.6412633686783191  0.6096265764940965  0.0077173862455287
  0.1092340577687771  0.3593879097309545  0.9996281323837167
  0.1097229579237799  0.3606554450973821  0.4993566387562505
  0.1106243984098686  0.8592323998433001  0.9987806040812609
  0.1025752668432250  0.8596184546159518  0.4993604539066265
  0.6092445868267322  0.3593825591532740  0.9994751276373566
  0.6098637789007851  0.8600533428739062  0.0006774781941856
  0.6028147810572738  0.8492234488738321  0.5001153213549602
  0.3907132041905766  0.1409543156986128  0.0008085279220593
  0.3914723550831087  0.1389886161337692  0.4998410078777038
  0.3908798151769467  0.6413497063553799  0.0013102879040756
  0.3746124943640087  0.6426218831681170  0.4969853905501270
  0.8897185391138225  0.1403404708356792  0.9990919491025747
  0.8900615031169484  0.1343540655353442  0.5002430597273472
  0.8906939105445255  0.6402957790214741  0.9993515949197166
  0.9935035268998372  0.9938123258466743  0.1244145194442147
  0.9949059176647257  0.9944070346599769  0.6263098785243271
  0.9989440363575618  0.4985785244851757  0.1251770783040112
  0.0026233036095805  0.4979590833836243  0.6254611288245205
  0.4990078658253403  0.9981851448474109  0.1250984493734739
  0.5004706339604058  0.0004848718566531  0.6253673782494783
  0.4936247812044143  0.4942436322167839  0.1247283308563393
  0.0024663595044018  0.0035477185258872  0.3740277981123240
  0.0051213881127770  0.0055174893496127  0.8762632746054372
  0.9988760860313692  0.5018753547561556  0.3751172634504705
  0.0004904611296724  0.5007181904863175  0.8752722390317504
  0.4993337945014682  0.9993963443720522  0.3750429016420238
  0.5016004223050563  0.0026119972573651  0.8756712452483622
  0.5044879731436590  0.5080014795474096  0.8764231626406782
  0.2486529034356015  0.2485335179412591  0.3757175770372944
  0.2516812094586651  0.2495307172510808  0.8746249232338010
  0.2421647159735446  0.7546541944756340  0.3733118548267989
  0.2535352303241212  0.7421711475078737  0.8738960695176515
  0.7507828340438737  0.2437710266800723  0.3734866032329511
  0.7470551531909855  0.2526203404373814  0.8744080769167385
  0.7326099050548243  0.7298141875530074  0.3798922341741194
  0.7378881316416578  0.7384515905463066  0.8743655041582831
  0.2525356867569997  0.2542956762981530  0.1255154159981122
  0.2431044526269196  0.2436754001222750  0.6248546838996307
  0.2505566939224851  0.7504399369059959  0.1242623509287464
  0.2429732083677711  0.7567330957142109  0.6253323519054180
  0.7510156212423269  0.2502667311289897  0.1242051102784519
  0.7541107369561001  0.2441916467018367  0.6259241015745197
  0.7573289091830917  0.7566092606698723  0.1258757153011186
  0.6452135703218439  0.3964595277496103  0.7435247133629362
  0.5109838683354011  0.5068547615553449  0.3716384250908163
  0.6137203520798074  0.3477301576302410  0.5000866372190154
  0.3566379867868623  0.3861455986041184  0.5074855012683124
  0.7591554351136615  0.7632520218207629  0.6276375715972246
  0.8720285220092491  0.6288092567952149  0.5032591124355859
  0.5909590681225513  0.5833044362964150  0.5817781357698940
 
  0.00000000E+00  0.00000000E+00  0.00000000E+00
  0.00000000E+00  0.00000000E+00  0.00000000E+00
  0.00000000E+00  0.00000000E+00  0.00000000E+00
  0.00000000E+00  0.00000000E+00  0.00000000E+00
  0.00000000E+00  0.00000000E+00  0.00000000E+00
  0.00000000E+00  0.00000000E+00  0.00000000E+00
  0.00000000E+00  0.00000000E+00  0.00000000E+00
  0.00000000E+00  0.00000000E+00  0.00000000E+00
  0.00000000E+00  0.00000000E+00  0.00000000E+00
  0.00000000E+00  0.00000000E+00  0.00000000E+00
  0.00000000E+00  0.00000000E+00  0.00000000E+00
  0.00000000E+00  0.00000000E+00  0.00000000E+00
  0.00000000E+00  0.00000000E+00  0.00000000E+00
  0.00000000E+00  0.00000000E+00  0.00000000E+00
  0.00000000E+00  0.00000000E+00  0.00000000E+00
  0.00000000E+00  0.00000000E+00  0.00000000E+00
  0.00000000E+00  0.00000000E+00  0.00000000E+00
  0.00000000E+00  0.00000000E+00  0.00000000E+00
  0.00000000E+00  0.00000000E+00  0.00000000E+00
  0.00000000E+00  0.00000000E+00  0.00000000E+00
  0.00000000E+00  0.00000000E+00  0.00000000E+00
  0.00000000E+00  0.00000000E+00  0.00000000E+00
  0.00000000E+00  0.00000000E+00  0.00000000E+00
  0.00000000E+00  0.00000000E+00  0.00000000E+00
  0.00000000E+00  0.00000000E+00  0.00000000E+00
  0.00000000E+00  0.00000000E+00  0.00000000E+00
  0.00000000E+00  0.00000000E+00  0.00000000E+00
  0.00000000E+00  0.00000000E+00  0.00000000E+00
  0.00000000E+00  0.00000000E+00  0.00000000E+00
  0.00000000E+00  0.00000000E+00  0.00000000E+00
  0.00000000E+00  0.00000000E+00  0.00000000E+00
  0.00000000E+00  0.00000000E+00  0.00000000E+00
  0.00000000E+00  0.00000000E+00  0.00000000E+00
  0.00000000E+00  0.00000000E+00  0.00000000E+00
  0.00000000E+00  0.00000000E+00  0.00000000E+00
  0.00000000E+00  0.00000000E+00  0.00000000E+00
  0.00000000E+00  0.00000000E+00  0.00000000E+00
  0.00000000E+00  0.00000000E+00  0.00000000E+00
  0.00000000E+00  0.00000000E+00  0.00000000E+00
  0.00000000E+00  0.00000000E+00  0.00000000E+00
  0.00000000E+00  0.00000000E+00  0.00000000E+00
  0.00000000E+00  0.00000000E+00  0.00000000E+00
  0.00000000E+00  0.00000000E+00  0.00000000E+00
  0.00000000E+00  0.00000000E+00  0.00000000E+00
  0.00000000E+00  0.00000000E+00  0.00000000E+00
  0.00000000E+00  0.00000000E+00  0.00000000E+00
  0.00000000E+00  0.00000000E+00  0.00000000E+00
  0.00000000E+00  0.00000000E+00  0.00000000E+00
  0.00000000E+00  0.00000000E+00  0.00000000E+00
  0.00000000E+00  0.00000000E+00  0.00000000E+00
  0.00000000E+00  0.00000000E+00  0.00000000E+00
  0.00000000E+00  0.00000000E+00  0.00000000E+00
  0.00000000E+00  0.00000000E+00  0.00000000E+00
  0.00000000E+00  0.00000000E+00  0.00000000E+00
  0.00000000E+00  0.00000000E+00  0.00000000E+00
  0.00000000E+00  0.00000000E+00  0.00000000E+00
  0.00000000E+00  0.00000000E+00  0.00000000E+00
  0.00000000E+00  0.00000000E+00  0.00000000E+00
  0.00000000E+00  0.00000000E+00  0.00000000E+00
  0.00000000E+00  0.00000000E+00  0.00000000E+00
  0.00000000E+00  0.00000000E+00  0.00000000E+00
  0.00000000E+00  0.00000000E+00  0.00000000E+00
  0.00000000E+00  0.00000000E+00  0.00000000E+00
  0.00000000E+00  0.00000000E+00  0.00000000E+00
  0.00000000E+00  0.00000000E+00  0.00000000E+00
  0.00000000E+00  0.00000000E+00  0.00000000E+00
  0.00000000E+00  0.00000000E+00  0.00000000E+00
  0.00000000E+00  0.00000000E+00  0.00000000E+00
  0.00000000E+00  0.00000000E+00  0.00000000E+00
  0.00000000E+00  0.00000000E+00  0.00000000E+00
  0.00000000E+00  0.00000000E+00  0.00000000E+00
  0.00000000E+00  0.00000000E+00  0.00000000E+00
  0.00000000E+00  0.00000000E+00  0.00000000E+00
  0.00000000E+00  0.00000000E+00  0.00000000E+00
  0.00000000E+00  0.00000000E+00  0.00000000E+00
  0.00000000E+00  0.00000000E+00  0.00000000E+00
  0.00000000E+00  0.00000000E+00  0.00000000E+00
  0.00000000E+00  0.00000000E+00  0.00000000E+00
  0.00000000E+00  0.00000000E+00  0.00000000E+00
  0.00000000E+00  0.00000000E+00  0.00000000E+00
  0.00000000E+00  0.00000000E+00  0.00000000E+00
  0.00000000E+00  0.00000000E+00  0.00000000E+00
  0.00000000E+00  0.00000000E+00  0.00000000E+00
  0.00000000E+00  0.00000000E+00  0.00000000E+00
  0.00000000E+00  0.00000000E+00  0.00000000E+00
  0.00000000E+00  0.00000000E+00  0.00000000E+00
  0.00000000E+00  0.00000000E+00  0.00000000E+00
  0.00000000E+00  0.00000000E+00  0.00000000E+00
  0.00000000E+00  0.00000000E+00  0.00000000E+00
  0.00000000E+00  0.00000000E+00  0.00000000E+00
  0.00000000E+00  0.00000000E+00  0.00000000E+00
  0.00000000E+00  0.00000000E+00  0.00000000E+00
  0.00000000E+00  0.00000000E+00  0.00000000E+00
  0.00000000E+00  0.00000000E+00  0.00000000E+00
  0.00000000E+00  0.00000000E+00  0.00000000E+00
  0.00000000E+00  0.00000000E+00  0.00000000E+00
  0.00000000E+00  0.00000000E+00  0.00000000E+00
  0.00000000E+00  0.00000000E+00  0.00000000E+00
  0.00000000E+00  0.00000000E+00  0.00000000E+00
  0.00000000E+00  0.00000000E+00  0.00000000E+00
  0.00000000E+00  0.00000000E+00  0.00000000E+00
  0.00000000E+00  0.00000000E+00  0.00000000E+00
  0.00000000E+00  0.00000000E+00  0.00000000E+00
  0.00000000E+00  0.00000000E+00  0.00000000E+00
  0.00000000E+00  0.00000000E+00  0.00000000E+00
  0.00000000E+00  0.00000000E+00  0.00000000E+00
  0.00000000E+00  0.00000000E+00  0.00000000E+00
  0.00000000E+00  0.00000000E+00  0.00000000E+00
  0.00000000E+00  0.00000000E+00  0.00000000E+00
  0.00000000E+00  0.00000000E+00  0.00000000E+00
  0.00000000E+00  0.00000000E+00  0.00000000E+00
  0.00000000E+00  0.00000000E+00  0.00000000E+00
  0.00000000E+00  0.00000000E+00  0.00000000E+00
  0.00000000E+00  0.00000000E+00  0.00000000E+00
  0.00000000E+00  0.00000000E+00  0.00000000E+00
  0.00000000E+00  0.00000000E+00  0.00000000E+00
  0.00000000E+00  0.00000000E+00  0.00000000E+00
  0.00000000E+00  0.00000000E+00  0.00000000E+00
  0.00000000E+00  0.00000000E+00  0.00000000E+00
  0.00000000E+00  0.00000000E+00  0.00000000E+00
  0.00000000E+00  0.00000000E+00  0.00000000E+00
  0.00000000E+00  0.00000000E+00  0.00000000E+00
  0.00000000E+00  0.00000000E+00  0.00000000E+00
  0.00000000E+00  0.00000000E+00  0.00000000E+00
  0.00000000E+00  0.00000000E+00  0.00000000E+00
  0.00000000E+00  0.00000000E+00  0.00000000E+00
  0.00000000E+00  0.00000000E+00  0.00000000E+00
  0.00000000E+00  0.00000000E+00  0.00000000E+00
  0.00000000E+00  0.00000000E+00  0.00000000E+00
  0.00000000E+00  0.00000000E+00  0.00000000E+00
  0.00000000E+00  0.00000000E+00  0.00000000E+00
  0.00000000E+00  0.00000000E+00  0.00000000E+00
  0.00000000E+00  0.00000000E+00  0.00000000E+00
  0.00000000E+00  0.00000000E+00  0.00000000E+00
  0.00000000E+00  0.00000000E+00  0.00000000E+00
  0.00000000E+00  0.00000000E+00  0.00000000E+00
  0.00000000E+00  0.00000000E+00  0.00000000E+00
  0.00000000E+00  0.00000000E+00  0.00000000E+00
  0.00000000E+00  0.00000000E+00  0.00000000E+00
  0.00000000E+00  0.00000000E+00  0.00000000E+00
  0.00000000E+00  0.00000000E+00  0.00000000E+00
  0.00000000E+00  0.00000000E+00  0.00000000E+00
  0.00000000E+00  0.00000000E+00  0.00000000E+00
  0.00000000E+00  0.00000000E+00  0.00000000E+00
  0.00000000E+00  0.00000000E+00  0.00000000E+00
  0.00000000E+00  0.00000000E+00  0.00000000E+00
  0.00000000E+00  0.00000000E+00  0.00000000E+00
  0.00000000E+00  0.00000000E+00  0.00000000E+00
  0.00000000E+00  0.00000000E+00  0.00000000E+00
  0.00000000E+00  0.00000000E+00  0.00000000E+00
  0.00000000E+00  0.00000000E+00  0.00000000E+00
  0.00000000E+00  0.00000000E+00  0.00000000E+00
  0.00000000E+00  0.00000000E+00  0.00000000E+00
  0.00000000E+00  0.00000000E+00  0.00000000E+00
  0.00000000E+00  0.00000000E+00  0.00000000E+00
  0.00000000E+00  0.00000000E+00  0.00000000E+00
  0.00000000E+00  0.00000000E+00  0.00000000E+00
  0.00000000E+00  0.00000000E+00  0.00000000E+00
