SrTiFeO                                 
   1.00000000000000     
    11.1989999999999998    0.0000000000000000    0.0000000000000000
     0.0000000000000000   11.1989999999999998    0.0000000000000000
     0.0000000000000000    0.0000000000000000   15.9830000000000005
   Sr   Ti   O 
    32    32    94
Direct
 -0.0004212604489100  0.2494430966134728  0.1247605466133579
  0.0021323944562895  0.2510120363401585  0.6249974722642703
 -0.0004212604489100  0.7505569033865273  0.1252394533866421
  0.0021323944562895  0.7489879636598418  0.6250025277357297
  0.4992602247359746  0.2501935664464724  0.1264423897836323
  0.4999433399325112  0.2467984979889070  0.6222853001369930
  0.4992602247359746  0.7498064335535276  0.1235576102163676
  0.4999433399325112  0.7532015020110930  0.6277146998630070
 -0.0002142641326687  0.2492272355931052  0.3746256880381962
  0.0025145122421380  0.2512807203569873  0.8759195487616046
  0.0025145122421380  0.7487192796430128  0.3740804512383955
 -0.0002142641326687  0.7507727644068947  0.8753743119618040
  0.5013350397084213  0.2476510307126865  0.3734703861238298
  0.4982011155066853  0.2486772636918940  0.8781504328137630
  0.4982011155066853  0.7513227363081061  0.3718495671862371
  0.5013350397084213  0.7523489692873135  0.8765296138761702
  0.2501214026327366  0.0000000000000000  0.1250000000000000
  0.2503500256442920  0.0000000000000000  0.6250000000000000
  0.2504063739251781  0.5000000000000000  0.1250000000000000
  0.2435825151514922  0.5000000000000000  0.6250000000000000
  0.7491876983967882  0.0000000000000000  0.1250000000000000
  0.7497408027338663  0.0000000000000000  0.6250000000000000
  0.7493428858832805  0.5000000000000000  0.1250000000000000
  0.7580495263389888  0.5000000000000000  0.6250000000000000
  0.2502539444370315 -0.0000536633406542  0.3736630883002053
  0.2502539444370315  0.0000536633406542  0.8763369116997947
  0.2474412167424186  0.4997458243275728  0.3728404645509990
  0.2474412167424186  0.5002541756724274  0.8771595354490009
  0.7497267165881858  0.0033391591213276  0.3728909365827863
  0.7497267165881858 -0.0033391591213276  0.8771090634172134
  0.7535210009596379  0.4957765293455480  0.3718015326504363
  0.7535210009596379  0.5042234706544521  0.8781984673495640
 -0.0003006439389657  0.0000062465984848 -0.0001172796963640
  0.0021574534635518  0.0011625101066781  0.5000749478479868
  0.0001944299236198  0.4999890134648797  0.0006137175263372
  0.0004278471945606  0.4989079947801682  0.4993843897479270
  0.5001842367861750  0.0002115775400878  0.0003233545212581
  0.4994037833857891 -0.0008903988560098  0.4996491355696490
  0.5003533168910507  0.4988777993024479  0.0000987845347056
  0.2502093419316787  0.2503049117557897  0.0003251954435409
  0.2490373170578627  0.2480801156269319  0.4996392090063455
  0.2499700775398772  0.7498806863928045 -0.0001349521767154
  0.2509897200619201  0.7506365811053762  0.5000888957220990
  0.7493899924513027  0.2508101162806762  0.0000885372129535
  0.7506140012656144  0.2503413262668874  0.4999716656520294
  0.7505573061055867  0.7505346594395146  0.0005774757716148
  0.2499700775398772  0.2501193136071957  0.2501349521767154
  0.2509897200619201  0.2493634188946237  0.7499111042779011
  0.2502093419316787  0.7496950882442101  0.2496748045564590
  0.2490373170578627  0.7519198843730680  0.7503607909936546
  0.7505573061055867  0.2494653405604854  0.2494225242283852
  0.7534496113291076  0.2433704414280242  0.7506361714016104
  0.7493899924513027  0.7491898837193238  0.2499114627870464
  0.7506140012656144  0.7496586737331125  0.7500283343479708
 -0.0003006439389657 -0.0000062465984848  0.2501172796963641
  0.0021574534635518 -0.0011625101066781  0.7499250521520132
  0.0001944299236198  0.5000109865351208  0.2493862824736627
  0.0004278471945606  0.5010920052198314  0.7506156102520731
  0.5001842367861750 -0.0002115775400878  0.2496766454787419
  0.4994037833857891  0.0008903988560098  0.7503508644303510
  0.5003533168910507  0.5011222006975522  0.2499012154652945
  0.4942646796562670  0.5039712714599727  0.7499965851796609
  0.4942646796562670  0.4960287285400273  0.5000034148203391
  0.7534496113291076  0.7566295585719758  0.4993638285983895
  0.1101167571329660  0.1400732526468154  0.2497324949365003
  0.1075402022948648  0.1418681926053935  0.7503732298654128
  0.1097814033818886  0.6403050423018030  0.2500268535473941
  0.1091894652263253  0.6410352550177310  0.7499167477008092
  0.6102266826007013  0.1401570372111592  0.2500998661729381
  0.6054303896576235  0.1464078661111144  0.7500194406927307
  0.6091248018186767  0.6408151859274271  0.2456685444595366
  0.3909321937435138  0.3610750730533426  0.2541407015639873
  0.3976449260255319  0.3560974570518693  0.7463312173008545
  0.3898663942585495  0.8603011527379724  0.2495556727987385
  0.3916307584517395  0.8577354133904105  0.7505776124149284
  0.8901930895965146  0.3597443569272095  0.2509660416392337
  0.8816472504736019  0.3645934690050758  0.7489424419276293
  0.8893550184394848  0.8589340925493160  0.2541860274031926
  0.8900677323707120  0.8587304824460861  0.7460521938804123
  0.3603310307927241  0.1102486047270340  0.2501297285055229
  0.3566462051957252  0.1065156684329790  0.7499051512326376
  0.3594693793259385  0.6094921010714793  0.2512313764400541
  0.3572619562326658  0.6068139133528760  0.7487363033334131
  0.8597530842383314  0.1094074358784141  0.2497853369122981
  0.8571008220052971  0.1074833732221766  0.7500177285397347
  0.8594056866673789  0.6093837480788246  0.2499400781084064
  0.8609744606555642  0.6110218601544158  0.7498871199248196
  0.1403108431113783  0.3904463004669648  0.2498407701139066
  0.1400840168868382  0.3900262682715796  0.7500657200590727
  0.1396863568904116  0.8896023451910738  0.2501219242703714
  0.1414219354319799  0.8912880459473649  0.7497473079876248
  0.6401319286973095  0.3900602309615761  0.2499145216923447
  0.6407162056322054  0.8901616006714455  0.2512893959948174
  0.6403195093134896  0.8901538480397042  0.7489444431615458
  0.3594693793259385  0.3905078989285205 -0.0012313764400542
  0.3603310307927241  0.8897513952729661 -0.0001297285055230
  0.3566462051957252  0.8934843315670210  0.5000948487673624
  0.8594056866673789  0.3906162519211755  0.0000599218915935
  0.8609744606555642  0.3889781398455843  0.5001128800751804
  0.8597530842383314  0.8905925641215857  0.0002146630877019
  0.8571008220052971  0.8925166267778233  0.4999822714602653
  0.1396863568904116  0.1103976548089260 -0.0001219242703713
  0.1414219354319799  0.1087119540526351  0.5002526920123752
  0.1403108431113783  0.6095536995330352  0.0001592298860933
  0.1400840168868382  0.6099737317284204  0.4999342799409274
  0.6407162056322054  0.1098383993285550 -0.0012893959948176
  0.6403195093134896  0.1098461519602956  0.5010555568384542
  0.6401319286973095  0.6099397690384240  0.0000854783076553
  0.1097814033818886  0.3596949576981969 -0.0000268535473940
  0.1091894652263253  0.3589647449822692  0.5000832522991908
  0.1101167571329660  0.8599267473531845  0.0002675050634997
  0.1075402022948648  0.8581318073946064  0.4996267701345874
  0.6091248018186767  0.3591848140725729  0.0043314555404634
  0.6102266826007013  0.8598429627888406 -0.0000998661729380
  0.6054303896576235  0.8535921338888856  0.4999805593072693
  0.3898663942585495  0.1396988472620274  0.0004443272012615
  0.3916307584517395  0.1422645866095894  0.4994223875850711
  0.3909321937435138  0.6389249269466573 -0.0041407015639873
  0.3976449260255319  0.6439025429481308  0.5036687826991455
  0.8893550184394848  0.1410659074506842 -0.0041860274031927
  0.8900677323707120  0.1412695175539141  0.5039478061195877
  0.8901930895965146  0.6402556430727908 -0.0009660416392338
 -0.0018671896492273  0.0000000000000000  0.1250000000000000
  0.0010547259019299  0.0000000000000000  0.6250000000000000
 -0.0006226813844756  0.5000000000000000  0.1250000000000000
  0.0012602721172789  0.5000000000000000  0.6250000000000000
  0.5011606836413899  0.0000000000000000  0.1250000000000000
  0.5002315528340818  0.0000000000000000  0.6250000000000000
  0.4962825604238953  0.5000000000000000  0.1250000000000000
 -0.0006165855970077  0.0026007637637776  0.3759323134356042
 -0.0006165855970077 -0.0026007637637776  0.8740676865643962
  0.0003906648615228  0.5010616814103885  0.3751143042972408
  0.0003906648615228  0.4989383185896114  0.8748856957027588
  0.5006218580672684  0.0004229588090659  0.3752878806128748
  0.5006218580672684 -0.0004229588090659  0.8747121193871251
  0.5080024888031250  0.4893676535411031  0.8725398926993224
  0.2491410629669840  0.2501065285758538  0.3756328960730056
  0.2513159187463855  0.2509870069964142  0.8743996011494251
  0.2513159187463855  0.7490129930035857  0.3756003988505750
  0.2491410629669840  0.7498934714241460  0.8743671039269942
  0.7514344311809040  0.2475892693779774  0.3753172347034745
  0.7415491239456289  0.2605781316363409  0.8727380710175187
  0.7415491239456289  0.7394218683636588  0.3772619289824813
  0.7514344311809040  0.7524107306220227  0.8746827652965256
  0.2519521863571332  0.2515618602018083  0.1253542735585088
  0.2490423733793639  0.2497065197407496  0.6247076468701912
  0.2519521863571332  0.7484381397981920  0.1246457264414911
  0.2490423733793639  0.7502934802592502  0.6252923531298088
  0.7523279734501529  0.2483332612923851  0.1247417425778271
  0.7412428878832299  0.2582010051796990  0.6269493193786034
  0.7523279734501529  0.7516667387076148  0.1252582574221730
  0.6135909343486440  0.6330237791105914  0.7541177592639698
  0.5080024888031250  0.5106323464588965  0.3774601073006776
  0.6135909343486440  0.3669762208894085  0.4958822407360303
  0.3572619562326658  0.3931860866471242  0.5012636966665869
  0.7412428878832299  0.7417989948203010  0.6230506806213966
  0.8816472504736019  0.6354065309949242  0.5010575580723706
  0.5178143318565464  0.5000000000000000  0.6250000000000000
 
  0.00000000E+00  0.00000000E+00  0.00000000E+00
  0.00000000E+00  0.00000000E+00  0.00000000E+00
  0.00000000E+00  0.00000000E+00  0.00000000E+00
  0.00000000E+00  0.00000000E+00  0.00000000E+00
  0.00000000E+00  0.00000000E+00  0.00000000E+00
  0.00000000E+00  0.00000000E+00  0.00000000E+00
  0.00000000E+00  0.00000000E+00  0.00000000E+00
  0.00000000E+00  0.00000000E+00  0.00000000E+00
  0.00000000E+00  0.00000000E+00  0.00000000E+00
  0.00000000E+00  0.00000000E+00  0.00000000E+00
  0.00000000E+00  0.00000000E+00  0.00000000E+00
  0.00000000E+00  0.00000000E+00  0.00000000E+00
  0.00000000E+00  0.00000000E+00  0.00000000E+00
  0.00000000E+00  0.00000000E+00  0.00000000E+00
  0.00000000E+00  0.00000000E+00  0.00000000E+00
  0.00000000E+00  0.00000000E+00  0.00000000E+00
  0.00000000E+00  0.00000000E+00  0.00000000E+00
  0.00000000E+00  0.00000000E+00  0.00000000E+00
  0.00000000E+00  0.00000000E+00  0.00000000E+00
  0.00000000E+00  0.00000000E+00  0.00000000E+00
  0.00000000E+00  0.00000000E+00  0.00000000E+00
  0.00000000E+00  0.00000000E+00  0.00000000E+00
  0.00000000E+00  0.00000000E+00  0.00000000E+00
  0.00000000E+00  0.00000000E+00  0.00000000E+00
  0.00000000E+00  0.00000000E+00  0.00000000E+00
  0.00000000E+00  0.00000000E+00  0.00000000E+00
  0.00000000E+00  0.00000000E+00  0.00000000E+00
  0.00000000E+00  0.00000000E+00  0.00000000E+00
  0.00000000E+00  0.00000000E+00  0.00000000E+00
  0.00000000E+00  0.00000000E+00  0.00000000E+00
  0.00000000E+00  0.00000000E+00  0.00000000E+00
  0.00000000E+00  0.00000000E+00  0.00000000E+00
  0.00000000E+00  0.00000000E+00  0.00000000E+00
  0.00000000E+00  0.00000000E+00  0.00000000E+00
  0.00000000E+00  0.00000000E+00  0.00000000E+00
  0.00000000E+00  0.00000000E+00  0.00000000E+00
  0.00000000E+00  0.00000000E+00  0.00000000E+00
  0.00000000E+00  0.00000000E+00  0.00000000E+00
  0.00000000E+00  0.00000000E+00  0.00000000E+00
  0.00000000E+00  0.00000000E+00  0.00000000E+00
  0.00000000E+00  0.00000000E+00  0.00000000E+00
  0.00000000E+00  0.00000000E+00  0.00000000E+00
  0.00000000E+00  0.00000000E+00  0.00000000E+00
  0.00000000E+00  0.00000000E+00  0.00000000E+00
  0.00000000E+00  0.00000000E+00  0.00000000E+00
  0.00000000E+00  0.00000000E+00  0.00000000E+00
  0.00000000E+00  0.00000000E+00  0.00000000E+00
  0.00000000E+00  0.00000000E+00  0.00000000E+00
  0.00000000E+00  0.00000000E+00  0.00000000E+00
  0.00000000E+00  0.00000000E+00  0.00000000E+00
  0.00000000E+00  0.00000000E+00  0.00000000E+00
  0.00000000E+00  0.00000000E+00  0.00000000E+00
  0.00000000E+00  0.00000000E+00  0.00000000E+00
  0.00000000E+00  0.00000000E+00  0.00000000E+00
  0.00000000E+00  0.00000000E+00  0.00000000E+00
  0.00000000E+00  0.00000000E+00  0.00000000E+00
  0.00000000E+00  0.00000000E+00  0.00000000E+00
  0.00000000E+00  0.00000000E+00  0.00000000E+00
  0.00000000E+00  0.00000000E+00  0.00000000E+00
  0.00000000E+00  0.00000000E+00  0.00000000E+00
  0.00000000E+00  0.00000000E+00  0.00000000E+00
  0.00000000E+00  0.00000000E+00  0.00000000E+00
  0.00000000E+00  0.00000000E+00  0.00000000E+00
  0.00000000E+00  0.00000000E+00  0.00000000E+00
  0.00000000E+00  0.00000000E+00  0.00000000E+00
  0.00000000E+00  0.00000000E+00  0.00000000E+00
  0.00000000E+00  0.00000000E+00  0.00000000E+00
  0.00000000E+00  0.00000000E+00  0.00000000E+00
  0.00000000E+00  0.00000000E+00  0.00000000E+00
  0.00000000E+00  0.00000000E+00  0.00000000E+00
  0.00000000E+00  0.00000000E+00  0.00000000E+00
  0.00000000E+00  0.00000000E+00  0.00000000E+00
  0.00000000E+00  0.00000000E+00  0.00000000E+00
  0.00000000E+00  0.00000000E+00  0.00000000E+00
  0.00000000E+00  0.00000000E+00  0.00000000E+00
  0.00000000E+00  0.00000000E+00  0.00000000E+00
  0.00000000E+00  0.00000000E+00  0.00000000E+00
  0.00000000E+00  0.00000000E+00  0.00000000E+00
  0.00000000E+00  0.00000000E+00  0.00000000E+00
  0.00000000E+00  0.00000000E+00  0.00000000E+00
  0.00000000E+00  0.00000000E+00  0.00000000E+00
  0.00000000E+00  0.00000000E+00  0.00000000E+00
  0.00000000E+00  0.00000000E+00  0.00000000E+00
  0.00000000E+00  0.00000000E+00  0.00000000E+00
  0.00000000E+00  0.00000000E+00  0.00000000E+00
  0.00000000E+00  0.00000000E+00  0.00000000E+00
  0.00000000E+00  0.00000000E+00  0.00000000E+00
  0.00000000E+00  0.00000000E+00  0.00000000E+00
  0.00000000E+00  0.00000000E+00  0.00000000E+00
  0.00000000E+00  0.00000000E+00  0.00000000E+00
  0.00000000E+00  0.00000000E+00  0.00000000E+00
  0.00000000E+00  0.00000000E+00  0.00000000E+00
  0.00000000E+00  0.00000000E+00  0.00000000E+00
  0.00000000E+00  0.00000000E+00  0.00000000E+00
  0.00000000E+00  0.00000000E+00  0.00000000E+00
  0.00000000E+00  0.00000000E+00  0.00000000E+00
  0.00000000E+00  0.00000000E+00  0.00000000E+00
  0.00000000E+00  0.00000000E+00  0.00000000E+00
  0.00000000E+00  0.00000000E+00  0.00000000E+00
  0.00000000E+00  0.00000000E+00  0.00000000E+00
  0.00000000E+00  0.00000000E+00  0.00000000E+00
  0.00000000E+00  0.00000000E+00  0.00000000E+00
  0.00000000E+00  0.00000000E+00  0.00000000E+00
  0.00000000E+00  0.00000000E+00  0.00000000E+00
  0.00000000E+00  0.00000000E+00  0.00000000E+00
  0.00000000E+00  0.00000000E+00  0.00000000E+00
  0.00000000E+00  0.00000000E+00  0.00000000E+00
  0.00000000E+00  0.00000000E+00  0.00000000E+00
  0.00000000E+00  0.00000000E+00  0.00000000E+00
  0.00000000E+00  0.00000000E+00  0.00000000E+00
  0.00000000E+00  0.00000000E+00  0.00000000E+00
  0.00000000E+00  0.00000000E+00  0.00000000E+00
  0.00000000E+00  0.00000000E+00  0.00000000E+00
  0.00000000E+00  0.00000000E+00  0.00000000E+00
  0.00000000E+00  0.00000000E+00  0.00000000E+00
  0.00000000E+00  0.00000000E+00  0.00000000E+00
  0.00000000E+00  0.00000000E+00  0.00000000E+00
  0.00000000E+00  0.00000000E+00  0.00000000E+00
  0.00000000E+00  0.00000000E+00  0.00000000E+00
  0.00000000E+00  0.00000000E+00  0.00000000E+00
  0.00000000E+00  0.00000000E+00  0.00000000E+00
  0.00000000E+00  0.00000000E+00  0.00000000E+00
  0.00000000E+00  0.00000000E+00  0.00000000E+00
  0.00000000E+00  0.00000000E+00  0.00000000E+00
  0.00000000E+00  0.00000000E+00  0.00000000E+00
  0.00000000E+00  0.00000000E+00  0.00000000E+00
  0.00000000E+00  0.00000000E+00  0.00000000E+00
  0.00000000E+00  0.00000000E+00  0.00000000E+00
  0.00000000E+00  0.00000000E+00  0.00000000E+00
  0.00000000E+00  0.00000000E+00  0.00000000E+00
  0.00000000E+00  0.00000000E+00  0.00000000E+00
  0.00000000E+00  0.00000000E+00  0.00000000E+00
  0.00000000E+00  0.00000000E+00  0.00000000E+00
  0.00000000E+00  0.00000000E+00  0.00000000E+00
  0.00000000E+00  0.00000000E+00  0.00000000E+00
  0.00000000E+00  0.00000000E+00  0.00000000E+00
  0.00000000E+00  0.00000000E+00  0.00000000E+00
  0.00000000E+00  0.00000000E+00  0.00000000E+00
  0.00000000E+00  0.00000000E+00  0.00000000E+00
  0.00000000E+00  0.00000000E+00  0.00000000E+00
  0.00000000E+00  0.00000000E+00  0.00000000E+00
  0.00000000E+00  0.00000000E+00  0.00000000E+00
  0.00000000E+00  0.00000000E+00  0.00000000E+00
  0.00000000E+00  0.00000000E+00  0.00000000E+00
  0.00000000E+00  0.00000000E+00  0.00000000E+00
  0.00000000E+00  0.00000000E+00  0.00000000E+00
  0.00000000E+00  0.00000000E+00  0.00000000E+00
  0.00000000E+00  0.00000000E+00  0.00000000E+00
  0.00000000E+00  0.00000000E+00  0.00000000E+00
  0.00000000E+00  0.00000000E+00  0.00000000E+00
  0.00000000E+00  0.00000000E+00  0.00000000E+00
  0.00000000E+00  0.00000000E+00  0.00000000E+00
  0.00000000E+00  0.00000000E+00  0.00000000E+00
  0.00000000E+00  0.00000000E+00  0.00000000E+00
  0.00000000E+00  0.00000000E+00  0.00000000E+00
  0.00000000E+00  0.00000000E+00  0.00000000E+00
  0.00000000E+00  0.00000000E+00  0.00000000E+00
  0.00000000E+00  0.00000000E+00  0.00000000E+00
