Sr   Ti   O                             
   1.00000000000000     
    11.1989999999999998    0.0000000000000000    0.0000000000000000
     0.0000000000000000   11.1989999999999998    0.0000000000000000
     0.0000000000000000    0.0000000000000000   15.9830000000000005
   Sr   Ti   O 
    32    32    94
Direct
  0.9997547307411202  0.2488390653629704  0.1246335150908238
  0.0022117097039924  0.2489000605410078  0.6252901012485061
  0.9992269462050004  0.7514252875008253  0.1252906472542092
  0.0020944421911552  0.7506620549557141  0.6266011137069507
  0.4989139984358091  0.2496564560860944  0.1261514555761844
  0.4992537309108363  0.2362631904188195  0.6205442156891766
  0.4994850467938801  0.7507084343171481  0.1228322074859326
  0.4965952069545276  0.7558702172661446  0.6261179184543720
  0.9995545918319384  0.2483774390974905  0.3753530806590766
  0.0025127635309277  0.2507422593091199  0.8759606401330842
  0.0012558850000587  0.7488867728664560  0.3750616586805945
  0.0014128323593046  0.7512420827875741  0.8755058130972828
  0.5004670342204928  0.2423064609343628  0.3714382042240067
  0.4990524650565875  0.2475557535223410  0.8782691839845836
  0.4962360349216848  0.7521502610644255  0.3699323668219178
  0.5020880620765944  0.7523289529986116  0.8760591102709110
  0.2497821377999927  0.0009649173189765  0.1247992604276700
  0.2485259549534712  0.9987427912350045  0.6245968769573114
  0.2502372218635883  0.5005280468855340  0.1250265451166686
  0.2369683840198134  0.5014221938413280  0.6253254640735986
  0.7499318136452358  0.9994039073875981  0.1248408421782815
  0.7519164754161016  0.9997565705215481  0.6261278416076218
  0.7499090478787409  0.5000948587051904  0.1243507373931992
  0.7682138212834326  0.4989943325303476  0.6279281354533788
  0.2485587529796147  0.9993128890692690  0.3739848922654653
  0.2505056692060070  1.0000886035682512  0.8752952632917366
  0.2434053165629843  0.5016973970805674  0.3743827547238877
  0.2497549727787753  0.5011977625978085  0.8767179717780665
  0.7502434325058027  0.0038136969782553  0.3715334827290722
  0.7511318351777937  0.9968813912519362  0.8766439007962311
  0.7564762647596117  0.4942123580103333  0.3698867759787360
  0.7555282687968149  0.5050969561461225  0.8789891739905109
  0.0001479545321361  0.0003549952790591  0.9996960890295467
  0.0010945655356957  0.0017171639175344  0.4997726011878800
  0.0007254857194563  0.4999841052683182  0.0007587908466433
  0.9984925688113754  0.4985170515746192  0.4993704197316878
  0.5001931570862713  0.0002371206219024  0.0001935919662879
  0.4996569663058106  0.9973153175215714  0.4989326310496852
  0.5004099712759252  0.4990883952038577  0.9997262400906549
  0.2509729074732727  0.2509668150887661  0.0002724968237703
  0.2483452453849357  0.2470835258157046  0.5002852556210046
  0.2507498834862610  0.7497268794988921  0.9998037274334249
  0.2486402215392481  0.7506131939682193  0.4994379791016221
  0.7492711764539058  0.2509581787968040  0.0001130287430731
  0.7479531185521451  0.2494953234889658  0.4998585866550964
  0.7506645957770477  0.7506540728440132  0.0005987792390616
  0.2500440172899857  0.2511338095254382  0.2505917929917638
  0.2515519253164354  0.2495835449232470  0.7487389222203784
  0.2488853320654374  0.7500708910564235  0.2493808117462672
  0.2517449304820786  0.7493247923133922  0.7498564606689935
  0.7505971654400150  0.2491293484974051  0.2487383506549885
  0.7527407289089409  0.2442192358399929  0.7506304328095205
  0.7489752462349193  0.7482501528040801  0.2504392627705482
  0.7519574303700085  0.7510868503996355  0.7500889974722165
  0.9998137988581068  0.0001947567313499  0.2508945374140119
  0.0035563368412504  0.9985885129879527  0.7502182844121293
  0.0001510639844947  0.4997801333975647  0.2490316643081306
  0.0016548845592755  0.5010090053476586  0.7520482445948086
  0.4999095332217303  0.9989732629856488  0.2490731515210192
  0.4995087804233567  0.0003575182510308  0.7507217548995945
  0.5005246448888120  0.5011463023053762  0.2475305258435310
  0.5009754407198745  0.5011978887886330  0.7527448505421815
  0.4929169264958768  0.4933635655554723  0.4933237066807242
  0.7541967930206388  0.7595809238021601  0.5009666579760862
  0.1113568768873592  0.1418993917656208  0.2495023615892981
  0.1098310949191772  0.1424110539417258  0.7535785544296983
  0.1087184285398643  0.6406235167043249  0.2498913991227907
  0.1110112417508136  0.6400586845078949  0.7496923731294288
  0.6109226750867197  0.1389476569393295  0.2490617524268644
  0.6069003125556596  0.1450394595713522  0.7503160348154663
  0.6086413565176633  0.6407957970303317  0.2430865772169530
  0.3926794385638817  0.3619733774317419  0.2537899971646066
  0.3999065359810479  0.3589432029346853  0.7360030846857387
  0.3890623323504285  0.8604198254181502  0.2487519796288507
  0.3905048960748442  0.8602721449933204  0.7514967979817325
  0.8902704540962444  0.3595309304546480  0.2514472474622829
  0.8821001088063573  0.3653333470611382  0.7493937068140745
  0.8880904711353801  0.8580835806260286  0.2548379185830073
  0.8905505047765772  0.8607474289745416  0.7527478695174068
  0.3611294501990860  0.1111169075548339  0.2512944605284165
  0.3588886518630420  0.1086773673339228  0.7495628053188448
  0.3592457496158719  0.6094642521087862  0.2541816762172346
  0.3595330534591274  0.6111145498028849  0.7421295002909107
  0.8597224742152102  0.1095811511761277  0.2485141135688125
  0.8588506703184691  0.1099193363354481  0.7514776521077586
  0.8589516170533653  0.6086276604976706  0.2495886000672738
  0.8649549529211658  0.6135666303435534  0.7510691722981467
  0.1408707453408763  0.3916918759246258  0.2498362416150914
  0.1412716093078149  0.3904086047854037  0.7509731555755764
  0.1393143382406908  0.8902505666515750  0.2471089433271263
  0.1414643086282063  0.8905450277156352  0.7514744183740419
  0.6405914046873021  0.3898962768867101  0.2485667142632197
  0.6400023559488934  0.8889978559950219  0.2515588846801335
  0.6396737071770944  0.8899424456188963  0.7505072474184636
  0.3590983254979150  0.3915600266938722  0.0007847354286528
  0.3599590387553867  0.8902501593350745  0.9999390756243078
  0.3578593859106342  0.8902252664008313  0.4995314308527331
  0.8595961260147281  0.3907181830315904  0.9998156352687178
  0.8586981577117003  0.3877275485920221  0.4992597271226864
  0.8597951248761815  0.8907157336932351  0.9994178587981837
  0.8542242037297538  0.8901319334356941  0.4944097059151586
  0.1408901502666796  0.1112774257596866  0.9994732894098191
  0.1433153748705442  0.1118607732163969  0.4981529544043422
  0.1408342194062465  0.6093002193162711  0.0000729080519463
  0.1316882426104937  0.6135168959267766  0.4993903907977963
  0.6409618839198095  0.1097119034177474  0.9989245433521442
  0.6421263334702961  0.1035367953407880  0.5012882565579813
  0.6405783828838615  0.6095446751342781  0.0013958213644221
  0.1098903216020242  0.3593213936848046 -0.0000492075108710
  0.1098309531664363  0.3610687187015516  0.4998183377791998
  0.1104669842477648  0.8598165075430528  0.0003545923933883
  0.1068463775669402  0.8591955490844650  0.4994793148726585
  0.6091766816940730  0.3585000788885292  0.0066516444755090
  0.6099212326089156  0.8597610362445953  0.0000335831107485
  0.6028756104519440  0.8478511293084764  0.4999903138530954
  0.3905904761071303  0.1404381014198380  0.0007757704717475
  0.3911616160972730  0.1392065055211832  0.4984543166836931
  0.3915580850195891  0.6405043177478151  0.9979752450467837
  0.3814002600472433  0.6356374155574520  0.4958139763412394
  0.8894350142713240  0.1415485221604777  0.9959865408481934
  0.8883709908359566  0.1414702381238799  0.5040113149155808
  0.8904880924514084  0.6402265588746041  0.9990879517699693
  0.9977190859033154  0.0008048824600786  0.1240482280043280
 -0.0000087523025929  0.9996766445338326  0.6284449046588575
  0.9992931667998181  0.4995431029644515  0.1249391040923296
  0.0019820266974719  0.4985976871970013  0.6253337659633230
  0.5008487316678464  0.9997204925759855  0.1249213334301600
  0.5001712259249074  0.9992212035943284  0.6247827379638675
  0.4948271193705879  0.5007338366246394  0.1257199527849359
  0.0005399028494162  0.0040162442196904  0.3720848741373393
  0.0010519266937527  0.9997875279038433  0.8759557369472332
  0.9992243035874205  0.5011209295805620  0.3750481280846616
  0.0011587699120577  0.4989016117849773  0.8753592703279379
  0.5013942320181712  0.9987875895147125  0.3749192530835195
  0.5002562737763310  0.0003667303606268  0.8751616802973480
  0.5058519901469882  0.4897819111074054  0.8774822463666969
  0.2535512928038872  0.2567204342141732  0.3759150646541065
  0.2573683567163343  0.2552883002283551  0.8739933294106749
  0.2456846022125531  0.7536621791707774  0.3739548972096631
  0.2514750770905025  0.7475097356005099  0.8745776709205877
  0.7505390622056064  0.2462796540395569  0.3746712293881608
  0.7401732869146739  0.2615872603195798  0.8732122159370926
  0.7365913637538251  0.7331042110757499  0.3781985075818130
  0.7485478797310076  0.7500705227071768  0.8756038668021402
  0.2528827262558433  0.2521301476775035  0.1255529141123082
  0.2438977917195997  0.2446153473310127  0.6254833538295148
  0.2519724334931659  0.7471636732694615  0.1247814909413434
  0.2468533350751080  0.7531958346097297  0.6240345927585340
  0.7535022926930675  0.2483178045454452  0.1246966701878470
  0.7406076979659427  0.2576613043577987  0.6267720672873121
  0.7532672631002434  0.7524740601089367  0.1251611917136541
  0.6186538150005466  0.6315102463786649  0.7501392593285696
  0.5173816000309553  0.5139598700640052  0.3762542048981196
  0.6038434413282014  0.3533202499263003  0.4947451796257310
  0.3603908546031623  0.3913909877473688  0.5137351365744455
  0.7535808758315670  0.7563318278986642  0.6251711328685432
  0.8747070850083395  0.6316728580928045  0.5025715578408280
  0.5821552835492930  0.5688405690912732  0.5745764138162730
 
  0.00000000E+00  0.00000000E+00  0.00000000E+00
  0.00000000E+00  0.00000000E+00  0.00000000E+00
  0.00000000E+00  0.00000000E+00  0.00000000E+00
  0.00000000E+00  0.00000000E+00  0.00000000E+00
  0.00000000E+00  0.00000000E+00  0.00000000E+00
  0.00000000E+00  0.00000000E+00  0.00000000E+00
  0.00000000E+00  0.00000000E+00  0.00000000E+00
  0.00000000E+00  0.00000000E+00  0.00000000E+00
  0.00000000E+00  0.00000000E+00  0.00000000E+00
  0.00000000E+00  0.00000000E+00  0.00000000E+00
  0.00000000E+00  0.00000000E+00  0.00000000E+00
  0.00000000E+00  0.00000000E+00  0.00000000E+00
  0.00000000E+00  0.00000000E+00  0.00000000E+00
  0.00000000E+00  0.00000000E+00  0.00000000E+00
  0.00000000E+00  0.00000000E+00  0.00000000E+00
  0.00000000E+00  0.00000000E+00  0.00000000E+00
  0.00000000E+00  0.00000000E+00  0.00000000E+00
  0.00000000E+00  0.00000000E+00  0.00000000E+00
  0.00000000E+00  0.00000000E+00  0.00000000E+00
  0.00000000E+00  0.00000000E+00  0.00000000E+00
  0.00000000E+00  0.00000000E+00  0.00000000E+00
  0.00000000E+00  0.00000000E+00  0.00000000E+00
  0.00000000E+00  0.00000000E+00  0.00000000E+00
  0.00000000E+00  0.00000000E+00  0.00000000E+00
  0.00000000E+00  0.00000000E+00  0.00000000E+00
  0.00000000E+00  0.00000000E+00  0.00000000E+00
  0.00000000E+00  0.00000000E+00  0.00000000E+00
  0.00000000E+00  0.00000000E+00  0.00000000E+00
  0.00000000E+00  0.00000000E+00  0.00000000E+00
  0.00000000E+00  0.00000000E+00  0.00000000E+00
  0.00000000E+00  0.00000000E+00  0.00000000E+00
  0.00000000E+00  0.00000000E+00  0.00000000E+00
  0.00000000E+00  0.00000000E+00  0.00000000E+00
  0.00000000E+00  0.00000000E+00  0.00000000E+00
  0.00000000E+00  0.00000000E+00  0.00000000E+00
  0.00000000E+00  0.00000000E+00  0.00000000E+00
  0.00000000E+00  0.00000000E+00  0.00000000E+00
  0.00000000E+00  0.00000000E+00  0.00000000E+00
  0.00000000E+00  0.00000000E+00  0.00000000E+00
  0.00000000E+00  0.00000000E+00  0.00000000E+00
  0.00000000E+00  0.00000000E+00  0.00000000E+00
  0.00000000E+00  0.00000000E+00  0.00000000E+00
  0.00000000E+00  0.00000000E+00  0.00000000E+00
  0.00000000E+00  0.00000000E+00  0.00000000E+00
  0.00000000E+00  0.00000000E+00  0.00000000E+00
  0.00000000E+00  0.00000000E+00  0.00000000E+00
  0.00000000E+00  0.00000000E+00  0.00000000E+00
  0.00000000E+00  0.00000000E+00  0.00000000E+00
  0.00000000E+00  0.00000000E+00  0.00000000E+00
  0.00000000E+00  0.00000000E+00  0.00000000E+00
  0.00000000E+00  0.00000000E+00  0.00000000E+00
  0.00000000E+00  0.00000000E+00  0.00000000E+00
  0.00000000E+00  0.00000000E+00  0.00000000E+00
  0.00000000E+00  0.00000000E+00  0.00000000E+00
  0.00000000E+00  0.00000000E+00  0.00000000E+00
  0.00000000E+00  0.00000000E+00  0.00000000E+00
  0.00000000E+00  0.00000000E+00  0.00000000E+00
  0.00000000E+00  0.00000000E+00  0.00000000E+00
  0.00000000E+00  0.00000000E+00  0.00000000E+00
  0.00000000E+00  0.00000000E+00  0.00000000E+00
  0.00000000E+00  0.00000000E+00  0.00000000E+00
  0.00000000E+00  0.00000000E+00  0.00000000E+00
  0.00000000E+00  0.00000000E+00  0.00000000E+00
  0.00000000E+00  0.00000000E+00  0.00000000E+00
  0.00000000E+00  0.00000000E+00  0.00000000E+00
  0.00000000E+00  0.00000000E+00  0.00000000E+00
  0.00000000E+00  0.00000000E+00  0.00000000E+00
  0.00000000E+00  0.00000000E+00  0.00000000E+00
  0.00000000E+00  0.00000000E+00  0.00000000E+00
  0.00000000E+00  0.00000000E+00  0.00000000E+00
  0.00000000E+00  0.00000000E+00  0.00000000E+00
  0.00000000E+00  0.00000000E+00  0.00000000E+00
  0.00000000E+00  0.00000000E+00  0.00000000E+00
  0.00000000E+00  0.00000000E+00  0.00000000E+00
  0.00000000E+00  0.00000000E+00  0.00000000E+00
  0.00000000E+00  0.00000000E+00  0.00000000E+00
  0.00000000E+00  0.00000000E+00  0.00000000E+00
  0.00000000E+00  0.00000000E+00  0.00000000E+00
  0.00000000E+00  0.00000000E+00  0.00000000E+00
  0.00000000E+00  0.00000000E+00  0.00000000E+00
  0.00000000E+00  0.00000000E+00  0.00000000E+00
  0.00000000E+00  0.00000000E+00  0.00000000E+00
  0.00000000E+00  0.00000000E+00  0.00000000E+00
  0.00000000E+00  0.00000000E+00  0.00000000E+00
  0.00000000E+00  0.00000000E+00  0.00000000E+00
  0.00000000E+00  0.00000000E+00  0.00000000E+00
  0.00000000E+00  0.00000000E+00  0.00000000E+00
  0.00000000E+00  0.00000000E+00  0.00000000E+00
  0.00000000E+00  0.00000000E+00  0.00000000E+00
  0.00000000E+00  0.00000000E+00  0.00000000E+00
  0.00000000E+00  0.00000000E+00  0.00000000E+00
  0.00000000E+00  0.00000000E+00  0.00000000E+00
  0.00000000E+00  0.00000000E+00  0.00000000E+00
  0.00000000E+00  0.00000000E+00  0.00000000E+00
  0.00000000E+00  0.00000000E+00  0.00000000E+00
  0.00000000E+00  0.00000000E+00  0.00000000E+00
  0.00000000E+00  0.00000000E+00  0.00000000E+00
  0.00000000E+00  0.00000000E+00  0.00000000E+00
  0.00000000E+00  0.00000000E+00  0.00000000E+00
  0.00000000E+00  0.00000000E+00  0.00000000E+00
  0.00000000E+00  0.00000000E+00  0.00000000E+00
  0.00000000E+00  0.00000000E+00  0.00000000E+00
  0.00000000E+00  0.00000000E+00  0.00000000E+00
  0.00000000E+00  0.00000000E+00  0.00000000E+00
  0.00000000E+00  0.00000000E+00  0.00000000E+00
  0.00000000E+00  0.00000000E+00  0.00000000E+00
  0.00000000E+00  0.00000000E+00  0.00000000E+00
  0.00000000E+00  0.00000000E+00  0.00000000E+00
  0.00000000E+00  0.00000000E+00  0.00000000E+00
  0.00000000E+00  0.00000000E+00  0.00000000E+00
  0.00000000E+00  0.00000000E+00  0.00000000E+00
  0.00000000E+00  0.00000000E+00  0.00000000E+00
  0.00000000E+00  0.00000000E+00  0.00000000E+00
  0.00000000E+00  0.00000000E+00  0.00000000E+00
  0.00000000E+00  0.00000000E+00  0.00000000E+00
  0.00000000E+00  0.00000000E+00  0.00000000E+00
  0.00000000E+00  0.00000000E+00  0.00000000E+00
  0.00000000E+00  0.00000000E+00  0.00000000E+00
  0.00000000E+00  0.00000000E+00  0.00000000E+00
  0.00000000E+00  0.00000000E+00  0.00000000E+00
  0.00000000E+00  0.00000000E+00  0.00000000E+00
  0.00000000E+00  0.00000000E+00  0.00000000E+00
  0.00000000E+00  0.00000000E+00  0.00000000E+00
  0.00000000E+00  0.00000000E+00  0.00000000E+00
  0.00000000E+00  0.00000000E+00  0.00000000E+00
  0.00000000E+00  0.00000000E+00  0.00000000E+00
  0.00000000E+00  0.00000000E+00  0.00000000E+00
  0.00000000E+00  0.00000000E+00  0.00000000E+00
  0.00000000E+00  0.00000000E+00  0.00000000E+00
  0.00000000E+00  0.00000000E+00  0.00000000E+00
  0.00000000E+00  0.00000000E+00  0.00000000E+00
  0.00000000E+00  0.00000000E+00  0.00000000E+00
  0.00000000E+00  0.00000000E+00  0.00000000E+00
  0.00000000E+00  0.00000000E+00  0.00000000E+00
  0.00000000E+00  0.00000000E+00  0.00000000E+00
  0.00000000E+00  0.00000000E+00  0.00000000E+00
  0.00000000E+00  0.00000000E+00  0.00000000E+00
  0.00000000E+00  0.00000000E+00  0.00000000E+00
  0.00000000E+00  0.00000000E+00  0.00000000E+00
  0.00000000E+00  0.00000000E+00  0.00000000E+00
  0.00000000E+00  0.00000000E+00  0.00000000E+00
  0.00000000E+00  0.00000000E+00  0.00000000E+00
  0.00000000E+00  0.00000000E+00  0.00000000E+00
  0.00000000E+00  0.00000000E+00  0.00000000E+00
  0.00000000E+00  0.00000000E+00  0.00000000E+00
  0.00000000E+00  0.00000000E+00  0.00000000E+00
  0.00000000E+00  0.00000000E+00  0.00000000E+00
  0.00000000E+00  0.00000000E+00  0.00000000E+00
  0.00000000E+00  0.00000000E+00  0.00000000E+00
  0.00000000E+00  0.00000000E+00  0.00000000E+00
  0.00000000E+00  0.00000000E+00  0.00000000E+00
  0.00000000E+00  0.00000000E+00  0.00000000E+00
  0.00000000E+00  0.00000000E+00  0.00000000E+00
  0.00000000E+00  0.00000000E+00  0.00000000E+00
  0.00000000E+00  0.00000000E+00  0.00000000E+00
  0.00000000E+00  0.00000000E+00  0.00000000E+00
  0.00000000E+00  0.00000000E+00  0.00000000E+00
  0.00000000E+00  0.00000000E+00  0.00000000E+00
