SrTiO3 
1.000000 
15.837000 0.000000 0.000000 
0.000000 15.837000 0.000000 
0.000000 0.000000 15.983000 
Sr Ti Fe O VO 
64 40 24 186 6 
Direct 
0.125000 0.125000 0.125000 
0.625000 0.625000 0.125000 
0.625000 0.625000 0.625000 
0.875000 0.875000 0.125000 
0.875000 0.875000 0.625000 
0.125000 0.125000 0.625000 
0.375000 0.375000 0.125000 
0.375000 0.375000 0.625000 
0.875000 0.375000 0.125000 
0.875000 0.375000 0.625000 
0.125000 0.625000 0.125000 
0.125000 0.625000 0.625000 
0.375000 0.875000 0.125000 
0.375000 0.875000 0.625000 
0.625000 0.125000 0.125000 
0.625000 0.125000 0.625000 
0.125000 0.125000 0.375000 
0.625000 0.625000 0.375000 
0.625000 0.625000 0.875000 
0.875000 0.875000 0.375000 
0.875000 0.875000 0.875000 
0.125000 0.125000 0.875000 
0.375000 0.375000 0.375000 
0.375000 0.375000 0.875000 
0.875000 0.375000 0.375000 
0.875000 0.375000 0.875000 
0.125000 0.625000 0.375000 
0.125000 0.625000 0.875000 
0.375000 0.875000 0.375000 
0.375000 0.875000 0.875000 
0.625000 0.125000 0.375000 
0.625000 0.125000 0.875000 
0.125000 0.375000 0.125000 
0.625000 0.875000 0.125000 
0.625000 0.875000 0.625000 
0.875000 0.125000 0.125000 
0.875000 0.125000 0.625000 
0.125000 0.375000 0.625000 
0.375000 0.625000 0.125000 
0.375000 0.625000 0.625000 
0.875000 0.625000 0.125000 
0.875000 0.625000 0.625000 
0.125000 0.875000 0.125000 
0.125000 0.875000 0.625000 
0.375000 0.125000 0.125000 
0.375000 0.125000 0.625000 
0.625000 0.375000 0.125000 
0.625000 0.375000 0.625000 
0.125000 0.375000 0.375000 
0.625000 0.875000 0.375000 
0.625000 0.875000 0.875000 
0.875000 0.125000 0.375000 
0.875000 0.125000 0.875000 
0.125000 0.375000 0.875000 
0.375000 0.625000 0.375000 
0.375000 0.625000 0.875000 
0.875000 0.625000 0.375000 
0.875000 0.625000 0.875000 
0.125000 0.875000 0.375000 
0.125000 0.875000 0.875000 
0.375000 0.125000 0.375000 
0.375000 0.125000 0.875000 
0.625000 0.375000 0.375000 
0.625000 0.375000 0.875000 
0.500000 0.250000 0.250000 
0.250000 0.250000 0.250000 
0.000000 0.000000 0.500000 
0.250000 0.000000 0.000000 
0.500000 0.250000 0.750000 
0.000000 0.750000 0.750000 
0.000000 0.250000 0.250000 
0.750000 0.750000 0.250000 
0.500000 0.750000 0.250000 
0.750000 0.500000 0.250000 
0.750000 0.250000 0.000000 
0.750000 0.000000 0.500000 
0.000000 0.500000 0.500000 
0.500000 0.250000 0.500000 
0.500000 0.500000 0.000000 
0.750000 0.750000 0.000000 
0.000000 0.500000 0.000000 
0.500000 0.250000 0.000000 
0.750000 0.250000 0.500000 
0.250000 0.750000 0.250000 
0.250000 0.000000 0.500000 
0.250000 0.250000 0.500000 
0.000000 0.250000 0.500000 
0.750000 0.500000 0.000000 
0.750000 0.000000 0.250000 
0.750000 0.000000 0.750000 
0.750000 0.500000 0.500000 
0.250000 0.750000 0.500000 
0.000000 0.500000 0.750000 
0.250000 0.500000 0.500000 
0.000000 0.000000 0.750000 
0.250000 0.500000 0.000000 
0.500000 0.750000 0.000000 
0.000000 0.250000 0.000000 
0.250000 0.750000 0.750000 
0.750000 0.500000 0.750000 
0.500000 0.000000 0.500000 
0.000000 0.500000 0.250000 
0.000000 0.000000 0.000000 
0.500000 0.000000 0.000000 
0.000000 0.250000 0.750000 
0.500000 0.750000 0.500000 
0.500000 0.000000 0.250000 
0.250000 0.500000 0.750000 
0.500000 0.750000 0.750000 
0.750000 0.000000 0.000000 
0.750000 0.250000 0.250000 
0.250000 0.000000 0.750000 
0.250000 0.500000 0.250000 
0.500000 0.500000 0.250000 
0.250000 0.750000 0.000000 
0.250000 0.250000 0.750000 
0.750000 0.250000 0.750000 
0.250000 0.000000 0.250000 
0.750000 0.750000 0.750000 
0.000000 0.750000 0.500000 
0.250000 0.250000 0.000000 
0.000000 0.000000 0.250000 
0.500000 0.500000 0.750000 
0.750000 0.750000 0.500000 
0.500000 0.000000 0.750000 
0.000000 0.750000 0.250000 
0.500000 0.500000 0.500000 
0.000000 0.750000 0.000000 
0.000000 0.250000 0.625000 
0.250000 0.750000 0.625000 
0.875000 0.516000 0.500000 
0.250000 0.500000 0.875000 
0.234000 0.375000 0.250000 
0.125000 0.984000 0.500000 
0.875000 0.984000 0.250000 
0.625000 0.734000 0.250000 
0.984000 0.375000 0.500000 
0.875000 0.234000 0.500000 
0.625000 0.016000 0.250000 
0.500000 0.250000 0.875000 
0.266000 0.875000 0.500000 
0.500000 0.500000 0.625000 
0.734000 0.375000 0.250000 
0.125000 0.484000 0.500000 
0.875000 0.766000 0.250000 
0.000000 0.250000 0.875000 
0.375000 0.766000 0.750000 
0.234000 0.625000 0.000000 
0.375000 0.484000 0.750000 
0.625000 0.266000 0.500000 
0.766000 0.625000 0.250000 
0.750000 0.750000 0.625000 
0.766000 0.875000 0.500000 
0.500000 0.500000 0.125000 
0.750000 0.500000 0.625000 
0.250000 0.000000 0.375000 
0.250000 0.500000 0.125000 
0.266000 0.625000 0.750000 
0.516000 0.625000 0.000000 
0.000000 0.750000 0.125000 
0.000000 0.250000 0.375000 
0.016000 0.875000 0.750000 
0.000000 0.750000 0.375000 
0.750000 0.750000 0.125000 
0.500000 0.750000 0.125000 
0.250000 0.750000 0.875000 
0.234000 0.125000 0.000000 
0.250000 0.000000 0.625000 
0.234000 0.875000 0.250000 
0.375000 0.516000 0.000000 
0.625000 0.984000 0.000000 
0.500000 0.250000 0.375000 
0.750000 0.250000 0.375000 
0.516000 0.375000 0.250000 
0.250000 0.250000 0.875000 
0.875000 0.266000 0.250000 
0.500000 0.250000 0.625000 
0.750000 0.000000 0.875000 
0.125000 0.766000 0.000000 
0.750000 0.000000 0.125000 
0.750000 0.750000 0.875000 
0.734000 0.125000 0.500000 
0.500000 0.000000 0.125000 
0.266000 0.375000 0.500000 
0.875000 0.266000 0.750000 
0.125000 0.234000 0.250000 
0.484000 0.375000 0.500000 
0.250000 0.500000 0.625000 
0.766000 0.375000 0.000000 
0.516000 0.875000 0.750000 
0.500000 0.000000 0.375000 
0.000000 0.500000 0.375000 
0.250000 0.250000 0.375000 
0.875000 0.766000 0.750000 
0.875000 0.016000 0.500000 
0.000000 0.000000 0.375000 
0.984000 0.125000 0.750000 
0.750000 0.750000 0.375000 
0.375000 0.266000 0.750000 
0.234000 0.875000 0.750000 
0.875000 0.016000 0.000000 
0.484000 0.125000 0.750000 
0.750000 0.500000 0.125000 
0.984000 0.125000 0.250000 
0.125000 0.234000 0.750000 
0.234000 0.125000 0.500000 
0.000000 0.750000 0.625000 
0.375000 0.016000 0.500000 
0.375000 0.234000 0.500000 
0.625000 0.516000 0.750000 
0.266000 0.875000 0.000000 
0.484000 0.625000 0.750000 
0.766000 0.125000 0.750000 
0.375000 0.984000 0.250000 
0.500000 0.750000 0.625000 
0.375000 0.734000 0.500000 
0.766000 0.875000 0.000000 
0.625000 0.516000 0.250000 
0.625000 0.016000 0.750000 
0.750000 0.250000 0.125000 
0.875000 0.516000 0.000000 
0.250000 0.500000 0.375000 
0.016000 0.375000 0.750000 
0.484000 0.875000 0.000000 
0.750000 0.250000 0.875000 
0.125000 0.266000 0.500000 
0.734000 0.875000 0.250000 
0.984000 0.875000 0.000000 
0.766000 0.125000 0.250000 
0.125000 0.266000 0.000000 
0.016000 0.125000 0.000000 
0.484000 0.875000 0.500000 
0.984000 0.375000 0.000000 
0.625000 0.266000 0.000000 
0.625000 0.766000 0.000000 
0.484000 0.375000 0.000000 
0.516000 0.125000 0.500000 
0.516000 0.625000 0.500000 
0.250000 0.750000 0.375000 
0.500000 0.500000 0.375000 
0.750000 0.500000 0.375000 
0.375000 0.766000 0.250000 
0.500000 0.000000 0.875000 
0.250000 0.250000 0.625000 
0.250000 0.250000 0.125000 
0.000000 0.000000 0.125000 
0.016000 0.125000 0.500000 
0.125000 0.734000 0.250000 
0.625000 0.484000 0.000000 
0.500000 0.500000 0.875000 
0.375000 0.734000 0.000000 
0.484000 0.625000 0.250000 
0.625000 0.484000 0.500000 
0.000000 0.000000 0.625000 
0.484000 0.125000 0.250000 
0.500000 0.250000 0.125000 
0.516000 0.125000 0.000000 
0.000000 0.750000 0.875000 
0.375000 0.984000 0.750000 
0.625000 0.234000 0.250000 
0.750000 0.500000 0.875000 
0.125000 0.766000 0.500000 
0.375000 0.266000 0.250000 
0.375000 0.016000 0.000000 
0.125000 0.516000 0.250000 
0.375000 0.516000 0.500000 
0.500000 0.750000 0.375000 
0.875000 0.484000 0.250000 
0.000000 0.250000 0.125000 
0.125000 0.484000 0.000000 
0.250000 0.000000 0.875000 
0.766000 0.625000 0.750000 
0.516000 0.875000 0.250000 
0.516000 0.375000 0.750000 
0.875000 0.234000 0.000000 
0.375000 0.484000 0.250000 
0.375000 0.234000 0.000000 
0.125000 0.734000 0.750000 
0.234000 0.375000 0.750000 
0.875000 0.984000 0.750000 
0.500000 0.750000 0.875000 
0.125000 0.516000 0.750000 
0.016000 0.625000 0.500000 
0.000000 0.500000 0.125000 
0.625000 0.234000 0.750000 
0.125000 0.016000 0.750000 
0.016000 0.375000 0.250000 
0.625000 0.984000 0.500000 
0.000000 0.500000 0.875000 
0.734000 0.625000 0.000000 
0.984000 0.625000 0.250000 
0.000000 0.000000 0.875000 
0.234000 0.625000 0.500000 
0.125000 0.016000 0.250000 
0.766000 0.375000 0.500000 
0.734000 0.375000 0.750000 
0.016000 0.875000 0.250000 
0.250000 0.750000 0.125000 
0.875000 0.484000 0.750000 
0.266000 0.125000 0.750000 
0.875000 0.734000 0.000000 
0.250000 0.000000 0.125000 
0.750000 0.250000 0.625000 
0.266000 0.625000 0.250000 
0.016000 0.625000 0.000000 
0.000000 0.500000 0.625000 
0.734000 0.125000 0.000000 
0.266000 0.375000 0.000000 
0.984000 0.625000 0.750000 
0.625000 0.766000 0.500000 
0.125000 0.984000 0.000000 
0.500000 0.000000 0.625000 
0.984000 0.875000 0.500000 
0.750000 0.000000 0.625000 
0.734000 0.625000 0.500000 
0.266000 0.125000 0.250000 
0.734000 0.875000 0.750000 
0.750000 0.000000 0.375000 
0.875000 0.734000 0.500000 
0.625000 0.734000 0.750000 
