SrTiFeO                                 
   1.00000000000000     
    11.1989999999999998    0.0000000000000000    0.0000000000000000
     0.0000000000000000   11.1989999999999998    0.0000000000000000
     0.0000000000000000    0.0000000000000000   15.9830000000000005
   Sr   Ti   Fe   O 
    32    29     3    94
Direct
  0.9998712470865654  0.2506542920607966  0.1239588155803380
  0.0009075784624670  0.2437170502950351  0.6293159023282805
  0.9979103080928331  0.7499472511893309  0.1248280065068691
  0.0063714212938823  0.7546101097971436  0.6286994356844743
  0.4996345886356757  0.2514476338584096  0.1252148566188389
  0.5029899890889511  0.2516781084153595  0.6262913226063753
  0.5009598231492606  0.7493467460611954  0.1233497470183996
  0.4971607315758693  0.7459062970768755  0.6291873288565996
  0.0010417097176058  0.2437820216635546  0.3715627071515509
  0.9999136158634379  0.2503984890219250  0.8750830514674395
  0.0063027054419520  0.7544388250655014  0.3725572591199429
  0.9978936294759241  0.7499203118199919  0.8743734628708038
  0.5025033063743525  0.2484745210460296  0.3750620918475202
  0.4999358268393614  0.2535419717835530  0.8727895928567957
  0.4968193926669727  0.7496987556067498  0.3718237416139619
  0.5008247489473269  0.7474925677604944  0.8748719093349701
  0.2503208896878439  0.0002709228188634  0.1247467789186687
  0.2503150906865640  0.9996527589193028  0.6267203159027074
  0.2505246056285964  0.5002060636272663  0.1247348436352828
  0.2556867249864085  0.5022684822037280  0.6282841915445299
  0.7491832626542690  0.9979038813663258  0.1250833362465190
  0.7527723487776569  0.0027280054024968  0.6252377077730557
  0.7484671555422868  0.5002118573443870  0.1228860856333399
  0.7475558837013857  0.4928582341389923  0.6339886145397025
  0.2501687516480516  0.9995659840169422  0.3740850732201927
  0.2499925337223992  0.0001021840075327  0.8744343778509046
  0.2518076661121642  0.5030199342871328  0.3737243714244701
  0.2523127981306554  0.4999326897012005  0.8737111275459193
  0.7529207963449162  0.0028231633350178  0.3756125378700719
  0.7494503047558980  0.9976299934687936  0.8738806091594464
  0.7506188326215654  0.4922288801357393  0.3669918094951515
  0.7464202330336881  0.5005768066430996  0.8754649005280734
  0.9996699277968555  0.9994681991586338  0.9999497105285897
  0.0009874693612481  0.0004647850089352  0.5001230460928083
  0.0006387168801068  0.4993756049049055  0.9995737308456418
  0.0072492405701826  0.4864986877289169  0.5004475002233824
  0.5004613530771927  0.9999303315520041  0.9996358100119106
  0.5003235909648414  0.9961456964641091  0.5004470543986620
  0.4991977692372535  0.4995644926609648  0.9987809516619873
  0.2503091863407930  0.2508272373032812  0.9998177660354605
  0.2541948334551771  0.2426087428264534  0.5002371403484359
  0.2496928255433166  0.7501200435852621  0.9997966209451619
  0.2517367793411541  0.7515166950272532  0.5001223975631540
  0.7502577881035799  0.2492284508155239  0.9998205121417136
  0.7483152421845390  0.2521718819007524  0.5001093066693449
  0.7499456857068024  0.7509535436391745  0.9997198855208049
  0.2507054340305640  0.2501508698225691  0.2505846958407646
  0.2522052824053426  0.2512213780373869  0.7494047829281822
  0.2503293193230836  0.7502680170375234  0.2489881761677644
  0.2517421261011822  0.7488153161739477  0.7508932999310793
  0.7502781977671382  0.2487399218297554  0.2490128918337787
  0.7491595093844121  0.2501100874712925  0.7510950892441054
  0.7503017475668832  0.7475749361817233  0.2526776146571825
  0.7489501301177867  0.7462466418536144  0.7469112323748168
  0.0002243319818108  0.9998649873350358  0.2494624166350826
  0.0002547526865236  0.9997623031364928  0.7505193395994263
  0.9997830450130818  0.5010163178628748  0.2495280489072345
  0.9997588946813406  0.5009839853427344  0.7501763729962688
  0.5007405478634018  0.9996600538762228  0.2504495140367684
  0.5007773361876449  0.9995965584958445  0.7494210415090189
  0.5006430680476173  0.5007853122772468  0.2507234880005751
  0.5010299966425920  0.5007708243933601  0.7492559378356830
  0.4854747612603290  0.4898593377188393  0.5000552967970140
  0.7466835804399262  0.7634678490459355  0.4999780049056421
  0.1097614550626692  0.1405783884619882  0.2467387516869822
  0.1105513095717590  0.1394955908392411  0.7530872321859695
  0.1091674914000960  0.6408284265504556  0.2497419880941305
  0.1098245378749906  0.6400985156401543  0.7504648972975231
  0.6104329244701451  0.1397175462616191  0.2500028759082436
  0.6112881798242338  0.1382731030870681  0.7500165856733825
  0.6097252301055101  0.6404284060222466  0.2459687916688362
  0.3902845327329728  0.3611614847643527  0.2551886831981911
  0.3878732623019239  0.3610652812121126  0.7452977367066290
  0.3901106407638284  0.8600430355170796  0.2491958704850609
  0.3895066268915105  0.8612329567961386  0.7503830542624381
  0.8902516564779184  0.3602578230867418  0.2524816647958284
  0.8900238625523358  0.3605773589776131  0.7477546578869746
  0.8896584064569689  0.8586650370325766  0.2553032980332274
  0.8892200105383604  0.8595942305282654  0.7453396989828219
  0.3601675362830078  0.1103422565775666  0.2483057216717214
  0.3607799634917020  0.1106424241100921  0.7518966920461385
  0.3593496365866606  0.6099851098092308  0.2509580609058814
  0.3596222318194473  0.6125404931064943  0.7496772251776058
  0.8596330603799889  0.1089077475799161  0.2498636828010287
  0.8606871282235456  0.1097870455543775  0.7497817594269340
  0.8596780838342664  0.6083337290838783  0.2440574285380382
  0.8610027535326386  0.6089893131260982  0.7561600876255543
  0.1391226406773689  0.3914994820561769  0.2551931102896794
  0.1380145272432265  0.3907124344606893  0.7447865417155113
  0.1395701652546756  0.8899300218627905  0.2504593121779469
  0.1387627566917086  0.8890468671961883  0.7492246240144819
  0.6398169827304314  0.3887051599220556  0.2484190575032356
  0.6410945011740424  0.8884845382845387  0.2569653177087763
  0.6406757905899966  0.8882117857435847  0.7432766166627235
  0.3586752172838426  0.3906823888558250  0.0006880184502455
  0.3591806061135281  0.8913692789523592  0.0003431317056544
  0.3527593244496901  0.8962656857404281  0.4998373313016209
  0.8597153425937264  0.3905920397161670  0.9999548650462111
  0.8504757511460947  0.4087262388891241  0.5001550983783625
  0.8592808544658007  0.8911489732262400  0.0003982601405977
  0.8679332105155646  0.8930290391738331  0.4992751417844876
  0.1409921982401392  0.1092692060353471  0.0005039219261943
  0.1447430336434971  0.1075267655753534  0.4997131237921369
  0.1407708606259478  0.6089069198497478  0.9999806130088119
  0.1285429327290381  0.6146739702135738  0.4997278886392287
  0.6415625198863549  0.1088850037378708  0.0003189618863514
  0.6433703098451836  0.1082048508721256  0.4997078986948915
  0.6402536977513075  0.6103938591786883  0.0009428775478689
  0.1091351204083479  0.3583055911551001  0.0002810434327986
  0.1024487516758010  0.3531493549181502  0.4998925858047545
  0.1089877825135017  0.8590274198712620  0.0003694498232417
  0.1099252327133904  0.8604771408580002  0.4997117281599576
  0.6101540114812054  0.3589114451292589  0.0007411259567403
  0.6089889461669888  0.8593106757172980  0.0000975610627626
  0.5936133851584745  0.8533778225533838  0.5001620669767711
  0.3910051157738192  0.1406640407766925  0.0000776245544997
  0.3948274474946317  0.1457363506274272  0.5001009326394086
  0.3901446451683093  0.6411688772265552  0.0006946868119456
  0.3903751202752072  0.6439444676098290  0.4986090247837986
  0.8918781036372517  0.1407067155916779  0.0004155929187589
  0.8938194137122044  0.1478187677920537  0.4997964722593295
  0.8905024127273786  0.6398586011319572  0.0003600924575798
  0.9981952684389779  0.9968338308376771  0.1254281486070496
  0.0024804570802563  0.0046438054287059  0.6252995919147551
  0.0029230615504702  0.4967815641774975  0.1253980689073205
  0.9901277190520058  0.5132912266608090  0.6218043773574065
  0.5032670976568152  0.9980814844126439  0.1256408135492232
  0.4972263625808592  0.0036624465506269  0.6249001052428018
  0.4975700505326525  0.4979160874729701  0.1258762648066421
  0.0027719195671297  0.0051008018867352  0.3740852177771249
  0.9983934996837834  0.9971617014965644  0.8752194049827435
  0.9901245607479784  0.5131986497621898  0.3783585925858814
  0.0030987548856081  0.4967303673243229  0.8748354314073877
  0.4969625278005264  0.0031036098099882  0.3750012264343568
  0.5031440218077640  0.9978542282038146  0.8745618849146136
  0.4983757035874498  0.4983890992085013  0.8769974055565699
  0.2480405626963721  0.2461726810272395  0.3750854896406025
  0.2504850981325892  0.2541386525626634  0.8748391282714774
  0.2487715754911575  0.7504090951945409  0.3742883108050401
  0.2496122728671608  0.7511201099308594  0.8754765243748390
  0.7513526122463235  0.2494294650606385  0.3747124891932773
  0.7522847729609942  0.2487810821353368  0.8754948554190620
  0.7529352344083020  0.7246659727084066  0.3794784700006705
  0.7508145963841460  0.7547780976059696  0.8750545335603580
  0.2511354525421520  0.2543996344737798  0.1258998630525940
  0.2477971760947036  0.2460947930956831  0.6244835369463563
  0.2494267090543067  0.7502944637405019  0.1250879893991369
  0.2491945938338671  0.7498153667113989  0.6249121689107355
  0.7521542692676882  0.2498050495142415  0.1251898726381399
  0.7503975203219909  0.2496751427059840  0.6245657180958101
  0.7505023674994925  0.7550910082492929  0.1259554796427991
  0.6398827936561673  0.3858420803585629  0.7521307231035879
  0.6125065463748367  0.6402743662532793  0.7540177409319239
  0.5106149095855554  0.5102532962574285  0.3770149932266328
  0.6100188424139128  0.3618833008070944  0.4983795981563301
  0.3477422187484223  0.3927418491640207  0.4994635579324255
  0.7544027874986048  0.7254729950425109  0.6202416926835070
  0.5119658784043262  0.5110416255335376  0.6196979949556616
 
  0.00000000E+00  0.00000000E+00  0.00000000E+00
  0.00000000E+00  0.00000000E+00  0.00000000E+00
  0.00000000E+00  0.00000000E+00  0.00000000E+00
  0.00000000E+00  0.00000000E+00  0.00000000E+00
  0.00000000E+00  0.00000000E+00  0.00000000E+00
  0.00000000E+00  0.00000000E+00  0.00000000E+00
  0.00000000E+00  0.00000000E+00  0.00000000E+00
  0.00000000E+00  0.00000000E+00  0.00000000E+00
  0.00000000E+00  0.00000000E+00  0.00000000E+00
  0.00000000E+00  0.00000000E+00  0.00000000E+00
  0.00000000E+00  0.00000000E+00  0.00000000E+00
  0.00000000E+00  0.00000000E+00  0.00000000E+00
  0.00000000E+00  0.00000000E+00  0.00000000E+00
  0.00000000E+00  0.00000000E+00  0.00000000E+00
  0.00000000E+00  0.00000000E+00  0.00000000E+00
  0.00000000E+00  0.00000000E+00  0.00000000E+00
  0.00000000E+00  0.00000000E+00  0.00000000E+00
  0.00000000E+00  0.00000000E+00  0.00000000E+00
  0.00000000E+00  0.00000000E+00  0.00000000E+00
  0.00000000E+00  0.00000000E+00  0.00000000E+00
  0.00000000E+00  0.00000000E+00  0.00000000E+00
  0.00000000E+00  0.00000000E+00  0.00000000E+00
  0.00000000E+00  0.00000000E+00  0.00000000E+00
  0.00000000E+00  0.00000000E+00  0.00000000E+00
  0.00000000E+00  0.00000000E+00  0.00000000E+00
  0.00000000E+00  0.00000000E+00  0.00000000E+00
  0.00000000E+00  0.00000000E+00  0.00000000E+00
  0.00000000E+00  0.00000000E+00  0.00000000E+00
  0.00000000E+00  0.00000000E+00  0.00000000E+00
  0.00000000E+00  0.00000000E+00  0.00000000E+00
  0.00000000E+00  0.00000000E+00  0.00000000E+00
  0.00000000E+00  0.00000000E+00  0.00000000E+00
  0.00000000E+00  0.00000000E+00  0.00000000E+00
  0.00000000E+00  0.00000000E+00  0.00000000E+00
  0.00000000E+00  0.00000000E+00  0.00000000E+00
  0.00000000E+00  0.00000000E+00  0.00000000E+00
  0.00000000E+00  0.00000000E+00  0.00000000E+00
  0.00000000E+00  0.00000000E+00  0.00000000E+00
  0.00000000E+00  0.00000000E+00  0.00000000E+00
  0.00000000E+00  0.00000000E+00  0.00000000E+00
  0.00000000E+00  0.00000000E+00  0.00000000E+00
  0.00000000E+00  0.00000000E+00  0.00000000E+00
  0.00000000E+00  0.00000000E+00  0.00000000E+00
  0.00000000E+00  0.00000000E+00  0.00000000E+00
  0.00000000E+00  0.00000000E+00  0.00000000E+00
  0.00000000E+00  0.00000000E+00  0.00000000E+00
  0.00000000E+00  0.00000000E+00  0.00000000E+00
  0.00000000E+00  0.00000000E+00  0.00000000E+00
  0.00000000E+00  0.00000000E+00  0.00000000E+00
  0.00000000E+00  0.00000000E+00  0.00000000E+00
  0.00000000E+00  0.00000000E+00  0.00000000E+00
  0.00000000E+00  0.00000000E+00  0.00000000E+00
  0.00000000E+00  0.00000000E+00  0.00000000E+00
  0.00000000E+00  0.00000000E+00  0.00000000E+00
  0.00000000E+00  0.00000000E+00  0.00000000E+00
  0.00000000E+00  0.00000000E+00  0.00000000E+00
  0.00000000E+00  0.00000000E+00  0.00000000E+00
  0.00000000E+00  0.00000000E+00  0.00000000E+00
  0.00000000E+00  0.00000000E+00  0.00000000E+00
  0.00000000E+00  0.00000000E+00  0.00000000E+00
  0.00000000E+00  0.00000000E+00  0.00000000E+00
  0.00000000E+00  0.00000000E+00  0.00000000E+00
  0.00000000E+00  0.00000000E+00  0.00000000E+00
  0.00000000E+00  0.00000000E+00  0.00000000E+00
  0.00000000E+00  0.00000000E+00  0.00000000E+00
  0.00000000E+00  0.00000000E+00  0.00000000E+00
  0.00000000E+00  0.00000000E+00  0.00000000E+00
  0.00000000E+00  0.00000000E+00  0.00000000E+00
  0.00000000E+00  0.00000000E+00  0.00000000E+00
  0.00000000E+00  0.00000000E+00  0.00000000E+00
  0.00000000E+00  0.00000000E+00  0.00000000E+00
  0.00000000E+00  0.00000000E+00  0.00000000E+00
  0.00000000E+00  0.00000000E+00  0.00000000E+00
  0.00000000E+00  0.00000000E+00  0.00000000E+00
  0.00000000E+00  0.00000000E+00  0.00000000E+00
  0.00000000E+00  0.00000000E+00  0.00000000E+00
  0.00000000E+00  0.00000000E+00  0.00000000E+00
  0.00000000E+00  0.00000000E+00  0.00000000E+00
  0.00000000E+00  0.00000000E+00  0.00000000E+00
  0.00000000E+00  0.00000000E+00  0.00000000E+00
  0.00000000E+00  0.00000000E+00  0.00000000E+00
  0.00000000E+00  0.00000000E+00  0.00000000E+00
  0.00000000E+00  0.00000000E+00  0.00000000E+00
  0.00000000E+00  0.00000000E+00  0.00000000E+00
  0.00000000E+00  0.00000000E+00  0.00000000E+00
  0.00000000E+00  0.00000000E+00  0.00000000E+00
  0.00000000E+00  0.00000000E+00  0.00000000E+00
  0.00000000E+00  0.00000000E+00  0.00000000E+00
  0.00000000E+00  0.00000000E+00  0.00000000E+00
  0.00000000E+00  0.00000000E+00  0.00000000E+00
  0.00000000E+00  0.00000000E+00  0.00000000E+00
  0.00000000E+00  0.00000000E+00  0.00000000E+00
  0.00000000E+00  0.00000000E+00  0.00000000E+00
  0.00000000E+00  0.00000000E+00  0.00000000E+00
  0.00000000E+00  0.00000000E+00  0.00000000E+00
  0.00000000E+00  0.00000000E+00  0.00000000E+00
  0.00000000E+00  0.00000000E+00  0.00000000E+00
  0.00000000E+00  0.00000000E+00  0.00000000E+00
  0.00000000E+00  0.00000000E+00  0.00000000E+00
  0.00000000E+00  0.00000000E+00  0.00000000E+00
  0.00000000E+00  0.00000000E+00  0.00000000E+00
  0.00000000E+00  0.00000000E+00  0.00000000E+00
  0.00000000E+00  0.00000000E+00  0.00000000E+00
  0.00000000E+00  0.00000000E+00  0.00000000E+00
  0.00000000E+00  0.00000000E+00  0.00000000E+00
  0.00000000E+00  0.00000000E+00  0.00000000E+00
  0.00000000E+00  0.00000000E+00  0.00000000E+00
  0.00000000E+00  0.00000000E+00  0.00000000E+00
  0.00000000E+00  0.00000000E+00  0.00000000E+00
  0.00000000E+00  0.00000000E+00  0.00000000E+00
  0.00000000E+00  0.00000000E+00  0.00000000E+00
  0.00000000E+00  0.00000000E+00  0.00000000E+00
  0.00000000E+00  0.00000000E+00  0.00000000E+00
  0.00000000E+00  0.00000000E+00  0.00000000E+00
  0.00000000E+00  0.00000000E+00  0.00000000E+00
  0.00000000E+00  0.00000000E+00  0.00000000E+00
  0.00000000E+00  0.00000000E+00  0.00000000E+00
  0.00000000E+00  0.00000000E+00  0.00000000E+00
  0.00000000E+00  0.00000000E+00  0.00000000E+00
  0.00000000E+00  0.00000000E+00  0.00000000E+00
  0.00000000E+00  0.00000000E+00  0.00000000E+00
  0.00000000E+00  0.00000000E+00  0.00000000E+00
  0.00000000E+00  0.00000000E+00  0.00000000E+00
  0.00000000E+00  0.00000000E+00  0.00000000E+00
  0.00000000E+00  0.00000000E+00  0.00000000E+00
  0.00000000E+00  0.00000000E+00  0.00000000E+00
  0.00000000E+00  0.00000000E+00  0.00000000E+00
  0.00000000E+00  0.00000000E+00  0.00000000E+00
  0.00000000E+00  0.00000000E+00  0.00000000E+00
  0.00000000E+00  0.00000000E+00  0.00000000E+00
  0.00000000E+00  0.00000000E+00  0.00000000E+00
  0.00000000E+00  0.00000000E+00  0.00000000E+00
  0.00000000E+00  0.00000000E+00  0.00000000E+00
  0.00000000E+00  0.00000000E+00  0.00000000E+00
  0.00000000E+00  0.00000000E+00  0.00000000E+00
  0.00000000E+00  0.00000000E+00  0.00000000E+00
  0.00000000E+00  0.00000000E+00  0.00000000E+00
  0.00000000E+00  0.00000000E+00  0.00000000E+00
  0.00000000E+00  0.00000000E+00  0.00000000E+00
  0.00000000E+00  0.00000000E+00  0.00000000E+00
  0.00000000E+00  0.00000000E+00  0.00000000E+00
  0.00000000E+00  0.00000000E+00  0.00000000E+00
  0.00000000E+00  0.00000000E+00  0.00000000E+00
  0.00000000E+00  0.00000000E+00  0.00000000E+00
  0.00000000E+00  0.00000000E+00  0.00000000E+00
  0.00000000E+00  0.00000000E+00  0.00000000E+00
  0.00000000E+00  0.00000000E+00  0.00000000E+00
  0.00000000E+00  0.00000000E+00  0.00000000E+00
  0.00000000E+00  0.00000000E+00  0.00000000E+00
  0.00000000E+00  0.00000000E+00  0.00000000E+00
  0.00000000E+00  0.00000000E+00  0.00000000E+00
  0.00000000E+00  0.00000000E+00  0.00000000E+00
  0.00000000E+00  0.00000000E+00  0.00000000E+00
  0.00000000E+00  0.00000000E+00  0.00000000E+00
  0.00000000E+00  0.00000000E+00  0.00000000E+00
  0.00000000E+00  0.00000000E+00  0.00000000E+00
  0.00000000E+00  0.00000000E+00  0.00000000E+00
  0.00000000E+00  0.00000000E+00  0.00000000E+00
