SrTiFeO                                 
   1.00000000000000     
    11.1989999999999998    0.0000000000000000    0.0000000000000000
     0.0000000000000000   11.1989999999999998    0.0000000000000000
     0.0000000000000000    0.0000000000000000   15.9830000000000005
   Sr   Ti   Fe   O 
    32    29     3    95
Direct
  0.0002883831780585  0.2497952784636161  0.1248967886320193
  0.0003439680155332  0.2490188901610735  0.6254989275498323
  0.9991540325396914  0.7502109324328814  0.1250819514623684
  0.9976974589492884  0.7509861321002324  0.6245888205341008
  0.5002325635336364  0.2493028164454985  0.1249322432528178
  0.4993620489956192  0.2428782146501722  0.6252771153447010
  0.5005061353865033  0.7508538792678769  0.1250112232526115
  0.5029349359526681  0.7554477667281284  0.6240138474682970
  0.0006725544899390  0.2509578895844315  0.3751863114674865
  0.9999450038902631  0.2499457593989596  0.8736054972901586
  0.9972722537705093  0.7493992031720210  0.3760154662516872
  0.9995022790639704  0.7502288106485486  0.8734116861736515
  0.5006322452678164  0.2493560826242935  0.3757861318605752
  0.4996919841373960  0.2492979029063122  0.8748760690684004
  0.5014035690537869  0.7499031540453129  0.3765159317658432
  0.5011757279123624  0.7503752231812946  0.8744998785690087
  0.2497271094131360  0.9997888510382767  0.1249108171887441
  0.2490137500107436  0.9995057592872552  0.6254036671026457
  0.2494023916072459  0.4998811175051917  0.1249193706617730
  0.2426131722622102  0.5002435532592129  0.6252895243824611
  0.7503171087046980  0.9996105013820902  0.1250334358266119
  0.7510536616771766  0.9982569570562837  0.6248359884208011
  0.7506337769936872  0.5009348874313021  0.1250526845234850
  0.7565763266243929  0.5012489867360876  0.6249901698569290
  0.2507955300071975  0.9992325241410374  0.3752312964011090
  0.2498666813593558 -0.0000117233478291  0.8736253644396861
  0.2494637940952291  0.4995163031808880  0.3758335784715626
  0.2495223190676311  0.5004428171936579  0.8748498709238350
  0.7493781299411898  0.9982219224870474  0.3757876154871120
  0.7502125316966304  0.9995532913283079  0.8735563599156170
  0.7497337055084918  0.5024775299278804  0.3768982618689703
  0.7504668487584581  0.5003139869508442  0.8746664943159539
  0.0000063678961728  0.0001041560495423  0.9992815609508175
  0.9987376810362921  0.9990722906819981  0.4992581922957982
  0.0000514093624963  0.5000823069849899  0.9998509084077812
  0.9985511855863687  0.5014131201548090  0.4995712141020798
  0.4999275845849941  0.9999239637541097  0.9998332667270193
  0.5013165647749200  0.9984835739119312  0.4996048012833614
  0.5000274493156536  0.5000313171027380  0.0018774096894320
  0.2503464531407567  0.2503703588415965  0.9998420597846188
  0.2500794515585112  0.2487386362947832  0.5005118188845935
  0.2503032510590430  0.7497857287524270  0.9997685588059403
  0.2495816542078423  0.7493580862592165  0.5004358542371709
  0.7497204821536020  0.2503141341828987  0.9998138339392171
  0.7505580725924316  0.2504632197230660  0.5004346844975281
  0.7498265601823844  0.7498008952525964  0.9998116699307358
  0.2509029836090084  0.2504393015176124  0.2499736496277026
  0.2520325948470463  0.2519128577865616  0.7492929898677758
  0.2504128641034281  0.7491616321648521  0.2500363035734973
  0.2521077191279554  0.7478227193995259  0.7488806115098752
  0.7496237964070079  0.2509053699655452  0.2500347715448074
  0.7478590114513406  0.2519320918554543  0.7489858050062994
  0.7491564109416711  0.7495608316895597  0.2515636306247303
  0.7478641545964677  0.7479687614525169  0.7476643273019405
  0.0001029538556058  0.0001527915260677  0.2507444369500452
  0.0000574412362326  1.0000220827965589  0.7501284936695185
 -0.0000560639540061  0.5000224316281464  0.2500438333329346
  0.9999441107512301  0.5000138167799257  0.7502733777937263
  0.5000210211491496 -0.0000235530141625  0.2500541081405012
  0.4999755390451351  0.9997185163327600  0.7501685952089781
  0.5001057767943736  0.5000804415064892  0.2491677456414963
  0.4998815812861131  0.4997247744764790  0.7602313775964017
  0.4996111120066436  0.4994885987915117  0.4929917022886761
  0.7506037706672721  0.7521978374788695  0.5004640580172592
  0.1099585252352678  0.1414118723647426  0.2517607277106735
  0.1114030204003397  0.1396071917006070  0.7510510322599094
  0.1086868523071726  0.6413649280347188  0.2510024016395594
  0.1112211273618507  0.6387294940639325  0.7492425936445264
  0.6088636262797619  0.1414849393235187  0.2500699585941411
  0.6107292234351281  0.1387522667846748  0.7505108940006987
  0.6077125868052198  0.6414740364264048  0.2481212839997723
  0.3922466392675271  0.3581767473157093  0.2486809111706396
  0.3901203548515553  0.3633798050126023  0.7407016119054600
  0.3912328220731054  0.8585577720829565  0.2504683083110480
  0.3892710598487385  0.8610458192738467  0.7497920603989926
  0.8914887790562855  0.3585915697193378  0.2502565627613654
  0.8887064668079492  0.3612436211365428  0.7495880898186225
  0.8904680610965592  0.8594119519108644  0.2517200003268421
  0.8890119825029715  0.8612528274969561  0.7505366463061733
  0.3586033011809757  0.1087943161873420  0.2503516165278058
  0.3611500575020470  0.1112164987379997  0.7496514184571347
  0.3580035778730951  0.6077566681978738  0.2485070110309184
  0.3632881496569401  0.6095461222547522  0.7405810689694070
  0.8589651807525980  0.1097914498050033  0.2522034849212261
  0.8607490029979430  0.1113678931962789  0.7503772536855992
  0.8590070704807184  0.6085691091230613  0.2499873540042445
  0.8616483941187539  0.6106931728577332  0.7507309042125655
  0.1415748461482258  0.3911462447966655  0.2500898480000311
  0.1388035892703912  0.3891169919748239  0.7505701734891066
  0.1413071156264937  0.8904220543133191  0.2517618942088641
  0.1395267763504990  0.8888527470439224  0.7508286193659569
  0.6419317492082104  0.3921548586272941  0.2486957942324622
  0.6408876529780780  0.8915555956559393  0.2500696275344980
  0.6385151894848806  0.8890545520130990  0.7499109102051865
  0.3586589563232381  0.3913067486671395  0.0012701486808353
  0.3588364801019193  0.8909118004879473  0.9994340435231061
  0.3617735500006276  0.8870822560130976  0.4999253006638203
  0.8589431079226690  0.3911262296250037  0.9999575658437290
  0.8604464289214917  0.3889583016720415  0.4997074344759533
  0.8592922594382624  0.8907930624246451  0.9990206286129547
  0.8625773513507463  0.8912295062808344  0.4983152465925923
  0.1410940606360611  0.1095159185767710  0.9988132244511759
  0.1409613863296883  0.1115302998331105  0.4980186809354993
  0.1411994803511776  0.6089439376248977  0.9999028868265077
  0.1387163893860764  0.6111210463414064  0.4995096600772421
  0.6409168541492635  0.1091822426161243  0.9992346610998242
  0.6385363503869099  0.1131208068523543  0.4996812014913949
  0.6411140845117608  0.6087168801821310  0.0011444969041689
  0.1091881612548466  0.3589860384820925  0.9993158403777327
  0.1132831272552734  0.3620193577389644  0.4998981919055359
  0.1094308932072381  0.8590436480669071  0.9988129399104306
  0.1120485139170975  0.8601147363973277  0.4979319891485272
  0.6087523916864291  0.3586537201226918  0.0012494635273958
  0.6088167891439342  0.8591935805379798  0.9998960306582017
  0.6101755068267147  0.8624770897782768  0.4994611915529986
  0.3910734364624112  0.1411678649958855  0.9999310251724873
  0.3893086061701325  0.1394650067779992  0.4996562255576514
  0.3912919109603353  0.6413551218212570  0.0012741047131128
  0.3924365425922858  0.6309965912741420  0.5101379734247806
  0.8905738201876946  0.1411230295215778  0.9987998985095381
  0.8896339648703637  0.1413599048098841  0.4981278911610532
  0.8910428269408832  0.6408253285723707  0.9993326429958322
  0.0002528582864496  0.0005501373633133  0.1252644637455984
  0.0014049800900712  0.0010189015083965  0.6241419932842994
  0.0005387265507604  0.5000304653959713  0.1249156459047253
  0.0004078918440969  0.4992594316115097  0.6249813963959719
  0.4994950333951155  0.0001393711451755  0.1248748031646720
  0.4998192683193477  0.0007442497629498  0.6249177939784201
  0.4998757280351535  0.4995824519484444  0.1250937419761179
  0.0012231462425722  0.0008498574436822  0.3749420176826924
  0.0000019157713605  0.0003615153493397  0.8750982036461106
  0.0003393789128100  0.4990232672405824  0.3748035367266227
  0.0004184713247834  0.4999026383447981  0.8750537966277105
  0.4995104430216886  0.0008607773952474  0.3747579473847205
  0.4993615655660431  0.9999461592303472  0.8750001383457113
  0.4997572791735251  0.4996001777391675  0.8777784116324285
  0.2553936134806608  0.2561724039224949  0.3760045591806515
  0.2547570178343601  0.2535463431635020  0.8741913239442611
  0.2561359137779687  0.7450390209924374  0.3761566543249469
  0.2535890585357093  0.7454156001392349  0.8739794565191857
  0.7444471053106747  0.2552927159300115  0.3760801517248836
  0.7465849043026264  0.2546231145041842  0.8740150919922165
  0.7447037690968724  0.7441898504133648  0.3749022355111666
  0.7460250450572531  0.7471294243371290  0.8743527145572718
  0.2489473949619039  0.2490528788251899  0.1249780333668837
  0.2467036824485200  0.2470801335001276  0.6243852410580230
  0.2488096054675632  0.7511583979101231  0.1250824568598059
  0.2466349812926140  0.7532732003504000  0.6240266341314928
  0.7511781285463820  0.2486905642825469  0.1250219701463107
  0.7528465950961114  0.2466029512959725  0.6240429068003804
  0.7512755541002569  0.7511252763651234  0.1248287457704201
  0.6363422553945586  0.3899859098032862  0.7403003293032427
  0.6096081803060540  0.6361661351973180  0.7415809566216907
  0.5001886354878097  0.5004804032308959  0.3735118482024394
  0.6047186573468397  0.3666573594206122  0.5095736085906850
  0.3684216911912073  0.3945419789035571  0.5111040485706457
  0.7529690201990957  0.7525622847446077  0.6252373483722369
  0.8871538462045100  0.6362550316324777  0.4997652332419315
  0.6261197185441966  0.6020281526798731  0.5139958692627972
 
  0.00000000E+00  0.00000000E+00  0.00000000E+00
  0.00000000E+00  0.00000000E+00  0.00000000E+00
  0.00000000E+00  0.00000000E+00  0.00000000E+00
  0.00000000E+00  0.00000000E+00  0.00000000E+00
  0.00000000E+00  0.00000000E+00  0.00000000E+00
  0.00000000E+00  0.00000000E+00  0.00000000E+00
  0.00000000E+00  0.00000000E+00  0.00000000E+00
  0.00000000E+00  0.00000000E+00  0.00000000E+00
  0.00000000E+00  0.00000000E+00  0.00000000E+00
  0.00000000E+00  0.00000000E+00  0.00000000E+00
  0.00000000E+00  0.00000000E+00  0.00000000E+00
  0.00000000E+00  0.00000000E+00  0.00000000E+00
  0.00000000E+00  0.00000000E+00  0.00000000E+00
  0.00000000E+00  0.00000000E+00  0.00000000E+00
  0.00000000E+00  0.00000000E+00  0.00000000E+00
  0.00000000E+00  0.00000000E+00  0.00000000E+00
  0.00000000E+00  0.00000000E+00  0.00000000E+00
  0.00000000E+00  0.00000000E+00  0.00000000E+00
  0.00000000E+00  0.00000000E+00  0.00000000E+00
  0.00000000E+00  0.00000000E+00  0.00000000E+00
  0.00000000E+00  0.00000000E+00  0.00000000E+00
  0.00000000E+00  0.00000000E+00  0.00000000E+00
  0.00000000E+00  0.00000000E+00  0.00000000E+00
  0.00000000E+00  0.00000000E+00  0.00000000E+00
  0.00000000E+00  0.00000000E+00  0.00000000E+00
  0.00000000E+00  0.00000000E+00  0.00000000E+00
  0.00000000E+00  0.00000000E+00  0.00000000E+00
  0.00000000E+00  0.00000000E+00  0.00000000E+00
  0.00000000E+00  0.00000000E+00  0.00000000E+00
  0.00000000E+00  0.00000000E+00  0.00000000E+00
  0.00000000E+00  0.00000000E+00  0.00000000E+00
  0.00000000E+00  0.00000000E+00  0.00000000E+00
  0.00000000E+00  0.00000000E+00  0.00000000E+00
  0.00000000E+00  0.00000000E+00  0.00000000E+00
  0.00000000E+00  0.00000000E+00  0.00000000E+00
  0.00000000E+00  0.00000000E+00  0.00000000E+00
  0.00000000E+00  0.00000000E+00  0.00000000E+00
  0.00000000E+00  0.00000000E+00  0.00000000E+00
  0.00000000E+00  0.00000000E+00  0.00000000E+00
  0.00000000E+00  0.00000000E+00  0.00000000E+00
  0.00000000E+00  0.00000000E+00  0.00000000E+00
  0.00000000E+00  0.00000000E+00  0.00000000E+00
  0.00000000E+00  0.00000000E+00  0.00000000E+00
  0.00000000E+00  0.00000000E+00  0.00000000E+00
  0.00000000E+00  0.00000000E+00  0.00000000E+00
  0.00000000E+00  0.00000000E+00  0.00000000E+00
  0.00000000E+00  0.00000000E+00  0.00000000E+00
  0.00000000E+00  0.00000000E+00  0.00000000E+00
  0.00000000E+00  0.00000000E+00  0.00000000E+00
  0.00000000E+00  0.00000000E+00  0.00000000E+00
  0.00000000E+00  0.00000000E+00  0.00000000E+00
  0.00000000E+00  0.00000000E+00  0.00000000E+00
  0.00000000E+00  0.00000000E+00  0.00000000E+00
  0.00000000E+00  0.00000000E+00  0.00000000E+00
  0.00000000E+00  0.00000000E+00  0.00000000E+00
  0.00000000E+00  0.00000000E+00  0.00000000E+00
  0.00000000E+00  0.00000000E+00  0.00000000E+00
  0.00000000E+00  0.00000000E+00  0.00000000E+00
  0.00000000E+00  0.00000000E+00  0.00000000E+00
  0.00000000E+00  0.00000000E+00  0.00000000E+00
  0.00000000E+00  0.00000000E+00  0.00000000E+00
  0.00000000E+00  0.00000000E+00  0.00000000E+00
  0.00000000E+00  0.00000000E+00  0.00000000E+00
  0.00000000E+00  0.00000000E+00  0.00000000E+00
  0.00000000E+00  0.00000000E+00  0.00000000E+00
  0.00000000E+00  0.00000000E+00  0.00000000E+00
  0.00000000E+00  0.00000000E+00  0.00000000E+00
  0.00000000E+00  0.00000000E+00  0.00000000E+00
  0.00000000E+00  0.00000000E+00  0.00000000E+00
  0.00000000E+00  0.00000000E+00  0.00000000E+00
  0.00000000E+00  0.00000000E+00  0.00000000E+00
  0.00000000E+00  0.00000000E+00  0.00000000E+00
  0.00000000E+00  0.00000000E+00  0.00000000E+00
  0.00000000E+00  0.00000000E+00  0.00000000E+00
  0.00000000E+00  0.00000000E+00  0.00000000E+00
  0.00000000E+00  0.00000000E+00  0.00000000E+00
  0.00000000E+00  0.00000000E+00  0.00000000E+00
  0.00000000E+00  0.00000000E+00  0.00000000E+00
  0.00000000E+00  0.00000000E+00  0.00000000E+00
  0.00000000E+00  0.00000000E+00  0.00000000E+00
  0.00000000E+00  0.00000000E+00  0.00000000E+00
  0.00000000E+00  0.00000000E+00  0.00000000E+00
  0.00000000E+00  0.00000000E+00  0.00000000E+00
  0.00000000E+00  0.00000000E+00  0.00000000E+00
  0.00000000E+00  0.00000000E+00  0.00000000E+00
  0.00000000E+00  0.00000000E+00  0.00000000E+00
  0.00000000E+00  0.00000000E+00  0.00000000E+00
  0.00000000E+00  0.00000000E+00  0.00000000E+00
  0.00000000E+00  0.00000000E+00  0.00000000E+00
  0.00000000E+00  0.00000000E+00  0.00000000E+00
  0.00000000E+00  0.00000000E+00  0.00000000E+00
  0.00000000E+00  0.00000000E+00  0.00000000E+00
  0.00000000E+00  0.00000000E+00  0.00000000E+00
  0.00000000E+00  0.00000000E+00  0.00000000E+00
  0.00000000E+00  0.00000000E+00  0.00000000E+00
  0.00000000E+00  0.00000000E+00  0.00000000E+00
  0.00000000E+00  0.00000000E+00  0.00000000E+00
  0.00000000E+00  0.00000000E+00  0.00000000E+00
  0.00000000E+00  0.00000000E+00  0.00000000E+00
  0.00000000E+00  0.00000000E+00  0.00000000E+00
  0.00000000E+00  0.00000000E+00  0.00000000E+00
  0.00000000E+00  0.00000000E+00  0.00000000E+00
  0.00000000E+00  0.00000000E+00  0.00000000E+00
  0.00000000E+00  0.00000000E+00  0.00000000E+00
  0.00000000E+00  0.00000000E+00  0.00000000E+00
  0.00000000E+00  0.00000000E+00  0.00000000E+00
  0.00000000E+00  0.00000000E+00  0.00000000E+00
  0.00000000E+00  0.00000000E+00  0.00000000E+00
  0.00000000E+00  0.00000000E+00  0.00000000E+00
  0.00000000E+00  0.00000000E+00  0.00000000E+00
  0.00000000E+00  0.00000000E+00  0.00000000E+00
  0.00000000E+00  0.00000000E+00  0.00000000E+00
  0.00000000E+00  0.00000000E+00  0.00000000E+00
  0.00000000E+00  0.00000000E+00  0.00000000E+00
  0.00000000E+00  0.00000000E+00  0.00000000E+00
  0.00000000E+00  0.00000000E+00  0.00000000E+00
  0.00000000E+00  0.00000000E+00  0.00000000E+00
  0.00000000E+00  0.00000000E+00  0.00000000E+00
  0.00000000E+00  0.00000000E+00  0.00000000E+00
  0.00000000E+00  0.00000000E+00  0.00000000E+00
  0.00000000E+00  0.00000000E+00  0.00000000E+00
  0.00000000E+00  0.00000000E+00  0.00000000E+00
  0.00000000E+00  0.00000000E+00  0.00000000E+00
  0.00000000E+00  0.00000000E+00  0.00000000E+00
  0.00000000E+00  0.00000000E+00  0.00000000E+00
  0.00000000E+00  0.00000000E+00  0.00000000E+00
  0.00000000E+00  0.00000000E+00  0.00000000E+00
  0.00000000E+00  0.00000000E+00  0.00000000E+00
  0.00000000E+00  0.00000000E+00  0.00000000E+00
  0.00000000E+00  0.00000000E+00  0.00000000E+00
  0.00000000E+00  0.00000000E+00  0.00000000E+00
  0.00000000E+00  0.00000000E+00  0.00000000E+00
  0.00000000E+00  0.00000000E+00  0.00000000E+00
  0.00000000E+00  0.00000000E+00  0.00000000E+00
  0.00000000E+00  0.00000000E+00  0.00000000E+00
  0.00000000E+00  0.00000000E+00  0.00000000E+00
  0.00000000E+00  0.00000000E+00  0.00000000E+00
  0.00000000E+00  0.00000000E+00  0.00000000E+00
  0.00000000E+00  0.00000000E+00  0.00000000E+00
  0.00000000E+00  0.00000000E+00  0.00000000E+00
  0.00000000E+00  0.00000000E+00  0.00000000E+00
  0.00000000E+00  0.00000000E+00  0.00000000E+00
  0.00000000E+00  0.00000000E+00  0.00000000E+00
  0.00000000E+00  0.00000000E+00  0.00000000E+00
  0.00000000E+00  0.00000000E+00  0.00000000E+00
  0.00000000E+00  0.00000000E+00  0.00000000E+00
  0.00000000E+00  0.00000000E+00  0.00000000E+00
  0.00000000E+00  0.00000000E+00  0.00000000E+00
  0.00000000E+00  0.00000000E+00  0.00000000E+00
  0.00000000E+00  0.00000000E+00  0.00000000E+00
  0.00000000E+00  0.00000000E+00  0.00000000E+00
  0.00000000E+00  0.00000000E+00  0.00000000E+00
  0.00000000E+00  0.00000000E+00  0.00000000E+00
  0.00000000E+00  0.00000000E+00  0.00000000E+00
  0.00000000E+00  0.00000000E+00  0.00000000E+00
  0.00000000E+00  0.00000000E+00  0.00000000E+00
  0.00000000E+00  0.00000000E+00  0.00000000E+00
  0.00000000E+00  0.00000000E+00  0.00000000E+00
  0.00000000E+00  0.00000000E+00  0.00000000E+00
