SrTiFeO                                 
   1.00000000000000     
    11.1989999999999998    0.0000000000000000    0.0000000000000000
     0.0000000000000000   11.1989999999999998    0.0000000000000000
     0.0000000000000000    0.0000000000000000   15.9830000000000005
   Sr   Ti   Fe   O 
    32    29     3    95
Direct
 -0.0000303872737110  0.2501320929404852  0.1247505278469165
  0.0007643154346279  0.2500127635239912  0.6260056320676031
 -0.0015731896993695  0.7502453567807303  0.1252674445589899
  0.0001819439508357  0.7483345735637363  0.6251715612548785
  0.4994010785368023  0.2503177800855969  0.1250493529125166
  0.5023144414395653  0.2516146915267917  0.6248016060724854
  0.5007524295469518  0.7507856989420360  0.1240400634226993
  0.4982160690956072  0.7484865847615084  0.6276976789035670
  0.0009554368245772  0.2504092955595583  0.3750920432653242
 -0.0001276058570300  0.2498898637717297  0.8743422752871277
  0.0005706171372743  0.7479227537775360  0.3758813664872804
 -0.0016244316891471  0.7502291314317134  0.8736794192345633
  0.5021280513781869  0.2490927082996974  0.3762776456799811
  0.4997528029595645  0.2519183391842389  0.8732616802157894
  0.4982658687030143  0.7509594070092788  0.3731473395787729
  0.5002155674788288  0.7486496536944685  0.8743375854804634
  0.2500906989975094 -0.0002818795567451  0.1248939057613917
  0.2506077391415185 -0.0010130972276517  0.6264036645135443
  0.2500914704440998  0.5008822050567427  0.1246222707992310
  0.2500075008269107  0.5003458985520486  0.6259936360908748
  0.7494586168728429 -0.0010557851231019  0.1247733137993421
  0.7500307073172054  0.0014982766921548  0.6268687032524853
  0.7500908521110871  0.5006414177828993  0.1246329981301549
  0.7522258686747573  0.4969386426619135  0.6290482374513751
  0.2508101510069677 -0.0009586232077301  0.3746273356646108
  0.2497664754241688 -0.0001134030958829  0.8741827141739388
  0.2482730126062617  0.5005059294780543  0.3756549959260114
  0.2515302511795355  0.5002704407438130  0.8740791797416164
  0.7499840217548809  0.0018871457931120  0.3742538821826683
  0.7496822926447370 -0.0011056966828168  0.8743375374262650
  0.7543176506166923  0.4966008770233524  0.3723283104509181
  0.7479433022122767  0.5007257343877879  0.8739796720992027
 -0.0003806216882917 -0.0002892144639607 -0.0000680988487571
  0.0013902371056124  0.0008771327159452  0.5000755783437160
 -0.0000678742346965  0.4997635743463189 -0.0003336561554431
 -0.0019662539312223  0.5008308645011109  0.5002984706090809
  0.5000235663400201  0.0002354123441763 -0.0003386377295575
  0.5014388007986098 -0.0029082393947408  0.5003650456387941
  0.4996211795854550  0.4997078435583169 -0.0013081279884449
  0.2505232607206762  0.2505586475904716 -0.0000986404410671
  0.2493156834714362  0.2464179788727253  0.5002273409242736
  0.2497567949698307  0.7498397473906659 -0.0001686195020007
  0.2507825681472178  0.7493201620861947  0.5001064728443676
  0.7497990676097572  0.2500434802458416 -0.0001421324736312
  0.7502547302835680  0.2503392074069091  0.5000774566263086
  0.7501221601690655  0.7501712175926323 -0.0001944868133404
  0.2505205801436655  0.2500736685979910  0.2505168744228278
  0.2521140174084230  0.2512582344387653  0.7495125250781195
  0.2495840674064446  0.7498944797687127  0.2499739309119516
  0.2509396245907143  0.7482037468927548  0.7499540580750269
  0.7499951596698929  0.2494488647467868  0.2497109465502165
  0.7485140987040009  0.2510144433361409  0.7502169062403912
  0.7494245695267608  0.7490981454575664  0.2524514693337499
  0.7474241984422261  0.7474753445826179  0.7475315698166901
  0.0001618140140607  0.0000019171083186  0.2504037800027800
  0.0000729837263697 -0.0001480082237729  0.7496291247619198
  0.0008045761355550  0.4997629884006985  0.2496780384861166
  0.0005468226563917  0.4997223780114843  0.7502873877854922
  0.4999980093149494  0.0000275097406272  0.2500695773861052
  0.4999731294357065 -0.0000716871523935  0.7499253200640378
  0.5005432428284006  0.5005099002869502  0.2494613486570619
  0.5001344695496973  0.5001754388453401  0.7517001877689077
  0.4903327070217421  0.4935455123202286  0.4992074844111591
  0.7585072544588762  0.7633823317962767  0.5000761525932879
  0.1093259328686568  0.1412594917355283  0.2489434286382300
  0.1102672298934591  0.1400377750577050  0.7511407185734964
  0.1087575234112953  0.6409886141169596  0.2499610713325702
  0.1092616369119308  0.6401404665528372  0.7499818354807801
  0.6091721675956180  0.1407778452160928  0.2501406343401078
  0.6099904838798172  0.1392494598512460  0.7496552948334205
  0.6083370431233623  0.6399763702671093  0.2477383849043910
  0.3919873335471276  0.3608450649329187  0.2563923138164383
  0.3897227132932691  0.3607299051496203  0.7439570426778953
  0.3899212631602556  0.8597250447315632  0.2498124093077717
  0.3891330088043926  0.8608934328222476  0.7500156798011960
  0.8904956987301521  0.3594106539137006  0.2513185465129095
  0.8898469164748088  0.3600104061723076  0.7487206294698321
  0.8895230534939238  0.8586531762120513  0.2551627755168217
  0.8886731530234918  0.8595717276962411  0.7454515793202027
  0.3593773134208565  0.1095902614032641  0.2497462094763966
  0.3600501345063095  0.1099742773689611  0.7504191167658194
  0.3595872868474288  0.6089044612439845  0.2532654920152733
  0.3595579276047924  0.6108850842221760  0.7471053050786354
  0.8588317265807114  0.1088399643000909  0.2499418285456428
  0.8599780904318601  0.1099816875075946  0.7499233602337825
  0.8594165812505000  0.6086752549331297  0.2497839728048998
  0.8605904297076153  0.6093846368122527  0.7503685612340523
  0.1414200900799005  0.3910300624569617  0.2500280480811782
  0.1399101589063873  0.3899956502388390  0.7499086979466109
  0.1403132597551434  0.8907385689472516  0.2498209854439247
  0.1393291786706122  0.8896777826630438  0.7500903142505302
  0.6406612338590036  0.3909698521239097  0.2514074284775542
  0.6403914757928522  0.8904122420217541  0.2514209305954559
  0.6395632864831702  0.8897359389535761  0.7487950812617781
  0.3586994299599082  0.3910202605561008  0.0009560965790485
  0.3589946724420073  0.8908135701452877  0.0002601823581662
  0.3581364886754527  0.8906213366515146  0.4998071600683252
  0.8589846165383374  0.3907355627558372 -0.0000769406013265
  0.8606381626552576  0.3884786837712155  0.4998433694079812
  0.8591142413156896  0.8908110964957390  0.0002349176492924
  0.8603610160983293  0.8964293233581058  0.4995770515442873
  0.1407324688893143  0.1093174130002608  0.0004752641942832
  0.1429605703573917  0.1087884936073644  0.4997987869789976
  0.1408899901888845  0.6087287803919391 -0.0000673513367148
  0.1377420443271612  0.6112068351672962  0.4999106203364806
  0.6411009128908003  0.1090290086323326  0.0002519935793858
  0.6407117602010183  0.1091668138182311  0.4997588969723295
  0.6403718684854607  0.6092498508381180  0.0012085527477511
  0.1090979058121027  0.3585284164088800  0.0002260685569643
  0.1111282230264207  0.3599191470637814  0.4998479989288387
  0.1091564481688710  0.8589271020966717  0.0003224686531859
  0.1086705140460669  0.8591624917865198  0.4997784540423407
  0.6090502319093043  0.3590435904960224  0.0010100593340001
  0.6091694206054221  0.8591886983655079 -0.0000762703812427
  0.6052695017831977  0.8532775768563864  0.4999754764768659
  0.3910863729141760  0.1409888210978048 -0.0000139626627777
  0.3915743973902328  0.1417310731067889  0.5000405970121848
  0.3908083738045393  0.6407691325472905  0.0009830977403258
  0.3941914369313229  0.6399860264377562  0.4986612126877740
  0.8909378141460664  0.1407668906678467  0.0003254090566607
  0.8914839251399833  0.1427667475754409  0.4997693536189627
  0.8908186372454803  0.6405306633131269  0.0002925936536352
 -0.0016974177626372 -0.0021424964214856  0.1255735024197476
  0.0018592083942342  0.0025795249985975  0.6243319753908648
  0.0000184215741392  0.4989130732401597  0.1250767350361843
  0.0008775971007126  0.5002519584574908  0.6249355986013428
  0.5005294163856719 -0.0003761381384772  0.1251305085389972
  0.4995430500352415  0.0007984648313515  0.6247610812394969
  0.4973861746037181  0.4975510142161031  0.1271195004628043
  0.0020976207295218  0.0028834106308679  0.3751835945077839
 -0.0015071191513204 -0.0018357611058762  0.8750642550892848
  0.0009991707441688  0.5001079200048243  0.3749035595298263
  0.0000933745389802  0.4989069365003580  0.8750353008235452
  0.4994190436884159  0.0007876065592381  0.3751024158548267
  0.5004667777918580 -0.0002862389011224  0.8749711479478823
  0.4981391357881466  0.4983121043035785  0.8767446959057422
  0.2491521163573782  0.2489825144951204  0.3755296388707089
  0.2525000640012416  0.2520530925414983  0.8749172283772700
  0.2483462075377706  0.7506285034550849  0.3750393978076439
  0.2505871449188935  0.7490683925265094  0.8751594459862378
  0.7493669737804408  0.2489525437149886  0.3750982633495045
  0.7498073651836227  0.2502752217993723  0.8751832814336591
  0.7405738322286597  0.7385683650355834  0.3773563211294726
  0.7508743957650984  0.7507407036400462  0.8749767093717422
  0.2528879289638918  0.2519285034824070  0.1258311268055583
  0.2486445095971495  0.2485541007687741  0.6241761178972322
  0.2503256593555636  0.7487342536266033  0.1254447740348772
  0.2486969120586549  0.7503693328852339  0.6242851845742102
  0.7502786103982581  0.2507260064216303  0.1254282464606047
  0.7489865020121572  0.2492408362421686  0.6242239066886536
  0.7510572861237738  0.7515347058040045  0.1258869031507750
  0.6400835908823388  0.3884015610021212  0.7486834699452016
  0.6104245052953731  0.6391911996444781  0.7518811637035847
  0.5138532177351421  0.5115400621486833  0.3834130446473055
  0.6093152576777970  0.3670616377859719  0.4985258662423112
  0.3555638676771001  0.3967063129487818  0.5001257637991334
  0.7416247772958064  0.7394095960373253  0.6223188985028221
  0.8801901469647169  0.6337221057255361  0.4996417453161628
  0.5170816514924693  0.5140587005796352  0.6111525695106655
 
  0.00000000E+00  0.00000000E+00  0.00000000E+00
  0.00000000E+00  0.00000000E+00  0.00000000E+00
  0.00000000E+00  0.00000000E+00  0.00000000E+00
  0.00000000E+00  0.00000000E+00  0.00000000E+00
  0.00000000E+00  0.00000000E+00  0.00000000E+00
  0.00000000E+00  0.00000000E+00  0.00000000E+00
  0.00000000E+00  0.00000000E+00  0.00000000E+00
  0.00000000E+00  0.00000000E+00  0.00000000E+00
  0.00000000E+00  0.00000000E+00  0.00000000E+00
  0.00000000E+00  0.00000000E+00  0.00000000E+00
  0.00000000E+00  0.00000000E+00  0.00000000E+00
  0.00000000E+00  0.00000000E+00  0.00000000E+00
  0.00000000E+00  0.00000000E+00  0.00000000E+00
  0.00000000E+00  0.00000000E+00  0.00000000E+00
  0.00000000E+00  0.00000000E+00  0.00000000E+00
  0.00000000E+00  0.00000000E+00  0.00000000E+00
  0.00000000E+00  0.00000000E+00  0.00000000E+00
  0.00000000E+00  0.00000000E+00  0.00000000E+00
  0.00000000E+00  0.00000000E+00  0.00000000E+00
  0.00000000E+00  0.00000000E+00  0.00000000E+00
  0.00000000E+00  0.00000000E+00  0.00000000E+00
  0.00000000E+00  0.00000000E+00  0.00000000E+00
  0.00000000E+00  0.00000000E+00  0.00000000E+00
  0.00000000E+00  0.00000000E+00  0.00000000E+00
  0.00000000E+00  0.00000000E+00  0.00000000E+00
  0.00000000E+00  0.00000000E+00  0.00000000E+00
  0.00000000E+00  0.00000000E+00  0.00000000E+00
  0.00000000E+00  0.00000000E+00  0.00000000E+00
  0.00000000E+00  0.00000000E+00  0.00000000E+00
  0.00000000E+00  0.00000000E+00  0.00000000E+00
  0.00000000E+00  0.00000000E+00  0.00000000E+00
  0.00000000E+00  0.00000000E+00  0.00000000E+00
  0.00000000E+00  0.00000000E+00  0.00000000E+00
  0.00000000E+00  0.00000000E+00  0.00000000E+00
  0.00000000E+00  0.00000000E+00  0.00000000E+00
  0.00000000E+00  0.00000000E+00  0.00000000E+00
  0.00000000E+00  0.00000000E+00  0.00000000E+00
  0.00000000E+00  0.00000000E+00  0.00000000E+00
  0.00000000E+00  0.00000000E+00  0.00000000E+00
  0.00000000E+00  0.00000000E+00  0.00000000E+00
  0.00000000E+00  0.00000000E+00  0.00000000E+00
  0.00000000E+00  0.00000000E+00  0.00000000E+00
  0.00000000E+00  0.00000000E+00  0.00000000E+00
  0.00000000E+00  0.00000000E+00  0.00000000E+00
  0.00000000E+00  0.00000000E+00  0.00000000E+00
  0.00000000E+00  0.00000000E+00  0.00000000E+00
  0.00000000E+00  0.00000000E+00  0.00000000E+00
  0.00000000E+00  0.00000000E+00  0.00000000E+00
  0.00000000E+00  0.00000000E+00  0.00000000E+00
  0.00000000E+00  0.00000000E+00  0.00000000E+00
  0.00000000E+00  0.00000000E+00  0.00000000E+00
  0.00000000E+00  0.00000000E+00  0.00000000E+00
  0.00000000E+00  0.00000000E+00  0.00000000E+00
  0.00000000E+00  0.00000000E+00  0.00000000E+00
  0.00000000E+00  0.00000000E+00  0.00000000E+00
  0.00000000E+00  0.00000000E+00  0.00000000E+00
  0.00000000E+00  0.00000000E+00  0.00000000E+00
  0.00000000E+00  0.00000000E+00  0.00000000E+00
  0.00000000E+00  0.00000000E+00  0.00000000E+00
  0.00000000E+00  0.00000000E+00  0.00000000E+00
  0.00000000E+00  0.00000000E+00  0.00000000E+00
  0.00000000E+00  0.00000000E+00  0.00000000E+00
  0.00000000E+00  0.00000000E+00  0.00000000E+00
  0.00000000E+00  0.00000000E+00  0.00000000E+00
  0.00000000E+00  0.00000000E+00  0.00000000E+00
  0.00000000E+00  0.00000000E+00  0.00000000E+00
  0.00000000E+00  0.00000000E+00  0.00000000E+00
  0.00000000E+00  0.00000000E+00  0.00000000E+00
  0.00000000E+00  0.00000000E+00  0.00000000E+00
  0.00000000E+00  0.00000000E+00  0.00000000E+00
  0.00000000E+00  0.00000000E+00  0.00000000E+00
  0.00000000E+00  0.00000000E+00  0.00000000E+00
  0.00000000E+00  0.00000000E+00  0.00000000E+00
  0.00000000E+00  0.00000000E+00  0.00000000E+00
  0.00000000E+00  0.00000000E+00  0.00000000E+00
  0.00000000E+00  0.00000000E+00  0.00000000E+00
  0.00000000E+00  0.00000000E+00  0.00000000E+00
  0.00000000E+00  0.00000000E+00  0.00000000E+00
  0.00000000E+00  0.00000000E+00  0.00000000E+00
  0.00000000E+00  0.00000000E+00  0.00000000E+00
  0.00000000E+00  0.00000000E+00  0.00000000E+00
  0.00000000E+00  0.00000000E+00  0.00000000E+00
  0.00000000E+00  0.00000000E+00  0.00000000E+00
  0.00000000E+00  0.00000000E+00  0.00000000E+00
  0.00000000E+00  0.00000000E+00  0.00000000E+00
  0.00000000E+00  0.00000000E+00  0.00000000E+00
  0.00000000E+00  0.00000000E+00  0.00000000E+00
  0.00000000E+00  0.00000000E+00  0.00000000E+00
  0.00000000E+00  0.00000000E+00  0.00000000E+00
  0.00000000E+00  0.00000000E+00  0.00000000E+00
  0.00000000E+00  0.00000000E+00  0.00000000E+00
  0.00000000E+00  0.00000000E+00  0.00000000E+00
  0.00000000E+00  0.00000000E+00  0.00000000E+00
  0.00000000E+00  0.00000000E+00  0.00000000E+00
  0.00000000E+00  0.00000000E+00  0.00000000E+00
  0.00000000E+00  0.00000000E+00  0.00000000E+00
  0.00000000E+00  0.00000000E+00  0.00000000E+00
  0.00000000E+00  0.00000000E+00  0.00000000E+00
  0.00000000E+00  0.00000000E+00  0.00000000E+00
  0.00000000E+00  0.00000000E+00  0.00000000E+00
  0.00000000E+00  0.00000000E+00  0.00000000E+00
  0.00000000E+00  0.00000000E+00  0.00000000E+00
  0.00000000E+00  0.00000000E+00  0.00000000E+00
  0.00000000E+00  0.00000000E+00  0.00000000E+00
  0.00000000E+00  0.00000000E+00  0.00000000E+00
  0.00000000E+00  0.00000000E+00  0.00000000E+00
  0.00000000E+00  0.00000000E+00  0.00000000E+00
  0.00000000E+00  0.00000000E+00  0.00000000E+00
  0.00000000E+00  0.00000000E+00  0.00000000E+00
  0.00000000E+00  0.00000000E+00  0.00000000E+00
  0.00000000E+00  0.00000000E+00  0.00000000E+00
  0.00000000E+00  0.00000000E+00  0.00000000E+00
  0.00000000E+00  0.00000000E+00  0.00000000E+00
  0.00000000E+00  0.00000000E+00  0.00000000E+00
  0.00000000E+00  0.00000000E+00  0.00000000E+00
  0.00000000E+00  0.00000000E+00  0.00000000E+00
  0.00000000E+00  0.00000000E+00  0.00000000E+00
  0.00000000E+00  0.00000000E+00  0.00000000E+00
  0.00000000E+00  0.00000000E+00  0.00000000E+00
  0.00000000E+00  0.00000000E+00  0.00000000E+00
  0.00000000E+00  0.00000000E+00  0.00000000E+00
  0.00000000E+00  0.00000000E+00  0.00000000E+00
  0.00000000E+00  0.00000000E+00  0.00000000E+00
  0.00000000E+00  0.00000000E+00  0.00000000E+00
  0.00000000E+00  0.00000000E+00  0.00000000E+00
  0.00000000E+00  0.00000000E+00  0.00000000E+00
  0.00000000E+00  0.00000000E+00  0.00000000E+00
  0.00000000E+00  0.00000000E+00  0.00000000E+00
  0.00000000E+00  0.00000000E+00  0.00000000E+00
  0.00000000E+00  0.00000000E+00  0.00000000E+00
  0.00000000E+00  0.00000000E+00  0.00000000E+00
  0.00000000E+00  0.00000000E+00  0.00000000E+00
  0.00000000E+00  0.00000000E+00  0.00000000E+00
  0.00000000E+00  0.00000000E+00  0.00000000E+00
  0.00000000E+00  0.00000000E+00  0.00000000E+00
  0.00000000E+00  0.00000000E+00  0.00000000E+00
  0.00000000E+00  0.00000000E+00  0.00000000E+00
  0.00000000E+00  0.00000000E+00  0.00000000E+00
  0.00000000E+00  0.00000000E+00  0.00000000E+00
  0.00000000E+00  0.00000000E+00  0.00000000E+00
  0.00000000E+00  0.00000000E+00  0.00000000E+00
  0.00000000E+00  0.00000000E+00  0.00000000E+00
  0.00000000E+00  0.00000000E+00  0.00000000E+00
  0.00000000E+00  0.00000000E+00  0.00000000E+00
  0.00000000E+00  0.00000000E+00  0.00000000E+00
  0.00000000E+00  0.00000000E+00  0.00000000E+00
  0.00000000E+00  0.00000000E+00  0.00000000E+00
  0.00000000E+00  0.00000000E+00  0.00000000E+00
  0.00000000E+00  0.00000000E+00  0.00000000E+00
  0.00000000E+00  0.00000000E+00  0.00000000E+00
  0.00000000E+00  0.00000000E+00  0.00000000E+00
  0.00000000E+00  0.00000000E+00  0.00000000E+00
  0.00000000E+00  0.00000000E+00  0.00000000E+00
  0.00000000E+00  0.00000000E+00  0.00000000E+00
  0.00000000E+00  0.00000000E+00  0.00000000E+00
  0.00000000E+00  0.00000000E+00  0.00000000E+00
  0.00000000E+00  0.00000000E+00  0.00000000E+00
  0.00000000E+00  0.00000000E+00  0.00000000E+00
  0.00000000E+00  0.00000000E+00  0.00000000E+00
