Sr   Ti   O                             
   1.00000000000000     
    11.1989999999999998    0.0000000000000000    0.0000000000000000
     0.0000000000000000   11.1989999999999998    0.0000000000000000
     0.0000000000000000    0.0000000000000000   15.9830000000000005
   Sr   Ti   O 
    32    32    94
Direct
 -0.0000976831042124  0.2494101614847827  0.1245833964360289
  0.0012413118414379  0.2475567309862366  0.6250897834140898
 -0.0001465854525766  0.7509030883586111  0.1249991492126579
  0.0075466999576886  0.7498270408740555  0.6254734096080500
  0.4998484242353990  0.2502090688813124  0.1250373645861698
  0.5005191474768439  0.2402852656207724  0.6239192415769571
  0.4989795802418742  0.7515290693713200  0.1239761416372327
  0.4879945323120010  0.7552683543865195  0.6276911768534380
 -0.0001228021668350  0.2482484753184205  0.3750393416640250
 -0.0002994039986747  0.2499026007313624  0.8752601440231748
  0.0010387560919757  0.7498470565672604  0.3747899185940558
  0.0019172947228339  0.7508378008893762  0.8760124176396610
  0.5018241849040588  0.2424653943879727  0.3725279598872845
  0.5001707906071419  0.2475699997396458  0.8755922013697091
  0.4956914197322513  0.7524479154536600  0.3702857822998488
  0.4986641839302558  0.7534479215734499  0.8783010168827076
  0.2498270776692770  0.0005605765737419  0.1246524271368938
  0.2486350450892435  0.0006605061497803  0.6250093265021193
  0.2497782259486397  0.5007902654150511  0.1249978829587660
  0.2385700055157292  0.4993293821536617  0.6268327247471775
  0.7501101216150299 -0.0002741427194853  0.1250384970595237
  0.7522180106454557  0.0078944560380625  0.6267109762257628
  0.7500552840783933  0.4997279839910834  0.1242305635660328
  0.7648188428785622  0.4867457110474684  0.6282726497985041
  0.2487941008707027  0.9992583473788825  0.3741003791576666
  0.2501377561384003  0.0003920565010709  0.8744147496292256
  0.2433520596946857  0.5016600312631390  0.3749733348207771
  0.2477302967120521  0.5005480291499571  0.8769322071720418
  0.7517601688138297  0.0010069403009672  0.3735238692073979
  0.7504790337441742  0.0018913359430069  0.8767968508246831
  0.7570383879737529  0.4929997836495084  0.3686407947265644
  0.7533968619069897  0.4989735308384052  0.8766446345433954
  0.9997610100762584  1.0000048820323011  0.9997454381165950
  0.9991408057005178  0.9997323432662023  0.5000291561040138
  0.9999024143379976  0.5001625243414858  0.0003078417152060
  0.9983896767329481  0.4982485281865336  0.5001866202236394
  0.5002328625201744  0.0003076229791859  0.0001909143578326
  0.4992546129363296  0.9980416780115410  0.5000731717648718
  0.4997235494086348  0.4999142953803433  0.0019058091335486
  0.2509919639627036  0.2510758631615375  0.9996444218981346
  0.2486350858407103  0.2472474732963067  0.5001288910814228
  0.2510469773713482  0.7494429398290609  0.0001753147104163
  0.2488012858465589  0.7507476979393134  0.4989554016926121
  0.7489857892766058  0.2507323199380666  0.0001418296094303
  0.7490259999487324  0.2481463673521799  0.4988488327321959
  0.7505200962071533  0.7504370010857810  0.0028644613962061
  0.2505689578222080  0.2508840382292309  0.2507294972064582
  0.2509405718213127  0.2506255507552037  0.7494409336325270
  0.2489349778555504  0.7499456927834326  0.2493946755085904
  0.2502144999050737  0.7500383401426427  0.7500290845777660
  0.7501479192801678  0.2488847619658400  0.2487492667904745
  0.7497271049765701  0.2495156444445661  0.7504623791139233
  0.7489097631853272  0.7483019866096671  0.2513288183415127
  0.7501462042856392  0.7505818791806155  0.7549252506536775
  0.9998765954624292  0.9992649487442199  0.2501337901427190
  1.0005216244436974  1.0002338605241368  0.7498946314062885
  1.0000327062794470  0.5002352873968073  0.2490104139208321
  0.0007349035294801  0.4996592361321415  0.7507286181170443
  0.5002195223067383  0.9990833286395042  0.2493537925837136
  0.5005637104236047  0.9998253845697676  0.7500367730730126
  0.5009446002222964  0.5009139978143744  0.2479559567128411
  0.5022919718654941  0.5022206623558085  0.7566332920400239
  0.4940510551085764  0.4946958029957892  0.4948134375114769
  0.7499916529673258  0.7537307007656188  0.5018639946596607
  0.1109668660730610  0.1411859743845813  0.2514750277519766
  0.1118628862840826  0.1397853697778507  0.7547139502569052
  0.1084956645202804  0.6408893765492885  0.2499862363752468
  0.1122500657624358  0.6381306747686875  0.7491935786949186
  0.6100654355474575  0.1392801583162453  0.2487949521860650
  0.6115834765331327  0.1390593015105881  0.7497203682155061
  0.6083118718625304  0.6414927707684580  0.2434418093373567
  0.3920530388028072  0.3615127367534808  0.2555106706958129
  0.3923485857776802  0.3670511034953737  0.7347541066635256
  0.3894760813627716  0.8600399171976796  0.2492857743861991
  0.3878701165129433  0.8625950677827392  0.7522597281094592
  0.8903040527498264  0.3598000803497912  0.2521344819757587
  0.8886630619034381  0.3614040616320201  0.7494933880469103
  0.8902248692956741  0.8588375677867032  0.2526491203312762
  0.8878049160020175  0.8601889988607664  0.7409487620345190
  0.3608768749675266  0.1107139574715794  0.2518973012481477
  0.3628650755497724  0.1133946831417080  0.7510160494340545
  0.3587656462870502  0.6098746160484146  0.2545572505843151
  0.3653375602611084  0.6110142466238433  0.7385021458550731
  0.8603159960055360  0.1088144787939636  0.2497023476021187
  0.8613027173899489  0.1111994798906079  0.7507716768932159
  0.8588242599532216  0.6084117172366825  0.2475060026485959
  0.8608341876987188  0.6132272015249032  0.7441767030323431
  0.1405838339833999  0.3914952854582150  0.2515099683087313
  0.1402818089990429  0.3896914092190388  0.7527982383832895
  0.1396738788594779  0.8911759545644384  0.2491170823268774
  0.1386411329434578  0.8884687273559426  0.7503824620424333
  0.6413429104743399  0.3894643791471961  0.2500125569047960
  0.6406145835035223  0.8898592050511664  0.2508054971237951
  0.6406348410030092  0.8883346643740100  0.7427427323036090
  0.3581576088200912  0.3911936019921580  1.0003728145002180
  0.3590353607891022  0.8916348765992417  0.9985769994887261
  0.3577052791486309  0.8906313368710824  0.4995871218963441
  0.8597548853086707  0.3907716562666126 -0.0003698187558941
  0.8605463073921211  0.3859537800864874  0.4976857021486348
  0.8595070298411166  0.8914040601522150  1.0006033037094293
  0.8604964463200810  0.8931977860343018  0.5047174746897689
  0.1410389754101984  0.1106263242030113  0.9974098019051446
  0.1415599639809647  0.1101392006906598  0.4969730444382106
  0.1399985894367239  0.6095040319899304  0.9996396297504839
  0.1312233454500048  0.6145019108915514  0.5002830902651219
  0.6413573983259803  0.1086219272495196  0.0000105817069048
  0.6417592595430333  0.1042827663748586  0.5002138223557137
  0.6414889105894350  0.6099311821796910 -0.0010126195085165
  0.1096657072925151  0.3595724831343113  0.9984143370627372
  0.1111050558431012  0.3615438057267588  0.4981687682781075
  0.1094372867813508  0.8600527846411218  0.9988416350550228
  0.1077686296936421  0.8609107092540257  0.4997181645203503
  0.6111717804598711  0.3564324295284500  1.0001928229044272
  0.6093941852953456  0.8590976907738576  0.0005909680889374
  0.6032071585191525  0.8491700507527697  0.5070632336279088
  0.3913312970331855  0.1409260553063445  0.9993488741801596
  0.3912445272460955  0.1406558876747678  0.4987112457987313
  0.3890447389374778  0.6441220832083452  0.0004928762735901
  0.3822552797331088  0.6364369109287102  0.4957527110767473
  0.8913971313665079  0.1402178696611525  0.9982401271093240
  0.8910723197285034  0.1401132575265258  0.4997668026081919
  0.8906375013351380  0.6409195604595551  1.0003690129416678
  0.0008864989347189  1.0009527042451669  0.1247469298931902
  0.0060273487389649  0.0067519548303092  0.6256441999146871
  0.0008570726881535  0.4982154342768443  0.1249304428500797
  0.0048699116063455  0.4936234952751278  0.6254121941856027
  0.4990613650839054 -0.0002602281012258  0.1249358214973001
  0.4955592215189097  0.0032025599565800  0.6249021452431029
  0.4965483423889791  0.4976499722205446  0.1278068129898274
  0.9992812556612242  0.9999131596674607  0.3748470878536810
  0.9966024566587000  0.9953872213612271  0.8738979939836973
  0.9964174466117319  0.5060323523908439  0.3758620892281818
  0.9967284524083657  0.5026438912402701  0.8744196672141534
  0.5026665305158241  0.9967658040828516  0.3756691406551465
  0.5042805272931746  0.9983245810166359  0.8744264312609300
  0.4957834348959567  0.4983605282441986  0.8721725355649457
  0.2534296319344535  0.2551953217427378  0.3766836768601611
  0.2583838303579002  0.2558170361719693  0.8735925060642526
  0.2452970942421457  0.7534431164498977  0.3745644980429652
  0.2519668880371713  0.7454773343573833  0.8731810648713993
  0.7490374119294990  0.2460585963183955  0.3746022013851784
  0.7485595437624205  0.2522918455544798  0.8735975478921116
  0.7425415929769119  0.7372561797175339  0.3746974969229337
  0.7527168797793724  0.7533427857767805  0.8756103836629324
  0.2518821638358469  0.2515714629775251  0.1257400804369866
  0.2425539863640948  0.2438308587810870  0.6250802984148797
  0.2490149001192968  0.7500730628668625  0.1253919701845414
  0.2473479518991228  0.7531215683049853  0.6241406070058632
  0.7529223612302329  0.2491208671939037  0.1252097670987710
  0.7508939983067255  0.2473699582773484  0.6242886918178896
  0.7522142973263274  0.7524668293179505  0.1249548773506990
  0.6379254368779351  0.3914647582645352  0.7442400865846538
  0.6110451284929315  0.6414549816575362  0.7498889040895581
  0.5205446267066903  0.5151502619148023  0.3782566290947121
  0.6066123234849181  0.3551739036808513  0.4985493151611233
  0.3611509501645815  0.3914280945563658  0.5131627844906642
  0.8730334966687819  0.6300376590987504  0.5129475117048975
  0.5807763802251842  0.5700594733959217  0.5785938108796396
 
  0.00000000E+00  0.00000000E+00  0.00000000E+00
  0.00000000E+00  0.00000000E+00  0.00000000E+00
  0.00000000E+00  0.00000000E+00  0.00000000E+00
  0.00000000E+00  0.00000000E+00  0.00000000E+00
  0.00000000E+00  0.00000000E+00  0.00000000E+00
  0.00000000E+00  0.00000000E+00  0.00000000E+00
  0.00000000E+00  0.00000000E+00  0.00000000E+00
  0.00000000E+00  0.00000000E+00  0.00000000E+00
  0.00000000E+00  0.00000000E+00  0.00000000E+00
  0.00000000E+00  0.00000000E+00  0.00000000E+00
  0.00000000E+00  0.00000000E+00  0.00000000E+00
  0.00000000E+00  0.00000000E+00  0.00000000E+00
  0.00000000E+00  0.00000000E+00  0.00000000E+00
  0.00000000E+00  0.00000000E+00  0.00000000E+00
  0.00000000E+00  0.00000000E+00  0.00000000E+00
  0.00000000E+00  0.00000000E+00  0.00000000E+00
  0.00000000E+00  0.00000000E+00  0.00000000E+00
  0.00000000E+00  0.00000000E+00  0.00000000E+00
  0.00000000E+00  0.00000000E+00  0.00000000E+00
  0.00000000E+00  0.00000000E+00  0.00000000E+00
  0.00000000E+00  0.00000000E+00  0.00000000E+00
  0.00000000E+00  0.00000000E+00  0.00000000E+00
  0.00000000E+00  0.00000000E+00  0.00000000E+00
  0.00000000E+00  0.00000000E+00  0.00000000E+00
  0.00000000E+00  0.00000000E+00  0.00000000E+00
  0.00000000E+00  0.00000000E+00  0.00000000E+00
  0.00000000E+00  0.00000000E+00  0.00000000E+00
  0.00000000E+00  0.00000000E+00  0.00000000E+00
  0.00000000E+00  0.00000000E+00  0.00000000E+00
  0.00000000E+00  0.00000000E+00  0.00000000E+00
  0.00000000E+00  0.00000000E+00  0.00000000E+00
  0.00000000E+00  0.00000000E+00  0.00000000E+00
  0.00000000E+00  0.00000000E+00  0.00000000E+00
  0.00000000E+00  0.00000000E+00  0.00000000E+00
  0.00000000E+00  0.00000000E+00  0.00000000E+00
  0.00000000E+00  0.00000000E+00  0.00000000E+00
  0.00000000E+00  0.00000000E+00  0.00000000E+00
  0.00000000E+00  0.00000000E+00  0.00000000E+00
  0.00000000E+00  0.00000000E+00  0.00000000E+00
  0.00000000E+00  0.00000000E+00  0.00000000E+00
  0.00000000E+00  0.00000000E+00  0.00000000E+00
  0.00000000E+00  0.00000000E+00  0.00000000E+00
  0.00000000E+00  0.00000000E+00  0.00000000E+00
  0.00000000E+00  0.00000000E+00  0.00000000E+00
  0.00000000E+00  0.00000000E+00  0.00000000E+00
  0.00000000E+00  0.00000000E+00  0.00000000E+00
  0.00000000E+00  0.00000000E+00  0.00000000E+00
  0.00000000E+00  0.00000000E+00  0.00000000E+00
  0.00000000E+00  0.00000000E+00  0.00000000E+00
  0.00000000E+00  0.00000000E+00  0.00000000E+00
  0.00000000E+00  0.00000000E+00  0.00000000E+00
  0.00000000E+00  0.00000000E+00  0.00000000E+00
  0.00000000E+00  0.00000000E+00  0.00000000E+00
  0.00000000E+00  0.00000000E+00  0.00000000E+00
  0.00000000E+00  0.00000000E+00  0.00000000E+00
  0.00000000E+00  0.00000000E+00  0.00000000E+00
  0.00000000E+00  0.00000000E+00  0.00000000E+00
  0.00000000E+00  0.00000000E+00  0.00000000E+00
  0.00000000E+00  0.00000000E+00  0.00000000E+00
  0.00000000E+00  0.00000000E+00  0.00000000E+00
  0.00000000E+00  0.00000000E+00  0.00000000E+00
  0.00000000E+00  0.00000000E+00  0.00000000E+00
  0.00000000E+00  0.00000000E+00  0.00000000E+00
  0.00000000E+00  0.00000000E+00  0.00000000E+00
  0.00000000E+00  0.00000000E+00  0.00000000E+00
  0.00000000E+00  0.00000000E+00  0.00000000E+00
  0.00000000E+00  0.00000000E+00  0.00000000E+00
  0.00000000E+00  0.00000000E+00  0.00000000E+00
  0.00000000E+00  0.00000000E+00  0.00000000E+00
  0.00000000E+00  0.00000000E+00  0.00000000E+00
  0.00000000E+00  0.00000000E+00  0.00000000E+00
  0.00000000E+00  0.00000000E+00  0.00000000E+00
  0.00000000E+00  0.00000000E+00  0.00000000E+00
  0.00000000E+00  0.00000000E+00  0.00000000E+00
  0.00000000E+00  0.00000000E+00  0.00000000E+00
  0.00000000E+00  0.00000000E+00  0.00000000E+00
  0.00000000E+00  0.00000000E+00  0.00000000E+00
  0.00000000E+00  0.00000000E+00  0.00000000E+00
  0.00000000E+00  0.00000000E+00  0.00000000E+00
  0.00000000E+00  0.00000000E+00  0.00000000E+00
  0.00000000E+00  0.00000000E+00  0.00000000E+00
  0.00000000E+00  0.00000000E+00  0.00000000E+00
  0.00000000E+00  0.00000000E+00  0.00000000E+00
  0.00000000E+00  0.00000000E+00  0.00000000E+00
  0.00000000E+00  0.00000000E+00  0.00000000E+00
  0.00000000E+00  0.00000000E+00  0.00000000E+00
  0.00000000E+00  0.00000000E+00  0.00000000E+00
  0.00000000E+00  0.00000000E+00  0.00000000E+00
  0.00000000E+00  0.00000000E+00  0.00000000E+00
  0.00000000E+00  0.00000000E+00  0.00000000E+00
  0.00000000E+00  0.00000000E+00  0.00000000E+00
  0.00000000E+00  0.00000000E+00  0.00000000E+00
  0.00000000E+00  0.00000000E+00  0.00000000E+00
  0.00000000E+00  0.00000000E+00  0.00000000E+00
  0.00000000E+00  0.00000000E+00  0.00000000E+00
  0.00000000E+00  0.00000000E+00  0.00000000E+00
  0.00000000E+00  0.00000000E+00  0.00000000E+00
  0.00000000E+00  0.00000000E+00  0.00000000E+00
  0.00000000E+00  0.00000000E+00  0.00000000E+00
  0.00000000E+00  0.00000000E+00  0.00000000E+00
  0.00000000E+00  0.00000000E+00  0.00000000E+00
  0.00000000E+00  0.00000000E+00  0.00000000E+00
  0.00000000E+00  0.00000000E+00  0.00000000E+00
  0.00000000E+00  0.00000000E+00  0.00000000E+00
  0.00000000E+00  0.00000000E+00  0.00000000E+00
  0.00000000E+00  0.00000000E+00  0.00000000E+00
  0.00000000E+00  0.00000000E+00  0.00000000E+00
  0.00000000E+00  0.00000000E+00  0.00000000E+00
  0.00000000E+00  0.00000000E+00  0.00000000E+00
  0.00000000E+00  0.00000000E+00  0.00000000E+00
  0.00000000E+00  0.00000000E+00  0.00000000E+00
  0.00000000E+00  0.00000000E+00  0.00000000E+00
  0.00000000E+00  0.00000000E+00  0.00000000E+00
  0.00000000E+00  0.00000000E+00  0.00000000E+00
  0.00000000E+00  0.00000000E+00  0.00000000E+00
  0.00000000E+00  0.00000000E+00  0.00000000E+00
  0.00000000E+00  0.00000000E+00  0.00000000E+00
  0.00000000E+00  0.00000000E+00  0.00000000E+00
  0.00000000E+00  0.00000000E+00  0.00000000E+00
  0.00000000E+00  0.00000000E+00  0.00000000E+00
  0.00000000E+00  0.00000000E+00  0.00000000E+00
  0.00000000E+00  0.00000000E+00  0.00000000E+00
  0.00000000E+00  0.00000000E+00  0.00000000E+00
  0.00000000E+00  0.00000000E+00  0.00000000E+00
  0.00000000E+00  0.00000000E+00  0.00000000E+00
  0.00000000E+00  0.00000000E+00  0.00000000E+00
  0.00000000E+00  0.00000000E+00  0.00000000E+00
  0.00000000E+00  0.00000000E+00  0.00000000E+00
  0.00000000E+00  0.00000000E+00  0.00000000E+00
  0.00000000E+00  0.00000000E+00  0.00000000E+00
  0.00000000E+00  0.00000000E+00  0.00000000E+00
  0.00000000E+00  0.00000000E+00  0.00000000E+00
  0.00000000E+00  0.00000000E+00  0.00000000E+00
  0.00000000E+00  0.00000000E+00  0.00000000E+00
  0.00000000E+00  0.00000000E+00  0.00000000E+00
  0.00000000E+00  0.00000000E+00  0.00000000E+00
  0.00000000E+00  0.00000000E+00  0.00000000E+00
  0.00000000E+00  0.00000000E+00  0.00000000E+00
  0.00000000E+00  0.00000000E+00  0.00000000E+00
  0.00000000E+00  0.00000000E+00  0.00000000E+00
  0.00000000E+00  0.00000000E+00  0.00000000E+00
  0.00000000E+00  0.00000000E+00  0.00000000E+00
  0.00000000E+00  0.00000000E+00  0.00000000E+00
  0.00000000E+00  0.00000000E+00  0.00000000E+00
  0.00000000E+00  0.00000000E+00  0.00000000E+00
  0.00000000E+00  0.00000000E+00  0.00000000E+00
  0.00000000E+00  0.00000000E+00  0.00000000E+00
  0.00000000E+00  0.00000000E+00  0.00000000E+00
  0.00000000E+00  0.00000000E+00  0.00000000E+00
  0.00000000E+00  0.00000000E+00  0.00000000E+00
  0.00000000E+00  0.00000000E+00  0.00000000E+00
  0.00000000E+00  0.00000000E+00  0.00000000E+00
  0.00000000E+00  0.00000000E+00  0.00000000E+00
  0.00000000E+00  0.00000000E+00  0.00000000E+00
  0.00000000E+00  0.00000000E+00  0.00000000E+00
  0.00000000E+00  0.00000000E+00  0.00000000E+00
  0.00000000E+00  0.00000000E+00  0.00000000E+00
  0.00000000E+00  0.00000000E+00  0.00000000E+00
