Sr   Ti   Fe   O                        
   1.00000000000000     
    11.1989999999999998    0.0000000000000000    0.0000000000000000
     0.0000000000000000   11.1989999999999998    0.0000000000000000
     0.0000000000000000    0.0000000000000000   15.9830000000000005
   Sr   Ti   Fe   O 
    32    30     2    95
Direct
  0.0001590928547227  0.2494603032696993  0.1248433488038888
 -0.0001583665928162  0.2479145572359261  0.6256486384922743
  0.9983787750947829  0.7507949773333020  0.1252784761446364
  0.9988061127821387  0.7505931906643281  0.6253974682028471
  0.4997767795480995  0.2498321612291850  0.1248259762002704
  0.5008902788334367  0.2416364259314646  0.6254047551475780
  0.5002988931598684  0.7514847815495218  0.1234434395891469
  0.4993066008671951  0.7535712630686915  0.6265894104912018
 -0.0000758728278107  0.2494100057115319  0.3755816367268327
  1.0000267398878915  0.2493693145873502  0.8739722793084034
  0.9990244085386812  0.7489785759553140  0.3767401583985024
  0.9986938192294551  0.7506872906141340  0.8737184992769480
  0.5014730986489827  0.2425233995795305  0.3734742342139181
  0.4997044312658696  0.2500930768170141  0.8740615452883853
  0.4984520286394890  0.7535731025155342  0.3719561623304307
  0.5015203042199314  0.7507773215300491  0.8751248028071892
  0.2496633758600867  0.9999381008834063  0.1248143135628485
  0.2490840328972133  0.9991939937623955  0.6258972752016179
  0.2495151622054770  0.5007419943698697  0.1243705300300230
  0.2392028551872777  0.5005917997728327  0.6274316415930160
  0.7500160687695128  0.9989941891596885  0.1248233400332260
  0.7515932498660080  0.9995485074268855  0.6261811814622831
  0.7504907636564460  0.5012626590936345  0.1242498820066904
  0.7629180866840939  0.4967966443696660  0.6299227312201140
  0.2496245234201031  0.9991428497682942  0.3749125256795102
  0.2497529138362510  1.0000763592845623  0.8737436045311366
  0.2437653193027080  0.5016162197357914  0.3748277604366190
  0.2505831134453065  0.5006824568862119  0.8748320922579335
  0.7508578002916092  1.0009844966578267  0.3746026179924775
  0.7507204637157989  0.9988502960374356  0.8742456750243157
  0.7568631043397411  0.4970854961695329  0.3714562756983409
  0.7492472503844170  0.5013247081841677  0.8744389404356055
  0.9997864405496706  1.0000348699920159  0.9996888988592213
  1.0005913011051961  1.0007095543627935  0.4996301467423531
  0.9999379143059063  0.4998748744479020  0.9999537009448557
  0.9974594974864311  0.5005503204393329  0.5000132061809194
  0.5000140700720493  0.0003691220576338  0.9997176643543589
  0.5014025638800914  0.9967802543204116  0.4999293833592290
  0.4995984601381733  0.4997335613152982  1.0005590738143137
  0.2505288596700988  0.2505332878333936  0.9996893577814620
  0.2487456260819507  0.2476158155062041  0.5009449634109487
  0.2499063770412140  0.7497914008718737  0.9997652185039776
  0.2495402171978863  0.7502152382291122  0.4998112658550581
  0.7499440895017954  0.2503097158624557  0.9997806105658884
  0.7488782747641662  0.2492033687080923  0.4998746740991323
  0.7504384636717365  0.7504935162630297  0.9998947373478542
  0.2507085955804529  0.2506751986604370  0.2501918062814732
  0.2523797874801227  0.2515398945167682  0.7489726247140090
  0.2489845087083261  0.7498905808579606  0.2498665491866879
  0.2519903398192817  0.7482002026108596  0.7494144191098829
  0.7501737697086023  0.2494583557966404  0.2493849129023413
  0.7479472655211933  0.2512471237719279  0.7498006252415637
  0.7488479544802424  0.7489693684305161  0.2521655562850545
  0.7480464310437234  0.7486152803427415  0.7479801915581261
  1.0001052750301551  0.9998290271031178  0.2504899880778909
  0.0002484488179663  0.9998501344112426  0.7503902864235872
  0.0003402233555923  0.4996754571135647  0.2492873239257528
  1.0005883465154057  0.4998049465363615  0.7517160965749931
  0.4999180140105398  0.9996552765477228  0.2493501865836624
  0.5002994636011203  0.9995225305561845  0.7505424213299950
  0.5010843605656307  0.5009271976924254  0.2480013585372375
  0.4931501743628006  0.4937332601383789  0.4934358965127851
  0.5012810575645000  0.5009556828386104  0.7587853667548959
  0.7567051603407586  0.7608734621814960  0.5012228562352803
  0.1104030894252228  0.1414537375709150  0.2503154083487990
  0.1113844405835832  0.1391980454987957  0.7523513056247130
  0.1088291258362262  0.6404499649125217  0.2504029387987943
  0.1119919736897313  0.6382817385991677  0.7498711178541388
  0.6093220133784158  0.1404953935694615  0.2487711428654701
  0.6106644316519736  0.1389125168525134  0.7507630714709462
  0.6083435062463173  0.6415225703133871  0.2439270189442406
  0.3928610063433122  0.3606754106821620  0.2541901224101789
  0.3900038294837069  0.3640284729308903  0.7388173157608904
  0.3900735481580400  0.8596618142716714  0.2488624166202430
  0.3884408947426255  0.8621835710130585  0.7510253413744279
  0.8907138113129487  0.3594361876899474  0.2511976661590973
  0.8889337740056567  0.3612511008500812  0.7493126360821908
  0.8894754408906513  0.8588533510120491  0.2546535871255027
  0.8899426596465816  0.8617869550492848  0.7507252951183424
  0.3596670176458615  0.1100520218682031  0.2505427670834044
  0.3619123062126993  0.1119120027299354  0.7500271482870001
  0.3589775240885380  0.6084476798314377  0.2518816911448291
  0.3641122513290555  0.6107078036814594  0.7408594470766990
  0.8594592362665229  0.1091187021185721  0.2495190882644186
  0.8606515664654534  0.1113873014349437  0.7506840638398432
  0.8594556312914567  0.6085576093908477  0.2493005542677096
  0.8630939574025122  0.6113440344990961  0.7519003782006672
  0.1414656495013046  0.3911897430606199  0.2493130539432455
  0.1391191723891148  0.3892036008465442  0.7514464189273369
  0.1401281809313973  0.8907374621302491  0.2487854051646703
  0.1395436650894792  0.8886095011242068  0.7511104097920318
  0.6414803549011026  0.3912240949070106  0.2492352205197481
  0.6403174885308094  0.8907004959558561  0.2513973318725986
  0.6387778460784753  0.8900941921964267  0.7503982421026005
  0.3584348504070627  0.3913452567272709  0.0012857216715178
  0.3589204152443066  0.8908001762503962 -0.0001371840827947
  0.3582680503600735  0.8905982507150808  0.4997664723539004
  0.8589450823958691  0.3912216647838925  0.9997017576731483
  0.8590678864557112  0.3878382289589588  0.4991824207125523
  0.8595752754663405  0.8914775888328620  1.0001969717014700
  0.8608463500360688  0.8940947538608205  0.4968693573974146
  0.1413301121075344  0.1098770709384620  0.9999011582965915
  0.1415864331443132  0.1091681187458917  0.4985258973615972
  0.1409689787111878  0.6086383836764813  0.9997289794856302
  0.1341599032450904  0.6124067062798332  0.4991500197158538
  0.6410737177823411  0.1093670594585255  0.9998663169094109
  0.6417014430973170  0.1055989810569464  0.4997806733618624
  0.6403490827471431  0.6092377954056466  0.0009099716247049
  0.1091998763762668  0.3586539165413469  0.9999618872769073
  0.1099310124801470  0.3600998652793442  0.4998588562481955
  0.1095672067200303  0.8589077397461188  0.9992797734982546
  0.1080771428760919  0.8602163311604638  0.4990207354083422
  0.6088701538016377  0.3591239519590571  0.0010777668449211
  0.6090062012908304  0.8596462521729699  1.0001439257946556
  0.6055434217554517  0.8534278456171099  0.4996789525304698
  0.3912237505662753  0.1412138651246685  1.0000272632269207
  0.3907648437656650  0.1406789963198936  0.4997340358457868
  0.3909949730047401  0.6407984063415137  0.0010230571608730
  0.3826707393880655  0.6368747570139848  0.4956362772875565
  0.8908512606838987  0.1413521158321103  0.9993863905617749
  0.8912417805939508  0.1407278600433206  0.4991462001940130
  0.8910048585030490  0.6405390777425169  0.0002326689960132
  0.9992588222936583  0.9991899122034639  0.1252336391178891
  0.0011322783220570  0.0011501673236343  0.6247667904962921
  0.0001301433608957  0.4992104856139395  0.1248942260684888
  0.0018700373229848  0.4994791840761340  0.6254274678841347
  0.4999817652696305  0.9999592592685871  0.1248940307736407
  0.4997803659448344  0.0011119978757736  0.6250869655184300
  0.4977666139038879  0.4978973295951863  0.1255362468921206
  0.0022157109105004  0.0024227580723672  0.3743213624564533
  0.9999283942795504  0.9999978009995399  0.8757821230170851
  0.0006366768200236  0.4995912538975315  0.3745632892019294
  0.0004164777279576  0.4992610003672909  0.8754990453641575
  0.4994484689780963  0.0005623016927664  0.3745802110035989
  0.4997361780328550  1.0003511206390774  0.8753676398728332
  0.4970980014339895  0.4974190561006090  0.8775436469560753
  0.2525213193498474  0.2545074213117734  0.3763300306370040
  0.2551552921845418  0.2535730476200149  0.8744842094822526
  0.2475156102333353  0.7522822501807634  0.3739455470055061
  0.2531083779318825  0.7458432373574743  0.8742922113791579
  0.7492521949703586  0.2481512321864226  0.3741854854756205
  0.7478323070229853  0.2532170034912472  0.8745255037061530
  0.7393113215260286  0.7368399121173600  0.3768019132756413
  0.7505467267138630  0.7511572358848853  0.8760441870107872
  0.2522339646945766  0.2508989315284065  0.1257227214817629
  0.2433267877807756  0.2440899795901987  0.6250599041230260
  0.2493644875664162  0.7489722696636144  0.1248712112891023
  0.2469976400297323  0.7523740195514346  0.6240845930123395
  0.7513045918579507  0.2501677989641012  0.1247811524248323
  0.7503316618191015  0.2472171897220000  0.6241875587490978
  0.7523091764152247  0.7525536313604640  0.1253708803103614
  0.6374637896177635  0.3897877552683825  0.7440371976455291
  0.6117659321260256  0.6394047292599421  0.7523217879265381
  0.5169385102321924  0.5134227741437419  0.3760949997527021
  0.6047895233600172  0.3533893997954550  0.4970960595076271
  0.3595331339324123  0.3915200363384609  0.5131613262676915
  0.7534114766731401  0.7536586466947625  0.6257643961626674
  0.8792807542071143  0.6328793836449363  0.5004987331053169
  0.5824889164586396  0.5695280811262791  0.5726220614054385
 
  0.00000000E+00  0.00000000E+00  0.00000000E+00
  0.00000000E+00  0.00000000E+00  0.00000000E+00
  0.00000000E+00  0.00000000E+00  0.00000000E+00
  0.00000000E+00  0.00000000E+00  0.00000000E+00
  0.00000000E+00  0.00000000E+00  0.00000000E+00
  0.00000000E+00  0.00000000E+00  0.00000000E+00
  0.00000000E+00  0.00000000E+00  0.00000000E+00
  0.00000000E+00  0.00000000E+00  0.00000000E+00
  0.00000000E+00  0.00000000E+00  0.00000000E+00
  0.00000000E+00  0.00000000E+00  0.00000000E+00
  0.00000000E+00  0.00000000E+00  0.00000000E+00
  0.00000000E+00  0.00000000E+00  0.00000000E+00
  0.00000000E+00  0.00000000E+00  0.00000000E+00
  0.00000000E+00  0.00000000E+00  0.00000000E+00
  0.00000000E+00  0.00000000E+00  0.00000000E+00
  0.00000000E+00  0.00000000E+00  0.00000000E+00
  0.00000000E+00  0.00000000E+00  0.00000000E+00
  0.00000000E+00  0.00000000E+00  0.00000000E+00
  0.00000000E+00  0.00000000E+00  0.00000000E+00
  0.00000000E+00  0.00000000E+00  0.00000000E+00
  0.00000000E+00  0.00000000E+00  0.00000000E+00
  0.00000000E+00  0.00000000E+00  0.00000000E+00
  0.00000000E+00  0.00000000E+00  0.00000000E+00
  0.00000000E+00  0.00000000E+00  0.00000000E+00
  0.00000000E+00  0.00000000E+00  0.00000000E+00
  0.00000000E+00  0.00000000E+00  0.00000000E+00
  0.00000000E+00  0.00000000E+00  0.00000000E+00
  0.00000000E+00  0.00000000E+00  0.00000000E+00
  0.00000000E+00  0.00000000E+00  0.00000000E+00
  0.00000000E+00  0.00000000E+00  0.00000000E+00
  0.00000000E+00  0.00000000E+00  0.00000000E+00
  0.00000000E+00  0.00000000E+00  0.00000000E+00
  0.00000000E+00  0.00000000E+00  0.00000000E+00
  0.00000000E+00  0.00000000E+00  0.00000000E+00
  0.00000000E+00  0.00000000E+00  0.00000000E+00
  0.00000000E+00  0.00000000E+00  0.00000000E+00
  0.00000000E+00  0.00000000E+00  0.00000000E+00
  0.00000000E+00  0.00000000E+00  0.00000000E+00
  0.00000000E+00  0.00000000E+00  0.00000000E+00
  0.00000000E+00  0.00000000E+00  0.00000000E+00
  0.00000000E+00  0.00000000E+00  0.00000000E+00
  0.00000000E+00  0.00000000E+00  0.00000000E+00
  0.00000000E+00  0.00000000E+00  0.00000000E+00
  0.00000000E+00  0.00000000E+00  0.00000000E+00
  0.00000000E+00  0.00000000E+00  0.00000000E+00
  0.00000000E+00  0.00000000E+00  0.00000000E+00
  0.00000000E+00  0.00000000E+00  0.00000000E+00
  0.00000000E+00  0.00000000E+00  0.00000000E+00
  0.00000000E+00  0.00000000E+00  0.00000000E+00
  0.00000000E+00  0.00000000E+00  0.00000000E+00
  0.00000000E+00  0.00000000E+00  0.00000000E+00
  0.00000000E+00  0.00000000E+00  0.00000000E+00
  0.00000000E+00  0.00000000E+00  0.00000000E+00
  0.00000000E+00  0.00000000E+00  0.00000000E+00
  0.00000000E+00  0.00000000E+00  0.00000000E+00
  0.00000000E+00  0.00000000E+00  0.00000000E+00
  0.00000000E+00  0.00000000E+00  0.00000000E+00
  0.00000000E+00  0.00000000E+00  0.00000000E+00
  0.00000000E+00  0.00000000E+00  0.00000000E+00
  0.00000000E+00  0.00000000E+00  0.00000000E+00
  0.00000000E+00  0.00000000E+00  0.00000000E+00
  0.00000000E+00  0.00000000E+00  0.00000000E+00
  0.00000000E+00  0.00000000E+00  0.00000000E+00
  0.00000000E+00  0.00000000E+00  0.00000000E+00
  0.00000000E+00  0.00000000E+00  0.00000000E+00
  0.00000000E+00  0.00000000E+00  0.00000000E+00
  0.00000000E+00  0.00000000E+00  0.00000000E+00
  0.00000000E+00  0.00000000E+00  0.00000000E+00
  0.00000000E+00  0.00000000E+00  0.00000000E+00
  0.00000000E+00  0.00000000E+00  0.00000000E+00
  0.00000000E+00  0.00000000E+00  0.00000000E+00
  0.00000000E+00  0.00000000E+00  0.00000000E+00
  0.00000000E+00  0.00000000E+00  0.00000000E+00
  0.00000000E+00  0.00000000E+00  0.00000000E+00
  0.00000000E+00  0.00000000E+00  0.00000000E+00
  0.00000000E+00  0.00000000E+00  0.00000000E+00
  0.00000000E+00  0.00000000E+00  0.00000000E+00
  0.00000000E+00  0.00000000E+00  0.00000000E+00
  0.00000000E+00  0.00000000E+00  0.00000000E+00
  0.00000000E+00  0.00000000E+00  0.00000000E+00
  0.00000000E+00  0.00000000E+00  0.00000000E+00
  0.00000000E+00  0.00000000E+00  0.00000000E+00
  0.00000000E+00  0.00000000E+00  0.00000000E+00
  0.00000000E+00  0.00000000E+00  0.00000000E+00
  0.00000000E+00  0.00000000E+00  0.00000000E+00
  0.00000000E+00  0.00000000E+00  0.00000000E+00
  0.00000000E+00  0.00000000E+00  0.00000000E+00
  0.00000000E+00  0.00000000E+00  0.00000000E+00
  0.00000000E+00  0.00000000E+00  0.00000000E+00
  0.00000000E+00  0.00000000E+00  0.00000000E+00
  0.00000000E+00  0.00000000E+00  0.00000000E+00
  0.00000000E+00  0.00000000E+00  0.00000000E+00
  0.00000000E+00  0.00000000E+00  0.00000000E+00
  0.00000000E+00  0.00000000E+00  0.00000000E+00
  0.00000000E+00  0.00000000E+00  0.00000000E+00
  0.00000000E+00  0.00000000E+00  0.00000000E+00
  0.00000000E+00  0.00000000E+00  0.00000000E+00
  0.00000000E+00  0.00000000E+00  0.00000000E+00
  0.00000000E+00  0.00000000E+00  0.00000000E+00
  0.00000000E+00  0.00000000E+00  0.00000000E+00
  0.00000000E+00  0.00000000E+00  0.00000000E+00
  0.00000000E+00  0.00000000E+00  0.00000000E+00
  0.00000000E+00  0.00000000E+00  0.00000000E+00
  0.00000000E+00  0.00000000E+00  0.00000000E+00
  0.00000000E+00  0.00000000E+00  0.00000000E+00
  0.00000000E+00  0.00000000E+00  0.00000000E+00
  0.00000000E+00  0.00000000E+00  0.00000000E+00
  0.00000000E+00  0.00000000E+00  0.00000000E+00
  0.00000000E+00  0.00000000E+00  0.00000000E+00
  0.00000000E+00  0.00000000E+00  0.00000000E+00
  0.00000000E+00  0.00000000E+00  0.00000000E+00
  0.00000000E+00  0.00000000E+00  0.00000000E+00
  0.00000000E+00  0.00000000E+00  0.00000000E+00
  0.00000000E+00  0.00000000E+00  0.00000000E+00
  0.00000000E+00  0.00000000E+00  0.00000000E+00
  0.00000000E+00  0.00000000E+00  0.00000000E+00
  0.00000000E+00  0.00000000E+00  0.00000000E+00
  0.00000000E+00  0.00000000E+00  0.00000000E+00
  0.00000000E+00  0.00000000E+00  0.00000000E+00
  0.00000000E+00  0.00000000E+00  0.00000000E+00
  0.00000000E+00  0.00000000E+00  0.00000000E+00
  0.00000000E+00  0.00000000E+00  0.00000000E+00
  0.00000000E+00  0.00000000E+00  0.00000000E+00
  0.00000000E+00  0.00000000E+00  0.00000000E+00
  0.00000000E+00  0.00000000E+00  0.00000000E+00
  0.00000000E+00  0.00000000E+00  0.00000000E+00
  0.00000000E+00  0.00000000E+00  0.00000000E+00
  0.00000000E+00  0.00000000E+00  0.00000000E+00
  0.00000000E+00  0.00000000E+00  0.00000000E+00
  0.00000000E+00  0.00000000E+00  0.00000000E+00
  0.00000000E+00  0.00000000E+00  0.00000000E+00
  0.00000000E+00  0.00000000E+00  0.00000000E+00
  0.00000000E+00  0.00000000E+00  0.00000000E+00
  0.00000000E+00  0.00000000E+00  0.00000000E+00
  0.00000000E+00  0.00000000E+00  0.00000000E+00
  0.00000000E+00  0.00000000E+00  0.00000000E+00
  0.00000000E+00  0.00000000E+00  0.00000000E+00
  0.00000000E+00  0.00000000E+00  0.00000000E+00
  0.00000000E+00  0.00000000E+00  0.00000000E+00
  0.00000000E+00  0.00000000E+00  0.00000000E+00
  0.00000000E+00  0.00000000E+00  0.00000000E+00
  0.00000000E+00  0.00000000E+00  0.00000000E+00
  0.00000000E+00  0.00000000E+00  0.00000000E+00
  0.00000000E+00  0.00000000E+00  0.00000000E+00
  0.00000000E+00  0.00000000E+00  0.00000000E+00
  0.00000000E+00  0.00000000E+00  0.00000000E+00
  0.00000000E+00  0.00000000E+00  0.00000000E+00
  0.00000000E+00  0.00000000E+00  0.00000000E+00
  0.00000000E+00  0.00000000E+00  0.00000000E+00
  0.00000000E+00  0.00000000E+00  0.00000000E+00
  0.00000000E+00  0.00000000E+00  0.00000000E+00
  0.00000000E+00  0.00000000E+00  0.00000000E+00
  0.00000000E+00  0.00000000E+00  0.00000000E+00
  0.00000000E+00  0.00000000E+00  0.00000000E+00
  0.00000000E+00  0.00000000E+00  0.00000000E+00
  0.00000000E+00  0.00000000E+00  0.00000000E+00
  0.00000000E+00  0.00000000E+00  0.00000000E+00
  0.00000000E+00  0.00000000E+00  0.00000000E+00
  0.00000000E+00  0.00000000E+00  0.00000000E+00
