Sr   Ti   Fe   O                        
   1.00000000000000     
    11.1989999999999998    0.0000000000000000    0.0000000000000000
     0.0000000000000000   11.1989999999999998    0.0000000000000000
     0.0000000000000000    0.0000000000000000   15.9830000000000005
   Sr   Ti   Fe   O 
    32    30     2    95
Direct
  0.9997568216854044  0.2494028274232676  0.1249354457778842
 -0.0000969018615046  0.2482842785353506  0.6239505572228157
  0.9985699196581079  0.7510164465166357  0.1255599621467751
  0.9991615406643735  0.7506229270258586  0.6239239472577169
  0.5000029458293529  0.2500180075072400  0.1263132715069500
  0.5019813153014284  0.2426338739010762  0.6223792918582821
  0.4997769540843369  0.7515962506725554  0.1247907690331856
  0.4986595304669729  0.7526115614277042  0.6248885200428729
  0.0004699694806586  0.2495622485418077  0.3764072758605198
  0.9997642050175853  0.2500108792956923  0.8746934462121128
  0.9990439315471638  0.7489040010047295  0.3775799806996625
  0.9990567655978141  0.7501631193230532  0.8745119683806130
  0.5010063945175431  0.2453260249106963  0.3745554285981648
  0.4998330644780847  0.2472156137086788  0.8756359423928098
  0.4975308566850134  0.7509887154744984  0.3731962248108696
  0.5016458130677398  0.7544138189599784  0.8767737810772538
  0.2501091382313091  1.0007093806062783  0.1248361489192376
  0.2495252789743265  0.9997844578585047  0.6237960776196344
  0.2494601480983318  0.5008085308024578  0.1262155740570682
  0.2406878802834064  0.5004180936372251  0.6241347866321150
  0.7495190777001456  0.9987820447722086  0.1248603762395667
  0.7519970674822605 -0.0006154609491562  0.6248976420640122
  0.7505058637249760  0.5012546592511896  0.1256296245989861
  0.7622866888898413  0.4983825963222023  0.6274655316949117
  0.2492443439590673  0.9995794451258950  0.3751008368565434
  0.2502346967700602  0.0008139178146109  0.8744475253780817
  0.2479165431915248  0.5014831510254866  0.3777953104479215
  0.2475820284161534  0.5006865676982707  0.8761904779496009
  0.7515412454712110  0.0006588851263401  0.3742583205045309
  0.7511039049887127  0.9991383948359909  0.8750786092765984
  0.7541043403664748  0.4969401205242860  0.3735695447004282
  0.7530319528972960  0.5013580184134616  0.8757212304776520
  0.9998937030227194  1.0001634171782612  0.9996942564877807
  0.0010871544365546  0.0012887709547404  0.4994146477456785
  1.0000744671739195  0.4998686711634975  0.0004341213907851
  0.9969027436094087  0.5001974276378209  0.4996752794537236
  0.5000501644673367  0.0004398232031663  0.0001865066685373
  0.5018200812214859  0.9959247637883515  0.4994860756124848
  0.4992698643034525  0.4997384221371478  0.0047179243390025
  0.2506785306337932  0.2509831521006094  0.0000302669079899
  0.2510692158457282  0.2496785619341596  0.5006047505827785
  0.2501312841387182  0.7497060434781809  0.9999891217549542
  0.2501060698319270  0.7498478928255697  0.4995867600191483
  0.7496876036793798  0.2505474432799192  1.0000339935515856
  0.7477359035095760  0.2492492385399436  0.4995996802282090
  0.7504675895024830  0.7502529853431662  0.0003400870349516
  0.2503303592679524  0.2510737632490174  0.2505787254059906
  0.2509223666627298  0.2505834315954062  0.7484619333652353
  0.2486926801011087  0.7502240418154977  0.2500696568643685
  0.2509186422139108  0.7504402836297266  0.7491658205815626
  0.7505897021645791  0.2493028764448260  0.2497532663828980
  0.7497987785772746  0.2496616680922815  0.7494572098282595
  0.7487009104208792  0.7486705683146470  0.2526540931723659
  0.7503603508108934  0.7509668438763880  0.7486099135240365
  0.0002103216257954  0.9999843153323887  0.2501328141110550
  0.0008552471353792  1.0002243127230477  0.7504515646555746
  0.0004082321156249  0.4998532296977232  0.2499215710505387
  0.0010861549707082  0.5000225916075502  0.7507372390928300
  0.4998801351588374 -0.0003149865343110  0.2499284234693465
  0.5006204624023470  0.0001761004204452  0.7500140479800859
  0.5011566079257743  0.5008907703324239  0.2524951433840740
  0.5019507471146446  0.5016845892404863  0.7578804095633850
  0.4935503060812230  0.4929001123476240  0.4944233134902954
  0.7557164930439380  0.7602100363836095  0.5013526734077245
  0.1098878050930030  0.1420289767274705  0.2496261884409035
  0.1107256280112507  0.1407946466841928  0.7532462836701672
  0.1082140313622388  0.6411526365602939  0.2491139564247811
  0.1123432547467872  0.6391188589112078  0.7501823284159261
  0.6093057247336086  0.1403242196816052  0.2490082803816123
  0.6097856082846664  0.1410325221920627  0.7509985760491386
  0.6084028134992344  0.6411792292049225  0.2436003272476787
  0.3924509880273161  0.3604578467356295  0.2530101506369553
  0.3929781154634593  0.3654836611260645  0.7360714682556525
  0.3900739055143109  0.8596720620666364  0.2491226782012610
  0.3896437602482763  0.8614079423776329  0.7512932725101048
  0.8913334942029392  0.3588074228382209  0.2502522980384433
  0.8897741398119248  0.3608106552178604  0.7492305428648867
  0.8894439752683403  0.8586221513084027  0.2546286899394798
  0.8914567194212266  0.8612393798224264  0.7518806582337004
  0.3595509451551192  0.1101371514066905  0.2500482468015897
  0.3614454190788655  0.1120838819805145  0.7502445629080526
  0.3587198154712973  0.6091962422766387  0.2522782453186966
  0.3657153384538975  0.6093228449285373  0.7386261618959327
  0.8593741697042495  0.1084209896774981  0.2475711351838537
  0.8599650227421453  0.1107743494369523  0.7514029665141851
  0.8590659285952481  0.6081966561093463  0.2497797495992769
  0.8625222350773799  0.6113411591956488  0.7519790012062360
  0.1418927623275632  0.3920145891718301  0.2503265116541215
  0.1411196164030155  0.3905200309831344  0.7511010421110782
  0.1401804732591033  0.8915797044917836  0.2467671840733368
  0.1411838415104607  0.8900774707547467  0.7515662666035802
  0.6419192582486365  0.3905952461857123  0.2490178319249385
  0.6404132310540227  0.8904710806436614  0.2510665282870705
  0.6402220224634717  0.8914516463661947  0.7513093459949087
  0.3584580961356827  0.3922370531409106  0.0009583572130919
  0.3594271850054923  0.8906162337976773  0.9991690540831913
  0.3586699313422873  0.8901511017773899  0.4997202326309138
  0.8590043932869077  0.3911695998263707 -0.0000418356030833
  0.8607805730357787  0.3859558751483737  0.4992768744117412
  0.8599527717006453  0.8911291447960979  0.9999276609599832
  0.8614207537729763  0.8922016668656447  0.4963547422270778
  0.1413926393830591  0.1105710129182941  0.9993034959440876
  0.1405549726799502  0.1103658994782582  0.4986597104481925
  0.1410047096734003  0.6088739149700396 -0.0000322233127459
  0.1298511195642776  0.6152736026762500  0.4992263591982691
  0.6408025520238715  0.1096512164069527  0.9991534587118538
  0.6425356913465927  0.1030890790802903  0.4997781090444642
  0.6399473955467317  0.6085540747816780 -0.0005648008080138
  0.1094068909876701  0.3589946659214532  0.9992762101020981
  0.1106680388708795  0.3617914523845030  0.4999045338566131
  0.1103223838923098  0.8589812270311922  0.9985344798261242
  0.1082648124014008  0.8621029449241912  0.4998959371527711
  0.6079042249154584  0.3595252025560544 -0.0000225132971044
  0.6094301615687699  0.8597984082310013  0.0006691958092473
  0.6048501653171624  0.8516527679167806  0.4998717213041473
  0.3909987405696871  0.1412170739817255  0.0005513205799007
  0.3905337290985609  0.1387628947138532  0.4998299383141320
  0.3919550633147982  0.6406131127664093  0.0000347192374126
  0.3776941130967277  0.6369163732533851  0.4940068582847846
  0.8903889994924190  0.1413292331608406  0.9986679825622559
  0.8912960390012921  0.1391736059982078  0.4998635705324032
  0.8909303014571769  0.6402240390287989  0.9998332100517353
  0.9994731207043869  0.9993587174621437  0.1243013666022115
  0.0007566230540123  0.0009723880195377  0.6258798726599749
  0.0002918751952500  0.4989105248626254  0.1248585489112052
  0.0022378166391961  0.4997300828431538  0.6255360709742388
  0.5001104983361493  0.9998206750970340  0.1248636289702367
  0.5003464956528683  0.0010454020917926  0.6252595963346667
  0.4979197149395083  0.4983250035240464  0.1253446493803821
  0.0024301004158219  0.0026892897099739  0.3737120570445425
  1.0004281913198423  1.0004193224389850  0.8756044898922932
 -0.0004144755485106  0.5000002221746264  0.3746440546153848
  0.0004970888646746  0.4992161634532031  0.8753562785340679
  0.4995745905675736 -0.0000750526353641  0.3746017307753399
  0.4997203208550400  1.0006671491439370  0.8754828959902518
  0.4943580844765154  0.4957691428458352  0.8742287715510050
  0.2521536507529618  0.2531955098779505  0.3758002027072193
  0.2571903895944271  0.2550741474262386  0.8739619853692780
  0.2441184653326123  0.7546251916313458  0.3732432455433518
  0.2545352247165225  0.7442420718928991  0.8737382519538440
  0.7518737906178795  0.2458258291850228  0.3735355237405844
  0.7474688056422479  0.2549256307326559  0.8740642755326130
  0.7380547547298670  0.7363097561316873  0.3767256269042754
  0.7505704186295570  0.7513917733859343  0.8760721188079025
  0.2515848524006928  0.2519139098821269  0.1253444085830290
  0.2429239456633527  0.2435625671561107  0.6255075344007279
  0.2508131398832407  0.7489026811804373  0.1242074350435427
  0.2466727206396013  0.7526033323513720  0.6247246234025176
  0.7502456960229691  0.2501954912452705  0.1240941651248213
  0.7503006479630043  0.2464922753384021  0.6249867742461976
  0.7525746703325851  0.7517386048708914  0.1250099763717251
  0.6379372854861289  0.3929973190215115  0.7435101717999643
  0.6103040637618756  0.6401585207896057  0.7538119714173779
  0.5139047850190877  0.5095115532969934  0.3746670027948124
  0.6085698076913114  0.3504050234413650  0.4963624043997164
  0.3592529851417920  0.3881626451819220  0.5106209627923711
  0.7537541410052677  0.7551594569011456  0.6269333093243767
  0.8752970814375237  0.6305708841427320  0.5012140089573125
  0.5786959494385077  0.5673940826763411  0.5757286540305862
 
  0.00000000E+00  0.00000000E+00  0.00000000E+00
  0.00000000E+00  0.00000000E+00  0.00000000E+00
  0.00000000E+00  0.00000000E+00  0.00000000E+00
  0.00000000E+00  0.00000000E+00  0.00000000E+00
  0.00000000E+00  0.00000000E+00  0.00000000E+00
  0.00000000E+00  0.00000000E+00  0.00000000E+00
  0.00000000E+00  0.00000000E+00  0.00000000E+00
  0.00000000E+00  0.00000000E+00  0.00000000E+00
  0.00000000E+00  0.00000000E+00  0.00000000E+00
  0.00000000E+00  0.00000000E+00  0.00000000E+00
  0.00000000E+00  0.00000000E+00  0.00000000E+00
  0.00000000E+00  0.00000000E+00  0.00000000E+00
  0.00000000E+00  0.00000000E+00  0.00000000E+00
  0.00000000E+00  0.00000000E+00  0.00000000E+00
  0.00000000E+00  0.00000000E+00  0.00000000E+00
  0.00000000E+00  0.00000000E+00  0.00000000E+00
  0.00000000E+00  0.00000000E+00  0.00000000E+00
  0.00000000E+00  0.00000000E+00  0.00000000E+00
  0.00000000E+00  0.00000000E+00  0.00000000E+00
  0.00000000E+00  0.00000000E+00  0.00000000E+00
  0.00000000E+00  0.00000000E+00  0.00000000E+00
  0.00000000E+00  0.00000000E+00  0.00000000E+00
  0.00000000E+00  0.00000000E+00  0.00000000E+00
  0.00000000E+00  0.00000000E+00  0.00000000E+00
  0.00000000E+00  0.00000000E+00  0.00000000E+00
  0.00000000E+00  0.00000000E+00  0.00000000E+00
  0.00000000E+00  0.00000000E+00  0.00000000E+00
  0.00000000E+00  0.00000000E+00  0.00000000E+00
  0.00000000E+00  0.00000000E+00  0.00000000E+00
  0.00000000E+00  0.00000000E+00  0.00000000E+00
  0.00000000E+00  0.00000000E+00  0.00000000E+00
  0.00000000E+00  0.00000000E+00  0.00000000E+00
  0.00000000E+00  0.00000000E+00  0.00000000E+00
  0.00000000E+00  0.00000000E+00  0.00000000E+00
  0.00000000E+00  0.00000000E+00  0.00000000E+00
  0.00000000E+00  0.00000000E+00  0.00000000E+00
  0.00000000E+00  0.00000000E+00  0.00000000E+00
  0.00000000E+00  0.00000000E+00  0.00000000E+00
  0.00000000E+00  0.00000000E+00  0.00000000E+00
  0.00000000E+00  0.00000000E+00  0.00000000E+00
  0.00000000E+00  0.00000000E+00  0.00000000E+00
  0.00000000E+00  0.00000000E+00  0.00000000E+00
  0.00000000E+00  0.00000000E+00  0.00000000E+00
  0.00000000E+00  0.00000000E+00  0.00000000E+00
  0.00000000E+00  0.00000000E+00  0.00000000E+00
  0.00000000E+00  0.00000000E+00  0.00000000E+00
  0.00000000E+00  0.00000000E+00  0.00000000E+00
  0.00000000E+00  0.00000000E+00  0.00000000E+00
  0.00000000E+00  0.00000000E+00  0.00000000E+00
  0.00000000E+00  0.00000000E+00  0.00000000E+00
  0.00000000E+00  0.00000000E+00  0.00000000E+00
  0.00000000E+00  0.00000000E+00  0.00000000E+00
  0.00000000E+00  0.00000000E+00  0.00000000E+00
  0.00000000E+00  0.00000000E+00  0.00000000E+00
  0.00000000E+00  0.00000000E+00  0.00000000E+00
  0.00000000E+00  0.00000000E+00  0.00000000E+00
  0.00000000E+00  0.00000000E+00  0.00000000E+00
  0.00000000E+00  0.00000000E+00  0.00000000E+00
  0.00000000E+00  0.00000000E+00  0.00000000E+00
  0.00000000E+00  0.00000000E+00  0.00000000E+00
  0.00000000E+00  0.00000000E+00  0.00000000E+00
  0.00000000E+00  0.00000000E+00  0.00000000E+00
  0.00000000E+00  0.00000000E+00  0.00000000E+00
  0.00000000E+00  0.00000000E+00  0.00000000E+00
  0.00000000E+00  0.00000000E+00  0.00000000E+00
  0.00000000E+00  0.00000000E+00  0.00000000E+00
  0.00000000E+00  0.00000000E+00  0.00000000E+00
  0.00000000E+00  0.00000000E+00  0.00000000E+00
  0.00000000E+00  0.00000000E+00  0.00000000E+00
  0.00000000E+00  0.00000000E+00  0.00000000E+00
  0.00000000E+00  0.00000000E+00  0.00000000E+00
  0.00000000E+00  0.00000000E+00  0.00000000E+00
  0.00000000E+00  0.00000000E+00  0.00000000E+00
  0.00000000E+00  0.00000000E+00  0.00000000E+00
  0.00000000E+00  0.00000000E+00  0.00000000E+00
  0.00000000E+00  0.00000000E+00  0.00000000E+00
  0.00000000E+00  0.00000000E+00  0.00000000E+00
  0.00000000E+00  0.00000000E+00  0.00000000E+00
  0.00000000E+00  0.00000000E+00  0.00000000E+00
  0.00000000E+00  0.00000000E+00  0.00000000E+00
  0.00000000E+00  0.00000000E+00  0.00000000E+00
  0.00000000E+00  0.00000000E+00  0.00000000E+00
  0.00000000E+00  0.00000000E+00  0.00000000E+00
  0.00000000E+00  0.00000000E+00  0.00000000E+00
  0.00000000E+00  0.00000000E+00  0.00000000E+00
  0.00000000E+00  0.00000000E+00  0.00000000E+00
  0.00000000E+00  0.00000000E+00  0.00000000E+00
  0.00000000E+00  0.00000000E+00  0.00000000E+00
  0.00000000E+00  0.00000000E+00  0.00000000E+00
  0.00000000E+00  0.00000000E+00  0.00000000E+00
  0.00000000E+00  0.00000000E+00  0.00000000E+00
  0.00000000E+00  0.00000000E+00  0.00000000E+00
  0.00000000E+00  0.00000000E+00  0.00000000E+00
  0.00000000E+00  0.00000000E+00  0.00000000E+00
  0.00000000E+00  0.00000000E+00  0.00000000E+00
  0.00000000E+00  0.00000000E+00  0.00000000E+00
  0.00000000E+00  0.00000000E+00  0.00000000E+00
  0.00000000E+00  0.00000000E+00  0.00000000E+00
  0.00000000E+00  0.00000000E+00  0.00000000E+00
  0.00000000E+00  0.00000000E+00  0.00000000E+00
  0.00000000E+00  0.00000000E+00  0.00000000E+00
  0.00000000E+00  0.00000000E+00  0.00000000E+00
  0.00000000E+00  0.00000000E+00  0.00000000E+00
  0.00000000E+00  0.00000000E+00  0.00000000E+00
  0.00000000E+00  0.00000000E+00  0.00000000E+00
  0.00000000E+00  0.00000000E+00  0.00000000E+00
  0.00000000E+00  0.00000000E+00  0.00000000E+00
  0.00000000E+00  0.00000000E+00  0.00000000E+00
  0.00000000E+00  0.00000000E+00  0.00000000E+00
  0.00000000E+00  0.00000000E+00  0.00000000E+00
  0.00000000E+00  0.00000000E+00  0.00000000E+00
  0.00000000E+00  0.00000000E+00  0.00000000E+00
  0.00000000E+00  0.00000000E+00  0.00000000E+00
  0.00000000E+00  0.00000000E+00  0.00000000E+00
  0.00000000E+00  0.00000000E+00  0.00000000E+00
  0.00000000E+00  0.00000000E+00  0.00000000E+00
  0.00000000E+00  0.00000000E+00  0.00000000E+00
  0.00000000E+00  0.00000000E+00  0.00000000E+00
  0.00000000E+00  0.00000000E+00  0.00000000E+00
  0.00000000E+00  0.00000000E+00  0.00000000E+00
  0.00000000E+00  0.00000000E+00  0.00000000E+00
  0.00000000E+00  0.00000000E+00  0.00000000E+00
  0.00000000E+00  0.00000000E+00  0.00000000E+00
  0.00000000E+00  0.00000000E+00  0.00000000E+00
  0.00000000E+00  0.00000000E+00  0.00000000E+00
  0.00000000E+00  0.00000000E+00  0.00000000E+00
  0.00000000E+00  0.00000000E+00  0.00000000E+00
  0.00000000E+00  0.00000000E+00  0.00000000E+00
  0.00000000E+00  0.00000000E+00  0.00000000E+00
  0.00000000E+00  0.00000000E+00  0.00000000E+00
  0.00000000E+00  0.00000000E+00  0.00000000E+00
  0.00000000E+00  0.00000000E+00  0.00000000E+00
  0.00000000E+00  0.00000000E+00  0.00000000E+00
  0.00000000E+00  0.00000000E+00  0.00000000E+00
  0.00000000E+00  0.00000000E+00  0.00000000E+00
  0.00000000E+00  0.00000000E+00  0.00000000E+00
  0.00000000E+00  0.00000000E+00  0.00000000E+00
  0.00000000E+00  0.00000000E+00  0.00000000E+00
  0.00000000E+00  0.00000000E+00  0.00000000E+00
  0.00000000E+00  0.00000000E+00  0.00000000E+00
  0.00000000E+00  0.00000000E+00  0.00000000E+00
  0.00000000E+00  0.00000000E+00  0.00000000E+00
  0.00000000E+00  0.00000000E+00  0.00000000E+00
  0.00000000E+00  0.00000000E+00  0.00000000E+00
  0.00000000E+00  0.00000000E+00  0.00000000E+00
  0.00000000E+00  0.00000000E+00  0.00000000E+00
  0.00000000E+00  0.00000000E+00  0.00000000E+00
  0.00000000E+00  0.00000000E+00  0.00000000E+00
  0.00000000E+00  0.00000000E+00  0.00000000E+00
  0.00000000E+00  0.00000000E+00  0.00000000E+00
  0.00000000E+00  0.00000000E+00  0.00000000E+00
  0.00000000E+00  0.00000000E+00  0.00000000E+00
  0.00000000E+00  0.00000000E+00  0.00000000E+00
  0.00000000E+00  0.00000000E+00  0.00000000E+00
  0.00000000E+00  0.00000000E+00  0.00000000E+00
  0.00000000E+00  0.00000000E+00  0.00000000E+00
  0.00000000E+00  0.00000000E+00  0.00000000E+00
  0.00000000E+00  0.00000000E+00  0.00000000E+00
  0.00000000E+00  0.00000000E+00  0.00000000E+00
