SrTiFeO                                 
   1.00000000000000     
    11.1989999999999998    0.0000000000000000    0.0000000000000000
     0.0000000000000000   11.1989999999999998    0.0000000000000000
     0.0000000000000000    0.0000000000000000   15.9830000000000005
   Sr   Ti   O 
    32    32    95
Direct
  0.0002048955875222  0.2497951044124778  0.1249023980013260
  0.0002357838719021  0.2497642161280978  0.6254680768471390
  0.9993822546469442  0.7502035141865581  0.1250575991151848
  0.0021035025305514  0.7484661002837509  0.6254679857354777
  0.4997964858134420  0.2506177453530558  0.1250575991151848
  0.5015338997162491  0.2478964974694486  0.6254679857354777
  0.4994305190930899  0.7505694809069101  0.1237145086629203
  0.4984304243946755  0.7515695756053244  0.6282622301558496
  0.0002357838719021  0.2497642161280978  0.3745319231528610
  0.0002048955875222  0.2497951044124778  0.8750976019986740
  0.0021035025305514  0.7484661002837509  0.3745320142645223
  0.9993822546469442  0.7502035141865581  0.8749424008848152
  0.5015338997162491  0.2478964974694486  0.3745320142645223
  0.4997964858134420  0.2506177453530558  0.8749424008848152
  0.4984304243946755  0.7515695756053244  0.3717377698441504
  0.4994305190930899  0.7505694809069101  0.8762854913370797
  0.2502370742573011  0.9997629257426990  0.1249620622897010
  0.2500420518563264  0.9999579481436737  0.6261923259237947
  0.2503450681967289  0.5004587524092967  0.1246363074486046
  0.2467172323844657  0.5001616965766966  0.6266966117141713
  0.7495412475907033  0.9996549318032711  0.1246363074486046
  0.7498383034233034  0.0032827676155343  0.6266966117141713
  0.7496004476806524  0.5003995523193476  0.1243967851487984
  0.7539818206481737  0.4960181793518263  0.6276910230471403
  0.2500420518563264  0.9999579481436737  0.3738076740762052
  0.2502370742573011  0.9997629257426990  0.8750379377102990
  0.2467172323844657  0.5001616965766966  0.3733033882858286
  0.2503450681967289  0.5004587524092967  0.8753636925513955
  0.7498383034233034  0.0032827676155343  0.3733033882858286
  0.7495412475907033  0.9996549318032711  0.8753636925513955
  0.7539818206481737  0.4960181793518263  0.3723089769528596
  0.7496004476806524  0.5003995523193476  0.8756032148512016
  0.9998830950543313  0.9997347821222700 -0.0000000000000000
  0.0020081768489188  0.0010357811952258  0.5000000000000000
  0.0000041195339747  0.4997156610216131 -0.0000000000000000
  0.0003442564410384  0.4989308666227677  0.5000000000000000
  0.5000745501510956  0.0003795954124375 -0.0000000000000000
  0.4992609775605849  0.9991348966728962  0.5000000000000000
  0.4995606373092655  0.4995690959057678 -0.0000000000000000
  0.2502652178777300  0.2501169049456687 -0.0000000000000000
  0.2489642188047742  0.2479918231510812  0.5000000000000000
  0.2496204045875696  0.7499254498488973 -0.0000000000000000
  0.2508651033271037  0.7507390224394150  0.5000000000000000
  0.7502843389783869  0.2499958804660253 -0.0000000000000000
  0.7510691333772322  0.2496557435589616  0.5000000000000000
  0.7504309040942321  0.7504393626907345 -0.0000000000000000
  0.2503251411222683  0.2501067267242756  0.2501010723715548
  0.2503251411222683  0.2501067267242756  0.7498989276284452
  0.2498936851574423  0.7499188408402422  0.2497293279109027
  0.2498936851574423  0.7499188408402422  0.7502706720890974
  0.7501590412950092  0.2498560081282765  0.2493540837629750
  0.7501590412950092  0.2498560081282765  0.7506459162370249
  0.7493509996159531  0.7492338173344666  0.2499604196671853
  0.7493509996159531  0.7492338173344666  0.7500395803328147
  0.9998932732757244  0.9996748588777318  0.2501010723715548
  0.9998932732757244  0.9996748588777318  0.7498989276284452
  0.0001439918717235  0.4998409587049908  0.2493540837629750
  0.0001439918717235  0.4998409587049908  0.7506459162370249
  0.5000811591597578  0.0001063148425577  0.2497293279109027
  0.5000811591597578  0.0001063148425577  0.7502706720890974
  0.5007661826655334  0.5006490003840469  0.2499604196671853
  0.5007661826655334  0.5006490003840469  0.7500395803328147
  0.4933338155823355  0.4964756057221932  0.5000000000000000
  0.7535243942778067  0.7566661844176645  0.5000000000000000
  0.1098060502494166  0.1401939497505834  0.2496845489204599
  0.1098060502494166  0.1401939497505834  0.7503154510795401
  0.1093878433172854  0.6403615221206976  0.2500919952875015
  0.1093878433172854  0.6403615221206976  0.7499080047124986
  0.6096384778793024  0.1406121566827146  0.2500919952875015
  0.6096384778793024  0.1406121566827146  0.7499080047124986
  0.6087872254133275  0.6412127745866725  0.2455116447885402
  0.3913559713694823  0.3605087768340161  0.2541745304722347
  0.3913559713694823  0.3605087768340161  0.7458254695277653
  0.3897857500450375  0.8602142499549625  0.2495270422694227
  0.3897857500450375  0.8602142499549625  0.7504729577305773
  0.8905788918904981  0.3594211081095019  0.2512247396549264
  0.8905788918904981  0.3594211081095019  0.7487752603450736
  0.8894912231659839  0.8586440286305177  0.2541745304722347
  0.8894912231659839  0.8586440286305177  0.7458254695277653
  0.3599933859458948  0.1100769307871131  0.2501798391181969
  0.3599933859458948  0.1100769307871131  0.7498201608818030
  0.3595307688644189  0.6093270193356934  0.2513239257834561
  0.3595307688644189  0.6093270193356934  0.7486760742165440
  0.8594889188918444  0.1092607023674700  0.2497877309216804
  0.8594889188918444  0.1092607023674700  0.7502122690783196
  0.8591203080559223  0.6089959231623803  0.2497923396594653
  0.8591203080559223  0.6089959231623803  0.7502076603405348
  0.1407392976325300  0.3905110811081557  0.2497877309216804
  0.1407392976325300  0.3905110811081557  0.7502122690783196
  0.1399230692128869  0.8900066140541052  0.2501798391181969
  0.1399230692128869  0.8900066140541052  0.7498201608818030
  0.6410040768376197  0.3908796919440776  0.2497923396594653
  0.6406729806643066  0.8904692311355811  0.2513239257834561
  0.6406729806643066  0.8904692311355811  0.7486760742165440
  0.3590544954956811  0.3906290398186638 -0.0000000000000000
  0.3594730556254822  0.8905269443745177 -0.0000000000000000
  0.3560574552951501  0.8939425447048499  0.5000000000000000
  0.8593638861557171  0.3906361138442758 -0.0000000000000000
  0.8610116063552234  0.3889883936447766  0.5000000000000000
  0.8593709601813362  0.8909455045043190 -0.0000000000000000
  0.8569116677772026  0.8928667136733762  0.5000000000000000
  0.1407141338234316  0.1092858661765684 -0.0000000000000000
  0.1419023694919103  0.1080976305080897  0.5000000000000000
  0.1405480916999515  0.6091086402917809 -0.0000000000000000
  0.1403037118168200  0.6097969137414965  0.5000000000000000
  0.6408913597082191  0.1094519083000485 -0.0000000000000000
  0.6402030862585035  0.1096962881831800  0.5000000000000000
  0.6401643140256060  0.6098356859743940 -0.0000000000000000
  0.1094072362717860  0.3589178861409705 -0.0000000000000000
  0.1091918160865522  0.3588244199085697  0.5000000000000000
  0.1093327505967377  0.8591656591577771 -0.0000000000000000
  0.1070246690058806  0.8578864464616216  0.5000000000000000
  0.6094559505134736  0.3595060022672709 -0.0000000000000000
  0.6096210387209560  0.8594746312747423 -0.0000000000000000
  0.6050601777455944  0.8533338169094280  0.5000000000000000
  0.3908343408422230  0.1406672494032624 -0.0000000000000000
  0.3921135535383783  0.1429753309941194  0.5000000000000000
  0.3905253687252506  0.6403789612790440 -0.0000000000000000
  0.3966661830905720  0.6449398222544056  0.5000000000000000
  0.8910821138590295  0.1405927637282141 -0.0000000000000000
  0.8911755800914303  0.1408081839134478  0.5000000000000000
  0.8904939977327292  0.6405440494865264 -0.0000000000000000
  0.9989900566080347  0.9981409001189808  0.1254201859888084
  0.0003517513861966  0.0009565384156235  0.6244576503034659
  0.9997658954952965  0.4993899832273481  0.1250240993817645
  0.0008084634759517  0.5007073807759693  0.6249431465743052
  0.5006109510965686  0.9998371902489648  0.1250910083729645
  0.4999853752032477  0.0004278041660044  0.6247429594774468
  0.4979786446881899  0.4979767217217695  0.1252278512554582
  0.0003517513861966  0.0009565384156235  0.3755423496965341
  0.9989900566080347  0.9981409001189808  0.8745798140111916
  0.0008084634759517  0.5007073807759693  0.3750568534256948
  0.9997658954952965  0.4993899832273481  0.8749759006182355
  0.4999853752032477  0.0004278041660044  0.3752570405225532
  0.5006109510965686  0.9998371902489648  0.8749089916270354
  0.4979786446881899  0.4979767217217695  0.8747721487445419
  0.2490434615843765  0.2496482486137963  0.3755423496965341
  0.2518590998810191  0.2510099433919652  0.8745798140111916
  0.2495721958339956  0.7500146247967524  0.3752570405225532
  0.2501628097510423  0.7493890489034314  0.8749089916270354
  0.7492926192240307  0.2491915365240483  0.3750568534256948
  0.7506100167726518  0.2502341045047035  0.8749759006182355
  0.7414495163582687  0.7398615578552824  0.3770423709740693
  0.7520232782782305  0.7520213553118101  0.8747721487445419
  0.2518590998810191  0.2510099433919652  0.1254201859888084
  0.2490434615843765  0.2496482486137963  0.6244576503034659
  0.2501628097510423  0.7493890489034314  0.1250910083729645
  0.2495721958339956  0.7500146247967524  0.6247429594774468
  0.7506100167726518  0.2502341045047035  0.1250240993817645
  0.7492926192240307  0.2491915365240483  0.6249431465743052
  0.7520232782782305  0.7520213553118101  0.1252278512554582
  0.6410040768376197  0.3908796919440776  0.7502076603405348
  0.6087872254133275  0.6412127745866725  0.7544883552114598
  0.5101384421447176  0.5085504836417313  0.3770423709740693
  0.6138862283761651  0.3674304351860557  0.5000000000000000
  0.3571332863266238  0.3930883322227973  0.5000000000000000
  0.7414495163582687  0.7398615578552824  0.6229576290259307
  0.8825695648139442  0.6361137716238349  0.5000000000000000
  0.5101384421447176  0.5085504836417313  0.6229576290259307
 
  0.00000000E+00  0.00000000E+00  0.00000000E+00
  0.00000000E+00  0.00000000E+00  0.00000000E+00
  0.00000000E+00  0.00000000E+00  0.00000000E+00
  0.00000000E+00  0.00000000E+00  0.00000000E+00
  0.00000000E+00  0.00000000E+00  0.00000000E+00
  0.00000000E+00  0.00000000E+00  0.00000000E+00
  0.00000000E+00  0.00000000E+00  0.00000000E+00
  0.00000000E+00  0.00000000E+00  0.00000000E+00
  0.00000000E+00  0.00000000E+00  0.00000000E+00
  0.00000000E+00  0.00000000E+00  0.00000000E+00
  0.00000000E+00  0.00000000E+00  0.00000000E+00
  0.00000000E+00  0.00000000E+00  0.00000000E+00
  0.00000000E+00  0.00000000E+00  0.00000000E+00
  0.00000000E+00  0.00000000E+00  0.00000000E+00
  0.00000000E+00  0.00000000E+00  0.00000000E+00
  0.00000000E+00  0.00000000E+00  0.00000000E+00
  0.00000000E+00  0.00000000E+00  0.00000000E+00
  0.00000000E+00  0.00000000E+00  0.00000000E+00
  0.00000000E+00  0.00000000E+00  0.00000000E+00
  0.00000000E+00  0.00000000E+00  0.00000000E+00
  0.00000000E+00  0.00000000E+00  0.00000000E+00
  0.00000000E+00  0.00000000E+00  0.00000000E+00
  0.00000000E+00  0.00000000E+00  0.00000000E+00
  0.00000000E+00  0.00000000E+00  0.00000000E+00
  0.00000000E+00  0.00000000E+00  0.00000000E+00
  0.00000000E+00  0.00000000E+00  0.00000000E+00
  0.00000000E+00  0.00000000E+00  0.00000000E+00
  0.00000000E+00  0.00000000E+00  0.00000000E+00
  0.00000000E+00  0.00000000E+00  0.00000000E+00
  0.00000000E+00  0.00000000E+00  0.00000000E+00
  0.00000000E+00  0.00000000E+00  0.00000000E+00
  0.00000000E+00  0.00000000E+00  0.00000000E+00
  0.00000000E+00  0.00000000E+00  0.00000000E+00
  0.00000000E+00  0.00000000E+00  0.00000000E+00
  0.00000000E+00  0.00000000E+00  0.00000000E+00
  0.00000000E+00  0.00000000E+00  0.00000000E+00
  0.00000000E+00  0.00000000E+00  0.00000000E+00
  0.00000000E+00  0.00000000E+00  0.00000000E+00
  0.00000000E+00  0.00000000E+00  0.00000000E+00
  0.00000000E+00  0.00000000E+00  0.00000000E+00
  0.00000000E+00  0.00000000E+00  0.00000000E+00
  0.00000000E+00  0.00000000E+00  0.00000000E+00
  0.00000000E+00  0.00000000E+00  0.00000000E+00
  0.00000000E+00  0.00000000E+00  0.00000000E+00
  0.00000000E+00  0.00000000E+00  0.00000000E+00
  0.00000000E+00  0.00000000E+00  0.00000000E+00
  0.00000000E+00  0.00000000E+00  0.00000000E+00
  0.00000000E+00  0.00000000E+00  0.00000000E+00
  0.00000000E+00  0.00000000E+00  0.00000000E+00
  0.00000000E+00  0.00000000E+00  0.00000000E+00
  0.00000000E+00  0.00000000E+00  0.00000000E+00
  0.00000000E+00  0.00000000E+00  0.00000000E+00
  0.00000000E+00  0.00000000E+00  0.00000000E+00
  0.00000000E+00  0.00000000E+00  0.00000000E+00
  0.00000000E+00  0.00000000E+00  0.00000000E+00
  0.00000000E+00  0.00000000E+00  0.00000000E+00
  0.00000000E+00  0.00000000E+00  0.00000000E+00
  0.00000000E+00  0.00000000E+00  0.00000000E+00
  0.00000000E+00  0.00000000E+00  0.00000000E+00
  0.00000000E+00  0.00000000E+00  0.00000000E+00
  0.00000000E+00  0.00000000E+00  0.00000000E+00
  0.00000000E+00  0.00000000E+00  0.00000000E+00
  0.00000000E+00  0.00000000E+00  0.00000000E+00
  0.00000000E+00  0.00000000E+00  0.00000000E+00
  0.00000000E+00  0.00000000E+00  0.00000000E+00
  0.00000000E+00  0.00000000E+00  0.00000000E+00
  0.00000000E+00  0.00000000E+00  0.00000000E+00
  0.00000000E+00  0.00000000E+00  0.00000000E+00
  0.00000000E+00  0.00000000E+00  0.00000000E+00
  0.00000000E+00  0.00000000E+00  0.00000000E+00
  0.00000000E+00  0.00000000E+00  0.00000000E+00
  0.00000000E+00  0.00000000E+00  0.00000000E+00
  0.00000000E+00  0.00000000E+00  0.00000000E+00
  0.00000000E+00  0.00000000E+00  0.00000000E+00
  0.00000000E+00  0.00000000E+00  0.00000000E+00
  0.00000000E+00  0.00000000E+00  0.00000000E+00
  0.00000000E+00  0.00000000E+00  0.00000000E+00
  0.00000000E+00  0.00000000E+00  0.00000000E+00
  0.00000000E+00  0.00000000E+00  0.00000000E+00
  0.00000000E+00  0.00000000E+00  0.00000000E+00
  0.00000000E+00  0.00000000E+00  0.00000000E+00
  0.00000000E+00  0.00000000E+00  0.00000000E+00
  0.00000000E+00  0.00000000E+00  0.00000000E+00
  0.00000000E+00  0.00000000E+00  0.00000000E+00
  0.00000000E+00  0.00000000E+00  0.00000000E+00
  0.00000000E+00  0.00000000E+00  0.00000000E+00
  0.00000000E+00  0.00000000E+00  0.00000000E+00
  0.00000000E+00  0.00000000E+00  0.00000000E+00
  0.00000000E+00  0.00000000E+00  0.00000000E+00
  0.00000000E+00  0.00000000E+00  0.00000000E+00
  0.00000000E+00  0.00000000E+00  0.00000000E+00
  0.00000000E+00  0.00000000E+00  0.00000000E+00
  0.00000000E+00  0.00000000E+00  0.00000000E+00
  0.00000000E+00  0.00000000E+00  0.00000000E+00
  0.00000000E+00  0.00000000E+00  0.00000000E+00
  0.00000000E+00  0.00000000E+00  0.00000000E+00
  0.00000000E+00  0.00000000E+00  0.00000000E+00
  0.00000000E+00  0.00000000E+00  0.00000000E+00
  0.00000000E+00  0.00000000E+00  0.00000000E+00
  0.00000000E+00  0.00000000E+00  0.00000000E+00
  0.00000000E+00  0.00000000E+00  0.00000000E+00
  0.00000000E+00  0.00000000E+00  0.00000000E+00
  0.00000000E+00  0.00000000E+00  0.00000000E+00
  0.00000000E+00  0.00000000E+00  0.00000000E+00
  0.00000000E+00  0.00000000E+00  0.00000000E+00
  0.00000000E+00  0.00000000E+00  0.00000000E+00
  0.00000000E+00  0.00000000E+00  0.00000000E+00
  0.00000000E+00  0.00000000E+00  0.00000000E+00
  0.00000000E+00  0.00000000E+00  0.00000000E+00
  0.00000000E+00  0.00000000E+00  0.00000000E+00
  0.00000000E+00  0.00000000E+00  0.00000000E+00
  0.00000000E+00  0.00000000E+00  0.00000000E+00
  0.00000000E+00  0.00000000E+00  0.00000000E+00
  0.00000000E+00  0.00000000E+00  0.00000000E+00
  0.00000000E+00  0.00000000E+00  0.00000000E+00
  0.00000000E+00  0.00000000E+00  0.00000000E+00
  0.00000000E+00  0.00000000E+00  0.00000000E+00
  0.00000000E+00  0.00000000E+00  0.00000000E+00
  0.00000000E+00  0.00000000E+00  0.00000000E+00
  0.00000000E+00  0.00000000E+00  0.00000000E+00
  0.00000000E+00  0.00000000E+00  0.00000000E+00
  0.00000000E+00  0.00000000E+00  0.00000000E+00
  0.00000000E+00  0.00000000E+00  0.00000000E+00
  0.00000000E+00  0.00000000E+00  0.00000000E+00
  0.00000000E+00  0.00000000E+00  0.00000000E+00
  0.00000000E+00  0.00000000E+00  0.00000000E+00
  0.00000000E+00  0.00000000E+00  0.00000000E+00
  0.00000000E+00  0.00000000E+00  0.00000000E+00
  0.00000000E+00  0.00000000E+00  0.00000000E+00
  0.00000000E+00  0.00000000E+00  0.00000000E+00
  0.00000000E+00  0.00000000E+00  0.00000000E+00
  0.00000000E+00  0.00000000E+00  0.00000000E+00
  0.00000000E+00  0.00000000E+00  0.00000000E+00
  0.00000000E+00  0.00000000E+00  0.00000000E+00
  0.00000000E+00  0.00000000E+00  0.00000000E+00
  0.00000000E+00  0.00000000E+00  0.00000000E+00
  0.00000000E+00  0.00000000E+00  0.00000000E+00
  0.00000000E+00  0.00000000E+00  0.00000000E+00
  0.00000000E+00  0.00000000E+00  0.00000000E+00
  0.00000000E+00  0.00000000E+00  0.00000000E+00
  0.00000000E+00  0.00000000E+00  0.00000000E+00
  0.00000000E+00  0.00000000E+00  0.00000000E+00
  0.00000000E+00  0.00000000E+00  0.00000000E+00
  0.00000000E+00  0.00000000E+00  0.00000000E+00
  0.00000000E+00  0.00000000E+00  0.00000000E+00
  0.00000000E+00  0.00000000E+00  0.00000000E+00
  0.00000000E+00  0.00000000E+00  0.00000000E+00
  0.00000000E+00  0.00000000E+00  0.00000000E+00
  0.00000000E+00  0.00000000E+00  0.00000000E+00
  0.00000000E+00  0.00000000E+00  0.00000000E+00
  0.00000000E+00  0.00000000E+00  0.00000000E+00
  0.00000000E+00  0.00000000E+00  0.00000000E+00
  0.00000000E+00  0.00000000E+00  0.00000000E+00
  0.00000000E+00  0.00000000E+00  0.00000000E+00
  0.00000000E+00  0.00000000E+00  0.00000000E+00
  0.00000000E+00  0.00000000E+00  0.00000000E+00
  0.00000000E+00  0.00000000E+00  0.00000000E+00
  0.00000000E+00  0.00000000E+00  0.00000000E+00
  0.00000000E+00  0.00000000E+00  0.00000000E+00
