Sr   Ti   O                             
   1.00000000000000     
    11.1989999999999998    0.0000000000000000    0.0000000000000000
     0.0000000000000000   11.1989999999999998    0.0000000000000000
     0.0000000000000000    0.0000000000000000   15.9830000000000005
   Sr   Ti   O 
    32    32    95
Direct
  0.0002957436105907  0.2491146626795125  0.1247496431853622
 -0.0001429554919995  0.2481719650530217  0.6254855170342057
  0.9991264775488905  0.7509798617865545  0.1249648794724278
  0.0019315200726807  0.7501903927035434  0.6267567079376481
  0.4998817369021806  0.2493220237822621  0.1252084695256669
  0.5013389648490378  0.2398727282706411  0.6245846706612986
  0.4993596104947854  0.7518541093067626  0.1238270468393002
  0.4967726933678275  0.7552300569950923  0.6267089474499619
 -0.0000852949178530  0.2493097244861872  0.3746403255154203
  0.0002607854724475  0.2493543187652446  0.8750207846163474
  0.0022209582235475  0.7488532370652838  0.3746721920210738
  0.9996119924896242  0.7507021795226412  0.8750948834502091
  0.5015036668013944  0.2427095391557058  0.3726400621018701
  0.4998777284134225  0.2467370361640292  0.8760132629858854
  0.4967988394207244  0.7533937692753295  0.3708299400770007
  0.5010056274052829  0.7546224316638566  0.8771971939396747
  0.2496469020606923  1.0003036844279973  0.1247715135468193
  0.2498168230334593  0.9993798037750415  0.6259128854060910
  0.2489733048179356  0.5004756915421498  0.1250871894076189
  0.2376328147081675  0.5009525528922185  0.6267053835870551
  0.7500422477990402  0.9994867135010226  0.1243927652809374
  0.7512351709784609  0.0026212463136586  0.6273912107974470
  0.7512460848189629  0.5006083877866579  0.1243983405206885
  0.7651211329648712  0.4949050715098786  0.6294788286014872
  0.2499392295117015  0.9992373444910770  0.3735691230984737
  0.2498505694579371  1.0005668528988592  0.8749223533368955
  0.2438749850674773  0.5020703016419411  0.3743814261553874
  0.2472022273216732  0.5005181934848197  0.8768209731127774
  0.7503371791204093  0.0043915597270546  0.3719109884756014
  0.7508994454526162  0.9995085001301688  0.8755208441323536
  0.7575132385952452  0.4948742726112769  0.3700121794446741
  0.7533894792535679  0.5007735078846225  0.8764805165319027
  1.0000650499705928  1.0000315542976073  0.9997491011123961
  0.0034635823537063  0.0027094769789732  0.4992756386584651
  0.0000534363033489  0.4997564932139737  0.0004213475224700
 -0.0014171694182427  0.4986326684933532  0.4997536617689271
  0.5000341129078174  0.0003986167570211  0.0002093010944349
  0.4996961595030731  0.9982869310275392  0.4996380705244688
  0.4994639995375907  0.4997055067766841  0.0032907070202894
  0.2506975793189077  0.2507227147512991  0.9999867163383320
  0.2496046364649785  0.2485996011890598  0.5007601360629782
  0.2501240938740280  0.7496654839070096  0.9999085183532213
  0.2492158134132406  0.7503088070747835  0.4995598428451952
  0.7499258151232151  0.2503396770497814  0.9998316559702354
  0.7487499135019065  0.2487811125782989  0.4995109811994422
  0.7504321697342095  0.7503535368672768  1.0001262554705677
  0.2506031884406805  0.2507686395444241  0.2503033335249967
  0.2508280836363013  0.2505576931489078  0.7490793145984044
  0.2492214303030671  0.7499780941789906  0.2493570328291128
  0.2509286228928530  0.7502500141558165  0.7497413163177967
  0.7503237180357012  0.2496317958227645  0.2486990598285793
  0.7496800988931349  0.2497022555028635  0.7500321816974992
  0.7487866220304695  0.7487465821406918  0.2501984140721868
  0.7500418713879609  0.7506401295177553  0.7501566238130398
  1.0001115062769665  0.9997994509980269  0.2500748869981222
  1.0004789071099178  1.0000070722931536  0.7505707022147091
  0.0005069257801223  0.4997429134364177  0.2492211536830511
  0.0007913822565809  0.4998641040941526  0.7518085810401988
  0.4999487406133288 -0.0004564871294980  0.2492992704214100
  0.5003618916542674 -0.0000397154947371  0.7506927910178829
  0.5012644890983750  0.5008902817104735  0.2490188098155976
  0.5017095430817692  0.5014864165796399  0.7584200568898259
  0.4934130275214047  0.4938320955094230  0.4937971788808616
  0.7556792358059603  0.7607263979846036  0.5014219754425132
  0.1108876900607995  0.1407790676274348  0.2509206374748052
  0.1108607510000295  0.1400814871898343  0.7518196735334244
  0.1093369108368040  0.6400352070006714  0.2497801828408930
  0.1122005267725561  0.6387068423052313  0.7500293210874733
  0.6102041127468540  0.1396185168662294  0.2492856505768509
  0.6104215635431753  0.1401909389327159  0.7503002065943730
  0.6085540498871362  0.6414082401190940  0.2442521985322915
  0.3925728328183592  0.3613954935773297  0.2545120406664427
  0.3929735896797874  0.3653430511572122  0.7369025310368534
  0.3894034682908086  0.8602605122612376  0.2488855651413625
  0.3890552412737505  0.8614677921711276  0.7513869412728016
  0.8902544811801313  0.3598640795606531  0.2511870315638631
  0.8893320833371965  0.3608203996123211  0.7492155268653982
  0.8885407432696240  0.8587740727911640  0.2552908099300414
  0.8903933106244092  0.8605652781430680  0.7505168168242945
  0.3604759990847416  0.1105412404702755  0.2508062582026133
  0.3618323277521617  0.1120541110010065  0.7496710879730134
  0.3596205193498251  0.6090517312541297  0.2527115481924908
  0.3653597608955484  0.6089327547827242  0.7390036546345983
  0.8601378081132744  0.1097512287151588  0.2489706499458081
  0.8600162826651152  0.1108887548393864  0.7509856322645119
  0.8593837141385483  0.6092222900210150  0.2497606489516261
  0.8616962622577887  0.6112965704304375  0.7513606972457454
  0.1409097087235269  0.3909582629575992  0.2501016323677308
  0.1404037617441782  0.3900067176108571  0.7512349685092954
  0.1394604075106912  0.8900827973884581  0.2487270927514875
  0.1403821246889745  0.8892140040963601  0.7507306840199874
  0.6410737264775721  0.3907952801610464  0.2491118130679969
  0.6402446460347816  0.8897479091374838  0.2516046357718279
  0.6398711717812225  0.8904816207039291  0.7500970926381094
  0.3588773556662165  0.3918715290790875  0.0007292012854037
  0.3594725635618093  0.8905434670738699  0.9993514796685226
  0.3576217405895953  0.8908523569399499  0.4998642481579827
  0.8593051924872270  0.3907962426389811 -0.0001746499310193
  0.8590585505942676  0.3877509245428840  0.4991138493526561
  0.8597165181847560  0.8906122015905412  0.9997561576802368
  0.8565836250972590  0.8923466884594634  0.4959336253505193
  0.1410626608209750  0.1103832632885710  0.9994461208332237
  0.1422075099547337  0.1084872949088234  0.4988895009434419
  0.1405825679751230  0.6091273735811286  0.0000017906818110
  0.1328583530502070  0.6128247245356745  0.4992877970233678
  0.6406737157667812  0.1097730469892371  0.9995177163066821
  0.6423248129523849  0.1037010584861810  0.5000434387619674
  0.6400108408880445  0.6089395154463281 -0.0002453745119844
  0.1095837390029612  0.3592404002290552  0.9995215043226118
  0.1095170828213933  0.3598646784225035  0.4999459337692700
  0.1101722586244785  0.8591450282439995  0.9989276758566484
  0.1059928268900883  0.8594237092824131  0.4998583865959358
  0.6084070478949407  0.3596942148759940  0.0001649282135013
  0.6096024043084656  0.8596961433602538  0.0004378574808369
  0.6042748249676499  0.8493388032260506  0.5002421731689740
  0.3909410010247609  0.1409439173328919  0.0002345790340748
  0.3914713588713957  0.1405720876157356  0.4996420751876062
  0.3915196898169944  0.6404408583414350  0.0000757480510397
  0.3825258538117743  0.6363702233126356  0.4957749832846639
  0.8903487206963256  0.1408958479525982  0.9989203770463700
  0.8913363486765380  0.1399216630633730  0.4996419927046661
  0.8903548356997858  0.6402215493700012  0.9997846237297319
  0.9992498422595005  0.9989218126752458  0.1251161442713763
 -0.0006709823237980  0.0000491638118265  0.6246294547904205
  0.9997418379205093  0.4991609793153424  0.1249845645733993
  0.0016274193523500  0.4996824897554458  0.6252641834141043
  0.5003535019401402  0.9998212994145302  0.1249886262215964
  0.5000240075018253  0.0002019341395284  0.6248335344629096
  0.4977580135768426  0.4983819143697679  0.1256356319521570
  0.0012598841449905  0.0015574451558804  0.3751037292913765
  1.0001715977272032  0.9996893919985891  0.8749396108788240
 -0.0001822272685504  0.5007267791815452  0.3749785284436751
  1.0000320240460008  0.4994818188030692  0.8753905578386119
  0.5002027260056994 -0.0007809657326316  0.3750150330091156
  0.5003685438760959  1.0004400534041074  0.8752391511765197
  0.4955871101434252  0.4966380051527757  0.8745858508430243
  0.2527704984258209  0.2545342462349597  0.3769529557974378
  0.2563092555206044  0.2543247248158776  0.8737243590562183
  0.2465537551685986  0.7527032850903205  0.3742939285500090
  0.2538195617155498  0.7448004939882982  0.8737077895690170
  0.7493189832663313  0.2477502695391580  0.3744565965163084
  0.7472422800074814  0.2542206976075556  0.8739056622018153
  0.7374282628932671  0.7349578994273891  0.3791318546716268
  0.7498044028848677  0.7510241853272733  0.8751601818681233
  0.2520590723837923  0.2515768862194205  0.1257447144743227
  0.2438419381149502  0.2443434974692699  0.6248875964144333
  0.2504523003245367  0.7487699226718917  0.1246622443350856
  0.2474795839731262  0.7520610456798678  0.6243626220633059
  0.7506320483988530  0.2503815453625556  0.1244728574776406
  0.7499931402671374  0.2476852212798519  0.6244670361451635
  0.7522908969436305  0.7519779329128586  0.1254469613134258
  0.6375558454411812  0.3929192339018367  0.7434293684987119
  0.6093766507869696  0.6401206180809426  0.7520897138305983
  0.5179092950127621  0.5133392524013448  0.3768600137730502
  0.6040407506033142  0.3528127921069727  0.4976749266292983
  0.3593436299615378  0.3919661831402957  0.5130440810620897
  0.7528631674075695  0.7544514363040656  0.6247681810783864
  0.8765306013979742  0.6332895792033477  0.5016348809946677
  0.5830175775944714  0.5700353930135525  0.5738337636015376
 
  0.00000000E+00  0.00000000E+00  0.00000000E+00
  0.00000000E+00  0.00000000E+00  0.00000000E+00
  0.00000000E+00  0.00000000E+00  0.00000000E+00
  0.00000000E+00  0.00000000E+00  0.00000000E+00
  0.00000000E+00  0.00000000E+00  0.00000000E+00
  0.00000000E+00  0.00000000E+00  0.00000000E+00
  0.00000000E+00  0.00000000E+00  0.00000000E+00
  0.00000000E+00  0.00000000E+00  0.00000000E+00
  0.00000000E+00  0.00000000E+00  0.00000000E+00
  0.00000000E+00  0.00000000E+00  0.00000000E+00
  0.00000000E+00  0.00000000E+00  0.00000000E+00
  0.00000000E+00  0.00000000E+00  0.00000000E+00
  0.00000000E+00  0.00000000E+00  0.00000000E+00
  0.00000000E+00  0.00000000E+00  0.00000000E+00
  0.00000000E+00  0.00000000E+00  0.00000000E+00
  0.00000000E+00  0.00000000E+00  0.00000000E+00
  0.00000000E+00  0.00000000E+00  0.00000000E+00
  0.00000000E+00  0.00000000E+00  0.00000000E+00
  0.00000000E+00  0.00000000E+00  0.00000000E+00
  0.00000000E+00  0.00000000E+00  0.00000000E+00
  0.00000000E+00  0.00000000E+00  0.00000000E+00
  0.00000000E+00  0.00000000E+00  0.00000000E+00
  0.00000000E+00  0.00000000E+00  0.00000000E+00
  0.00000000E+00  0.00000000E+00  0.00000000E+00
  0.00000000E+00  0.00000000E+00  0.00000000E+00
  0.00000000E+00  0.00000000E+00  0.00000000E+00
  0.00000000E+00  0.00000000E+00  0.00000000E+00
  0.00000000E+00  0.00000000E+00  0.00000000E+00
  0.00000000E+00  0.00000000E+00  0.00000000E+00
  0.00000000E+00  0.00000000E+00  0.00000000E+00
  0.00000000E+00  0.00000000E+00  0.00000000E+00
  0.00000000E+00  0.00000000E+00  0.00000000E+00
  0.00000000E+00  0.00000000E+00  0.00000000E+00
  0.00000000E+00  0.00000000E+00  0.00000000E+00
  0.00000000E+00  0.00000000E+00  0.00000000E+00
  0.00000000E+00  0.00000000E+00  0.00000000E+00
  0.00000000E+00  0.00000000E+00  0.00000000E+00
  0.00000000E+00  0.00000000E+00  0.00000000E+00
  0.00000000E+00  0.00000000E+00  0.00000000E+00
  0.00000000E+00  0.00000000E+00  0.00000000E+00
  0.00000000E+00  0.00000000E+00  0.00000000E+00
  0.00000000E+00  0.00000000E+00  0.00000000E+00
  0.00000000E+00  0.00000000E+00  0.00000000E+00
  0.00000000E+00  0.00000000E+00  0.00000000E+00
  0.00000000E+00  0.00000000E+00  0.00000000E+00
  0.00000000E+00  0.00000000E+00  0.00000000E+00
  0.00000000E+00  0.00000000E+00  0.00000000E+00
  0.00000000E+00  0.00000000E+00  0.00000000E+00
  0.00000000E+00  0.00000000E+00  0.00000000E+00
  0.00000000E+00  0.00000000E+00  0.00000000E+00
  0.00000000E+00  0.00000000E+00  0.00000000E+00
  0.00000000E+00  0.00000000E+00  0.00000000E+00
  0.00000000E+00  0.00000000E+00  0.00000000E+00
  0.00000000E+00  0.00000000E+00  0.00000000E+00
  0.00000000E+00  0.00000000E+00  0.00000000E+00
  0.00000000E+00  0.00000000E+00  0.00000000E+00
  0.00000000E+00  0.00000000E+00  0.00000000E+00
  0.00000000E+00  0.00000000E+00  0.00000000E+00
  0.00000000E+00  0.00000000E+00  0.00000000E+00
  0.00000000E+00  0.00000000E+00  0.00000000E+00
  0.00000000E+00  0.00000000E+00  0.00000000E+00
  0.00000000E+00  0.00000000E+00  0.00000000E+00
  0.00000000E+00  0.00000000E+00  0.00000000E+00
  0.00000000E+00  0.00000000E+00  0.00000000E+00
  0.00000000E+00  0.00000000E+00  0.00000000E+00
  0.00000000E+00  0.00000000E+00  0.00000000E+00
  0.00000000E+00  0.00000000E+00  0.00000000E+00
  0.00000000E+00  0.00000000E+00  0.00000000E+00
  0.00000000E+00  0.00000000E+00  0.00000000E+00
  0.00000000E+00  0.00000000E+00  0.00000000E+00
  0.00000000E+00  0.00000000E+00  0.00000000E+00
  0.00000000E+00  0.00000000E+00  0.00000000E+00
  0.00000000E+00  0.00000000E+00  0.00000000E+00
  0.00000000E+00  0.00000000E+00  0.00000000E+00
  0.00000000E+00  0.00000000E+00  0.00000000E+00
  0.00000000E+00  0.00000000E+00  0.00000000E+00
  0.00000000E+00  0.00000000E+00  0.00000000E+00
  0.00000000E+00  0.00000000E+00  0.00000000E+00
  0.00000000E+00  0.00000000E+00  0.00000000E+00
  0.00000000E+00  0.00000000E+00  0.00000000E+00
  0.00000000E+00  0.00000000E+00  0.00000000E+00
  0.00000000E+00  0.00000000E+00  0.00000000E+00
  0.00000000E+00  0.00000000E+00  0.00000000E+00
  0.00000000E+00  0.00000000E+00  0.00000000E+00
  0.00000000E+00  0.00000000E+00  0.00000000E+00
  0.00000000E+00  0.00000000E+00  0.00000000E+00
  0.00000000E+00  0.00000000E+00  0.00000000E+00
  0.00000000E+00  0.00000000E+00  0.00000000E+00
  0.00000000E+00  0.00000000E+00  0.00000000E+00
  0.00000000E+00  0.00000000E+00  0.00000000E+00
  0.00000000E+00  0.00000000E+00  0.00000000E+00
  0.00000000E+00  0.00000000E+00  0.00000000E+00
  0.00000000E+00  0.00000000E+00  0.00000000E+00
  0.00000000E+00  0.00000000E+00  0.00000000E+00
  0.00000000E+00  0.00000000E+00  0.00000000E+00
  0.00000000E+00  0.00000000E+00  0.00000000E+00
  0.00000000E+00  0.00000000E+00  0.00000000E+00
  0.00000000E+00  0.00000000E+00  0.00000000E+00
  0.00000000E+00  0.00000000E+00  0.00000000E+00
  0.00000000E+00  0.00000000E+00  0.00000000E+00
  0.00000000E+00  0.00000000E+00  0.00000000E+00
  0.00000000E+00  0.00000000E+00  0.00000000E+00
  0.00000000E+00  0.00000000E+00  0.00000000E+00
  0.00000000E+00  0.00000000E+00  0.00000000E+00
  0.00000000E+00  0.00000000E+00  0.00000000E+00
  0.00000000E+00  0.00000000E+00  0.00000000E+00
  0.00000000E+00  0.00000000E+00  0.00000000E+00
  0.00000000E+00  0.00000000E+00  0.00000000E+00
  0.00000000E+00  0.00000000E+00  0.00000000E+00
  0.00000000E+00  0.00000000E+00  0.00000000E+00
  0.00000000E+00  0.00000000E+00  0.00000000E+00
  0.00000000E+00  0.00000000E+00  0.00000000E+00
  0.00000000E+00  0.00000000E+00  0.00000000E+00
  0.00000000E+00  0.00000000E+00  0.00000000E+00
  0.00000000E+00  0.00000000E+00  0.00000000E+00
  0.00000000E+00  0.00000000E+00  0.00000000E+00
  0.00000000E+00  0.00000000E+00  0.00000000E+00
  0.00000000E+00  0.00000000E+00  0.00000000E+00
  0.00000000E+00  0.00000000E+00  0.00000000E+00
  0.00000000E+00  0.00000000E+00  0.00000000E+00
  0.00000000E+00  0.00000000E+00  0.00000000E+00
  0.00000000E+00  0.00000000E+00  0.00000000E+00
  0.00000000E+00  0.00000000E+00  0.00000000E+00
  0.00000000E+00  0.00000000E+00  0.00000000E+00
  0.00000000E+00  0.00000000E+00  0.00000000E+00
  0.00000000E+00  0.00000000E+00  0.00000000E+00
  0.00000000E+00  0.00000000E+00  0.00000000E+00
  0.00000000E+00  0.00000000E+00  0.00000000E+00
  0.00000000E+00  0.00000000E+00  0.00000000E+00
  0.00000000E+00  0.00000000E+00  0.00000000E+00
  0.00000000E+00  0.00000000E+00  0.00000000E+00
  0.00000000E+00  0.00000000E+00  0.00000000E+00
  0.00000000E+00  0.00000000E+00  0.00000000E+00
  0.00000000E+00  0.00000000E+00  0.00000000E+00
  0.00000000E+00  0.00000000E+00  0.00000000E+00
  0.00000000E+00  0.00000000E+00  0.00000000E+00
  0.00000000E+00  0.00000000E+00  0.00000000E+00
  0.00000000E+00  0.00000000E+00  0.00000000E+00
  0.00000000E+00  0.00000000E+00  0.00000000E+00
  0.00000000E+00  0.00000000E+00  0.00000000E+00
  0.00000000E+00  0.00000000E+00  0.00000000E+00
  0.00000000E+00  0.00000000E+00  0.00000000E+00
  0.00000000E+00  0.00000000E+00  0.00000000E+00
  0.00000000E+00  0.00000000E+00  0.00000000E+00
  0.00000000E+00  0.00000000E+00  0.00000000E+00
  0.00000000E+00  0.00000000E+00  0.00000000E+00
  0.00000000E+00  0.00000000E+00  0.00000000E+00
  0.00000000E+00  0.00000000E+00  0.00000000E+00
  0.00000000E+00  0.00000000E+00  0.00000000E+00
  0.00000000E+00  0.00000000E+00  0.00000000E+00
  0.00000000E+00  0.00000000E+00  0.00000000E+00
  0.00000000E+00  0.00000000E+00  0.00000000E+00
  0.00000000E+00  0.00000000E+00  0.00000000E+00
  0.00000000E+00  0.00000000E+00  0.00000000E+00
  0.00000000E+00  0.00000000E+00  0.00000000E+00
  0.00000000E+00  0.00000000E+00  0.00000000E+00
  0.00000000E+00  0.00000000E+00  0.00000000E+00
  0.00000000E+00  0.00000000E+00  0.00000000E+00
  0.00000000E+00  0.00000000E+00  0.00000000E+00
