SrTiFeO                                 
   1.00000000000000     
    11.1989999999999998    0.0000000000000000    0.0000000000000000
     0.0000000000000000   11.1989999999999998    0.0000000000000000
     0.0000000000000000    0.0000000000000000   15.9830000000000005
   Sr   Ti   Fe   O 
    32    31     1    94
Direct
  0.9995264969553279  0.2495752315408404  0.1250976193637333
  0.0011509676736925  0.2494256034578645  0.6233072626260643
  0.0004154818329400  0.7503741587139240  0.1252806707847599
  0.0005603243688172  0.7521129063301970  0.6233610973810646
  0.5000468764587194  0.2499608037178196  0.1264583422778402
  0.4990497416718960  0.2399544632540248  0.6200915478135766
  0.4992493160408730  0.7488288003700156  0.1250385731267017
  0.5012023219065171  0.7593077120856254  0.6231994790417839
  0.9989227319051925  0.2493176813954080  0.3761720070013196
  0.0018661923159476  0.2511707725551950  0.8759536781013356
  0.0000725640621791  0.7504364632371443  0.3756570462968393
  0.0015708552875271  0.7504274400487033  0.8753332320712350
  0.5003194516776043  0.2543875188023728  0.3756933811773151
  0.4992515896744182  0.2479003101886070  0.8782821795422120
  0.4992694675769918  0.7456044247843286  0.3763035372906965
  0.5006830297985423  0.7528850743530813  0.8761071049176417
  0.2494573553916511  0.9999384348765360  0.1251556293083173
  0.2482338889900932  0.9997972042998037  0.6229182164028724
  0.2512221594510095  0.4994077170959844  0.1253254284724708
  0.2401542746829648  0.4997609314216496  0.6228153037546978
  0.7503453628405778  0.9999010341681507  0.1255821770156025
  0.7519486579900472  0.9981088291116607  0.6221185248039773
  0.7492675781958279  0.4999167559762016  0.1258428664849435
  0.7605886133744785  0.5033176332001852  0.6216301121229608
  0.2495760626831960  0.0000337860465643  0.3758041772612051
  0.2505806749857552  0.0000344198016809  0.8757286512654443
  0.2539469815451382  0.4995245031430731  0.3760577311890053
  0.2471615117487387  0.5011224678175197  0.8762847477411706
  0.7496992410348605  0.0004860691933066  0.3755596586248169
  0.7501187040738864  0.9964281641854237  0.8761290364699190
  0.7447848797486911  0.5001617156673336  0.3762836076719705
  0.7555046395162699  0.5025836505771092  0.8789902629679387
  0.0000451157105411  0.0002379946620880  0.9995022237541610
  0.9997898240061799  0.0002662444016359  0.4994172145482281
  0.0005201695745964  0.5000198092692942  0.0008572500597435
  0.9999946735830083  0.5000503383310311  0.4983070155573480
  0.5002808970004241  0.9999482874123282  0.0005134115049444
  0.4999297736710550  0.9998590753888096  0.4983315966459630
  0.5010733484297083  0.4993184974082951  0.0007618898704753
  0.2505806591900438  0.2505367041202560  0.0001606229834787
  0.2510346896306445  0.2518518308689351  0.5002772158515606
  0.2507824569945226  0.7497072938101960  0.9997927049118847
  0.2516721001824479  0.7487319005186289  0.5008773567928391
  0.7492245243870133  0.2503264764568143  0.0004813834291601
  0.7469573221733377  0.2526617870482462  0.5008040332005314
  0.7497951034935152  0.7495369365695360  0.0004322178473022
  0.2500748848627369  0.2504543221810680  0.2500715490890169
  0.2502177825784945  0.2489873755419481  0.7487031523866229
  0.2505322660581504  0.7492577717123865  0.2500908743938613
  0.2503633381851137  0.7505176782223640  0.7489002578683224
  0.7500113479944044  0.2499845564842712  0.2500762872445133
  0.7545720931291975  0.2424719182750947  0.7502708617172299
  0.7495829715550792  0.7495103774230846  0.2500661541228298
  0.7518708351676104  0.7502842012598405  0.7485554870729768
  0.9997511102426616  0.0002395539290549  0.2506918705482326
  0.0031525593155634  0.9983952854182249  0.7509121931867649
  0.9999660279098741  0.5000820928942074  0.2502630746088461
  0.0002579058450139  0.5012017330905989  0.7502544377659833
  0.4999508589247185  0.9997415212165345  0.2501384454554262
  0.4994739474617848  0.0008072063518897  0.7501040649067030
  0.4997516463966420  0.5000880827866386  0.2499831805916768
  0.4961855892314693  0.5015601052176094  0.7533382268935067
  0.7486476197634984  0.7484680396301996  0.5001526908537974
  0.4990178117828227  0.5007750491513757  0.5045891042559331
  0.1089307004637673  0.1415918244542140  0.2505594337197217
  0.1068480420924716  0.1424199842382604  0.7527463739302018
  0.1084598568581763  0.6418270779602890  0.2500144111341889
  0.1087084713099956  0.6409263336911926  0.7499708199505016
  0.6086517122799496  0.1410476800126775  0.2503510774345564
  0.6057286866006774  0.1454529058565126  0.7506027674385690
  0.6097010574387892  0.6419939522228690  0.2467170726546614
  0.3901268979325013  0.3580544618506842  0.2471049821245318
  0.3966925113895541  0.3575378142450561  0.7384364508279287
  0.3916174202599746  0.8587474508468040  0.2502157013943181
  0.3915354644649701  0.8587281487058700  0.7506270925945256
  0.8915082613044201  0.3586067437096145  0.2500589816029537
  0.8825649357191589  0.3640341777628794  0.7507779506485565
  0.8912179306188559  0.8587918345663570  0.2508629613956584
  0.8911981322752036  0.8589328470311094  0.7534235907900426
  0.3585059570451832  0.1085680979541378  0.2498139823074362
  0.3570324540817963  0.1072261352216886  0.7500941319697998
  0.3576648700291402  0.6094997799490538  0.2474256325709383
  0.3572797206372200  0.6098800565319624  0.7414517516987813
  0.8587436626707596  0.1086243095399484  0.2511731686997525
  0.8574124792649972  0.1060832144360578  0.7519349468962653
  0.8587519623882480  0.6085415451012806  0.2501366304693570
  0.8612668195020273  0.6107673624950187  0.7506314701673714
  0.1412181576639607  0.3917485469785492  0.2499399826240809
  0.1402581242901262  0.3904034279219743  0.7502366734586249
  0.1411218246621315  0.8910785929038757  0.2510729238697202
  0.1414266213970721  0.8924431304051641  0.7531493843207897
  0.6417834864210016  0.3897402694045311  0.2465932135728790
  0.6417148693474271  0.8913694194162005  0.2500015103059589
  0.6390812528463213  0.8887371421063704  0.7496268907393012
  0.3592450715612365  0.3906955313030738  0.9991344804946535
  0.3598447776623425  0.8905076979741298  0.9992049149403219
  0.3606962389723121  0.8899808626167732  0.5002292374131662
  0.8598190601262605  0.3904848057386434  0.0004263474417662
  0.8609138258078132  0.3900352380387382  0.4994432910542418
  0.8592923375834048  0.8897587958605040  0.9981776081069762
  0.8606758012305120  0.8903773388090045  0.4978559569153309
  0.1405802881787030  0.1103675871735014  0.9981963300673349
  0.1385427636338939  0.1105194987403341  0.4984680386048288
  0.1408106352886473  0.6092803564065447  0.0002160525699494
  0.1387073306539696  0.6103839556731684  0.4997884197720213
  0.6410056427561948  0.1086695546007563  0.9987290726017187
  0.6393228496233542  0.1101402875520704  0.5012289905972290
  0.6417703150333993  0.6091581788691783  0.0014405900198323
  0.1096960113571469  0.3595470616022420  0.9992927700744554
  0.1094608565822064  0.3603976587480883  0.5001411328921228
  0.1098691310822087  0.8597043038839469  0.9994119603577978
  0.1100121124647421  0.8611932845478557  0.4977166772873050
  0.6097914788086184  0.3569942030380753  0.0054279522767415
  0.6093345927767470  0.8590646080130987  0.9997569069232055
  0.6105360462613336  0.8614917334092078  0.4996758063148106
  0.3905823420337250  0.1402525871876682  0.0002082825987221
  0.3888305395747045  0.1382751733022386  0.4989030779134596
  0.3912558938785575  0.6407367524648555  0.9976263865182260
  0.3872772820909505  0.6408235558636624  0.5115768831457976
  0.8897812472900947  0.1408354973708589  0.9962794543037683
  0.8885835439849123  0.1399479350007305  0.5026835267199526
  0.8905329926492619  0.6402575717083543  0.9981759727666593
  0.9992437779963766  0.0011656668610721  0.1244450412172774
  0.0006754912499777  0.9987238349062649  0.6262756152153460
  0.9999137811734765  0.5005943557651662  0.1248153200054309
  0.9998300827436397  0.4989522111882449  0.6251792086474594
  0.5005261786992431  0.9999571707211561  0.1247691898904584
  0.4998669813194743  0.0002301283521348  0.6251613566216480
  0.4981722792615404  0.5014206004705410  0.1230849733794017
  0.9988731380965172  0.0021628584822558  0.3745818998850018
  1.0000248366779896  0.9998020702022166  0.8754889945739562
  0.0001139804236991  0.5004909623120685  0.3748604056912646
  0.0011010361857100  0.4992816526679238  0.8752153890994768
  0.5005333799531791  0.0000004048926754  0.3748605115552511
  0.5004658096025165  0.9996768409028068  0.8749342226901103
  0.5116195210899684  0.4919108842049126  0.8765097382664861
  0.2526340044408869  0.2539200900093734  0.3751854485041123
  0.2548456507564783  0.2537946267127404  0.8735664226967746
  0.2545509862512707  0.7463868370717163  0.3756016310963417
  0.2513395316297816  0.7470996217095003  0.8742934410054064
  0.7477328164179832  0.2516542062744848  0.3755303964735830
  0.7415944456696153  0.2597328409648137  0.8734620965454550
  0.7472338299463178  0.7460405110897623  0.3752218490149522
  0.7428791037626151  0.7456369409639411  0.8734917648737228
  0.2485076184151647  0.2492572074063970  0.1242147365088373
  0.2427123670736974  0.2428663924879232  0.6256582193429859
  0.2501047959593759  0.7512793983876063  0.1244205311170765
  0.2415574683876412  0.7582419020714071  0.6256852364660105
  0.7538237725740167  0.2454929414790917  0.1248375620625008
  0.7474900492808730  0.2542071658208169  0.6280384981855974
  0.7526465200286463  0.7514335064387631  0.1243612311486152
  0.6150656552954725  0.6279952735032441  0.7350066068374992
  0.5002369898122129  0.5002560522838814  0.3680354108591142
  0.6116822920467552  0.3593368189687232  0.5058269479012583
  0.3585928565200384  0.3872355487142244  0.5100960478772745
  0.7576734605055848  0.7586228018648455  0.6253547816069779
  0.8899885897181020  0.6394547230088559  0.5008303816695828
  0.6408143189387862  0.6133263393511444  0.5096898691720536
 
  0.00000000E+00  0.00000000E+00  0.00000000E+00
  0.00000000E+00  0.00000000E+00  0.00000000E+00
  0.00000000E+00  0.00000000E+00  0.00000000E+00
  0.00000000E+00  0.00000000E+00  0.00000000E+00
  0.00000000E+00  0.00000000E+00  0.00000000E+00
  0.00000000E+00  0.00000000E+00  0.00000000E+00
  0.00000000E+00  0.00000000E+00  0.00000000E+00
  0.00000000E+00  0.00000000E+00  0.00000000E+00
  0.00000000E+00  0.00000000E+00  0.00000000E+00
  0.00000000E+00  0.00000000E+00  0.00000000E+00
  0.00000000E+00  0.00000000E+00  0.00000000E+00
  0.00000000E+00  0.00000000E+00  0.00000000E+00
  0.00000000E+00  0.00000000E+00  0.00000000E+00
  0.00000000E+00  0.00000000E+00  0.00000000E+00
  0.00000000E+00  0.00000000E+00  0.00000000E+00
  0.00000000E+00  0.00000000E+00  0.00000000E+00
  0.00000000E+00  0.00000000E+00  0.00000000E+00
  0.00000000E+00  0.00000000E+00  0.00000000E+00
  0.00000000E+00  0.00000000E+00  0.00000000E+00
  0.00000000E+00  0.00000000E+00  0.00000000E+00
  0.00000000E+00  0.00000000E+00  0.00000000E+00
  0.00000000E+00  0.00000000E+00  0.00000000E+00
  0.00000000E+00  0.00000000E+00  0.00000000E+00
  0.00000000E+00  0.00000000E+00  0.00000000E+00
  0.00000000E+00  0.00000000E+00  0.00000000E+00
  0.00000000E+00  0.00000000E+00  0.00000000E+00
  0.00000000E+00  0.00000000E+00  0.00000000E+00
  0.00000000E+00  0.00000000E+00  0.00000000E+00
  0.00000000E+00  0.00000000E+00  0.00000000E+00
  0.00000000E+00  0.00000000E+00  0.00000000E+00
  0.00000000E+00  0.00000000E+00  0.00000000E+00
  0.00000000E+00  0.00000000E+00  0.00000000E+00
  0.00000000E+00  0.00000000E+00  0.00000000E+00
  0.00000000E+00  0.00000000E+00  0.00000000E+00
  0.00000000E+00  0.00000000E+00  0.00000000E+00
  0.00000000E+00  0.00000000E+00  0.00000000E+00
  0.00000000E+00  0.00000000E+00  0.00000000E+00
  0.00000000E+00  0.00000000E+00  0.00000000E+00
  0.00000000E+00  0.00000000E+00  0.00000000E+00
  0.00000000E+00  0.00000000E+00  0.00000000E+00
  0.00000000E+00  0.00000000E+00  0.00000000E+00
  0.00000000E+00  0.00000000E+00  0.00000000E+00
  0.00000000E+00  0.00000000E+00  0.00000000E+00
  0.00000000E+00  0.00000000E+00  0.00000000E+00
  0.00000000E+00  0.00000000E+00  0.00000000E+00
  0.00000000E+00  0.00000000E+00  0.00000000E+00
  0.00000000E+00  0.00000000E+00  0.00000000E+00
  0.00000000E+00  0.00000000E+00  0.00000000E+00
  0.00000000E+00  0.00000000E+00  0.00000000E+00
  0.00000000E+00  0.00000000E+00  0.00000000E+00
  0.00000000E+00  0.00000000E+00  0.00000000E+00
  0.00000000E+00  0.00000000E+00  0.00000000E+00
  0.00000000E+00  0.00000000E+00  0.00000000E+00
  0.00000000E+00  0.00000000E+00  0.00000000E+00
  0.00000000E+00  0.00000000E+00  0.00000000E+00
  0.00000000E+00  0.00000000E+00  0.00000000E+00
  0.00000000E+00  0.00000000E+00  0.00000000E+00
  0.00000000E+00  0.00000000E+00  0.00000000E+00
  0.00000000E+00  0.00000000E+00  0.00000000E+00
  0.00000000E+00  0.00000000E+00  0.00000000E+00
  0.00000000E+00  0.00000000E+00  0.00000000E+00
  0.00000000E+00  0.00000000E+00  0.00000000E+00
  0.00000000E+00  0.00000000E+00  0.00000000E+00
  0.00000000E+00  0.00000000E+00  0.00000000E+00
  0.00000000E+00  0.00000000E+00  0.00000000E+00
  0.00000000E+00  0.00000000E+00  0.00000000E+00
  0.00000000E+00  0.00000000E+00  0.00000000E+00
  0.00000000E+00  0.00000000E+00  0.00000000E+00
  0.00000000E+00  0.00000000E+00  0.00000000E+00
  0.00000000E+00  0.00000000E+00  0.00000000E+00
  0.00000000E+00  0.00000000E+00  0.00000000E+00
  0.00000000E+00  0.00000000E+00  0.00000000E+00
  0.00000000E+00  0.00000000E+00  0.00000000E+00
  0.00000000E+00  0.00000000E+00  0.00000000E+00
  0.00000000E+00  0.00000000E+00  0.00000000E+00
  0.00000000E+00  0.00000000E+00  0.00000000E+00
  0.00000000E+00  0.00000000E+00  0.00000000E+00
  0.00000000E+00  0.00000000E+00  0.00000000E+00
  0.00000000E+00  0.00000000E+00  0.00000000E+00
  0.00000000E+00  0.00000000E+00  0.00000000E+00
  0.00000000E+00  0.00000000E+00  0.00000000E+00
  0.00000000E+00  0.00000000E+00  0.00000000E+00
  0.00000000E+00  0.00000000E+00  0.00000000E+00
  0.00000000E+00  0.00000000E+00  0.00000000E+00
  0.00000000E+00  0.00000000E+00  0.00000000E+00
  0.00000000E+00  0.00000000E+00  0.00000000E+00
  0.00000000E+00  0.00000000E+00  0.00000000E+00
  0.00000000E+00  0.00000000E+00  0.00000000E+00
  0.00000000E+00  0.00000000E+00  0.00000000E+00
  0.00000000E+00  0.00000000E+00  0.00000000E+00
  0.00000000E+00  0.00000000E+00  0.00000000E+00
  0.00000000E+00  0.00000000E+00  0.00000000E+00
  0.00000000E+00  0.00000000E+00  0.00000000E+00
  0.00000000E+00  0.00000000E+00  0.00000000E+00
  0.00000000E+00  0.00000000E+00  0.00000000E+00
  0.00000000E+00  0.00000000E+00  0.00000000E+00
  0.00000000E+00  0.00000000E+00  0.00000000E+00
  0.00000000E+00  0.00000000E+00  0.00000000E+00
  0.00000000E+00  0.00000000E+00  0.00000000E+00
  0.00000000E+00  0.00000000E+00  0.00000000E+00
  0.00000000E+00  0.00000000E+00  0.00000000E+00
  0.00000000E+00  0.00000000E+00  0.00000000E+00
  0.00000000E+00  0.00000000E+00  0.00000000E+00
  0.00000000E+00  0.00000000E+00  0.00000000E+00
  0.00000000E+00  0.00000000E+00  0.00000000E+00
  0.00000000E+00  0.00000000E+00  0.00000000E+00
  0.00000000E+00  0.00000000E+00  0.00000000E+00
  0.00000000E+00  0.00000000E+00  0.00000000E+00
  0.00000000E+00  0.00000000E+00  0.00000000E+00
  0.00000000E+00  0.00000000E+00  0.00000000E+00
  0.00000000E+00  0.00000000E+00  0.00000000E+00
  0.00000000E+00  0.00000000E+00  0.00000000E+00
  0.00000000E+00  0.00000000E+00  0.00000000E+00
  0.00000000E+00  0.00000000E+00  0.00000000E+00
  0.00000000E+00  0.00000000E+00  0.00000000E+00
  0.00000000E+00  0.00000000E+00  0.00000000E+00
  0.00000000E+00  0.00000000E+00  0.00000000E+00
  0.00000000E+00  0.00000000E+00  0.00000000E+00
  0.00000000E+00  0.00000000E+00  0.00000000E+00
  0.00000000E+00  0.00000000E+00  0.00000000E+00
  0.00000000E+00  0.00000000E+00  0.00000000E+00
  0.00000000E+00  0.00000000E+00  0.00000000E+00
  0.00000000E+00  0.00000000E+00  0.00000000E+00
  0.00000000E+00  0.00000000E+00  0.00000000E+00
  0.00000000E+00  0.00000000E+00  0.00000000E+00
  0.00000000E+00  0.00000000E+00  0.00000000E+00
  0.00000000E+00  0.00000000E+00  0.00000000E+00
  0.00000000E+00  0.00000000E+00  0.00000000E+00
  0.00000000E+00  0.00000000E+00  0.00000000E+00
  0.00000000E+00  0.00000000E+00  0.00000000E+00
  0.00000000E+00  0.00000000E+00  0.00000000E+00
  0.00000000E+00  0.00000000E+00  0.00000000E+00
  0.00000000E+00  0.00000000E+00  0.00000000E+00
  0.00000000E+00  0.00000000E+00  0.00000000E+00
  0.00000000E+00  0.00000000E+00  0.00000000E+00
  0.00000000E+00  0.00000000E+00  0.00000000E+00
  0.00000000E+00  0.00000000E+00  0.00000000E+00
  0.00000000E+00  0.00000000E+00  0.00000000E+00
  0.00000000E+00  0.00000000E+00  0.00000000E+00
  0.00000000E+00  0.00000000E+00  0.00000000E+00
  0.00000000E+00  0.00000000E+00  0.00000000E+00
  0.00000000E+00  0.00000000E+00  0.00000000E+00
  0.00000000E+00  0.00000000E+00  0.00000000E+00
  0.00000000E+00  0.00000000E+00  0.00000000E+00
  0.00000000E+00  0.00000000E+00  0.00000000E+00
  0.00000000E+00  0.00000000E+00  0.00000000E+00
  0.00000000E+00  0.00000000E+00  0.00000000E+00
  0.00000000E+00  0.00000000E+00  0.00000000E+00
  0.00000000E+00  0.00000000E+00  0.00000000E+00
  0.00000000E+00  0.00000000E+00  0.00000000E+00
  0.00000000E+00  0.00000000E+00  0.00000000E+00
  0.00000000E+00  0.00000000E+00  0.00000000E+00
  0.00000000E+00  0.00000000E+00  0.00000000E+00
  0.00000000E+00  0.00000000E+00  0.00000000E+00
  0.00000000E+00  0.00000000E+00  0.00000000E+00
  0.00000000E+00  0.00000000E+00  0.00000000E+00
  0.00000000E+00  0.00000000E+00  0.00000000E+00
  0.00000000E+00  0.00000000E+00  0.00000000E+00
