Sr   Ti   Fe   O                        
   1.00000000000000     
    11.1989999999999998    0.0000000000000000    0.0000000000000000
     0.0000000000000000   11.1989999999999998    0.0000000000000000
     0.0000000000000000    0.0000000000000000   15.9830000000000005
   Sr   Ti   Fe   O 
    32    29     3    94
Direct
  0.0007218868948894  0.2490845197220610  0.1250745347387609
  0.9956839209651525  0.2495584771444070  0.6252937378720540
  0.9984593627180521  0.7511544788859947  0.1255368345761182
  0.9978714219070560  0.7502922797132994  0.6255609414787853
  0.5011132834545450  0.2499274357225545  0.1230866697056517
  0.5040836860260859  0.2421030012308397  0.6280663589373016
  0.5005419825656700  0.7493505369602583  0.1248063922183100
  0.4991356641957029  0.7517866534153418  0.6287192729523676
  0.9950885275471151  0.2510569441678734  0.3754662188803009
  0.0015895485648848  0.2492672056588388  0.8732058185187672
  0.9966799439860565  0.7480354172426984  0.3779546529673180
  0.9996913613105642  0.7504872170822513  0.8741058415516959
  0.5019423480841478  0.2465179231159825  0.3705428455854921
  0.5004732372835096  0.2517656755704876  0.8745901090275381
  0.4968646942728449  0.7507288328938800  0.3723996463973703
  0.5017431631143291  0.7509851828622135  0.8761823898463178
  0.2503308037573768  0.0003192020470562  0.1243263306922399
  0.2495922484724753  0.9941000592174138  0.6277027753944606
  0.2505358469982293  0.4992776946161475  0.1244013866269116
  0.2390262300390114  0.5059726733123664  0.6272554327601431
  0.7493871886855947  0.9988213617820916  0.1249630667395987
  0.7518042306852176  0.9991633883448331  0.6273449001640230
  0.7488939359539230  0.5009905886842847  0.1244937212672081
  0.7616935263328507  0.4970055438874617  0.6297748026821193
  0.2493241088785291  0.9930065466716026  0.3733322784737017
  0.2512210944385010  0.0009110599807342  0.8739399650335580
  0.2440767244248415  0.5067608778198405  0.3727721613825745
  0.2521978434600009  0.5006886268246449  0.8749917860436155
  0.7499564438732494  0.9998556079223497  0.3734110166963011
  0.7520040938622377  1.0001745102426252  0.8746007765011585
  0.7545006524783534  0.4970683837422570  0.3725072903600104
  0.7493640907902284  0.5018605363939111  0.8747637297809584
  0.0008363335932799  0.0008018365744943  0.9996689249668234
  0.9945345917401387  0.9962936711501463  0.4994613956346036
  0.0003260738569293  0.5000408287543953  1.0001836044863734
  0.9958373780542196  0.5011723553472004  0.5000306978393356
  0.5001192431393390  1.0003390681364666  0.9997791758215153
  0.5027751796511349  0.9954068459818876  0.4999711025018594
  0.5002412304771537  0.5002805030153561  0.0011675911446341
  0.2502739949114861  0.2501184902107432  0.9998581316546319
  0.2440829923214570  0.2378356888055331  0.4991796012986996
  0.2499822963431169  0.7496756949623400  0.9998249502541223
  0.2491052104138336  0.7481037701163946  0.5000770978666215
  0.7507321527100173  0.2505222205372981  0.9997178660269372
  0.7449148022410814  0.2485861087772187  0.4998526563095081
  0.7508323524835682  0.7506457960797634  1.0001885394549066
  0.2509214117471159  0.2510744554345273  0.2500061007071187
  0.2548202096082469  0.2544177195661809  0.7482696314243713
  0.2485288193555076  0.7497737351677163  0.2489401807738212
  0.2523451485615605  0.7484378260321527  0.7500019773107705
  0.7497875897478447  0.2493500969458801  0.2489072592767224
  0.7489808165881982  0.2519569573861599  0.7502003026758414
  0.7478881127228043  0.7480027257517955  0.2528490460595031
  0.7489471876241118  0.7499488422390522  0.7496306847410396
  1.0000898446215232  0.0002168644902520  0.2508436406708852
  0.0011458847324368  0.0003050325335883  0.7499861112429195
  0.9994577428295144  0.4995934418227413  0.2493015377935472
  1.0008757940769535  0.5000791860159951  0.7518141863961348
  0.4992849087945467 -0.0006265713549889  0.2495931238791345
  0.5008389919149968  1.0001554237758501  0.7507311775653359
  0.4986202066036161  0.4988158718994898  0.2500094533887468
  0.5032054280170855  0.5027600310054564  0.7583628630595842
  0.5070851204212773  0.5030860857430913  0.4927357057565833
  0.7515951045016315  0.7563727773523583  0.5033082210440166
  0.1109165157064704  0.1419953495577031  0.2553016561431655
  0.1154187973258527  0.1413977436822245  0.7433810493967266
  0.1078858469148468  0.6406411444594398  0.2518632199393695
  0.1132844423793988  0.6378952896252531  0.7489135487100371
  0.6099060902490039  0.1387937833933075  0.2485829680351974
  0.6121715029672988  0.1388354297356278  0.7514400842132529
  0.6070853396182373  0.6392676567078965  0.2481996799827855
  0.3905319303407295  0.3579385906049398  0.2430740786024116
  0.3925535550314410  0.3654407341326489  0.7425165873339827
  0.3892751891118895  0.8594757612940128  0.2493255456505967
  0.3876284572239098  0.8639883654923028  0.7514677232923213
  0.8901882796895663  0.3590501791793714  0.2500610040129093
  0.8902021129396395  0.3615749278478000  0.7496828654590914
  0.8883880698032925  0.8591410173909092  0.2550766931867980
  0.8911075350998788  0.8640833155544215  0.7535131102438949
  0.3588496508637598  0.1092818178515787  0.2521078564070646
  0.3627783244427949  0.1136984444713321  0.7472690860320850
  0.3572101750733077  0.6096345818380725  0.2477035087139816
  0.3654881976181057  0.6125720749474936  0.7403613027194822
  0.8600499342004496  0.1092965428342449  0.2485760703733139
  0.8633504358733934  0.1133004311518793  0.7502004692590287
  0.8584164760082998  0.6081757216888659  0.2493917237509219
  0.8650137180411268  0.6129922470883936  0.7518507706423105
  0.1405996049840221  0.3909801208122906  0.2504885595768891
  0.1406297249749131  0.3901185412907320  0.7510930151941881
  0.1396529078012291  0.8909235990756480  0.2486935011385785
  0.1400755056441278  0.8893630163506523  0.7521211008208639
  0.6410463057551523  0.3894868786676028  0.2495514547502796
  0.6388829633600721  0.8890541099019791  0.2512790721868545
  0.6388387641860961  0.8909884112202832  0.7521746148894838
  0.3586610998795663  0.3901694833085092  0.0018140855628433
  0.3590988795233473  0.8907211672875727 -0.0006219117695587
  0.3590225429034429  0.8887037324199952  0.4999655523855425
  0.8593140443605636  0.3917001046397220  0.0002217330577792
  0.8639793802044696  0.3821787962342934  0.4992551298940270
  0.8607252969650419  0.8923688318380351  1.0008724345997375
  0.8589135223788863  0.8898137447718377  0.4953363179556554
  0.1421192982339710  0.1093887131855749  0.9990988927032323
  0.1419103120159426  0.1091865168784113  0.4997066514944385
  0.1412822324276874  0.6085776304387371  0.9996886575654915
  0.1226427682883025  0.6206359526254790  0.4987565619265003
  0.6411176820404747  0.1094996320441835  0.9998422847614737
  0.6445678486499279  0.1005093434768424  0.4998565630859207
  0.6411948669473794  0.6102182670157217 -0.0004310817821442
  0.1094236259145181  0.3585829264535847  0.9993490209439442
  0.1249475059684972  0.3695076234096709  0.4982207258900565
  0.1093777468070594  0.8591399491795879  0.9984224622433654
  0.1086765611539428  0.8629616067559108  0.4982273085714422
  0.6097296379975293  0.3593517791980663 -0.0000124547671755
  0.6093703048219289  0.8602249238668339  1.0005137065072167
  0.6027256642691293  0.8500575707450002  0.5000590365964813
  0.3910379979074001  0.1413400184717772  1.0001855767305934
  0.3943694429576793  0.1468238648105696  0.4994588958924648
  0.3907182401505673  0.6411768722524557  0.0015118643508122
  0.3658478533759723  0.6204254838091060  0.4990398154448301
  0.8915819002410610  0.1417810263268175  0.9994925648469242
  0.8921779338179717  0.1384385802711624  0.4999760366359274
  0.8916544964294846  0.6409762666303280  0.0008306005464101
  0.0018448752233955  0.0013414363014477  0.1256036191109413
 -0.0008738826957615  0.9971827015106174  0.6242828579698204
  0.0013954879143038  0.4995758123367844  0.1251456989288724
  0.0027340895592111  0.4976348827334967  0.6252541464962966
  0.4988096751620176  0.0000971612940282  0.1250843167383405
  0.5006681655473104  0.0010753743174327  0.6249914277516097
  0.5015538611956931  0.5002855981011900  0.1239454394211669
  0.0011760054894695  0.0021105735020569  0.3747690778740098
  0.0032231463742474  0.0055847695365616  0.8749702984464821
  0.9964137444218183  0.4988938023518908  0.3746420875262752
  0.0009044759493524  0.4998182332279940  0.8754479125296839
  0.4994036685490799 -0.0015609979477408  0.3750124592194597
  0.4983811920530329  0.0018668411379113  0.8753803232524426
  0.4964768359163838  0.4987337835248041  0.8776965890395071
  0.2642115471271089  0.2649591966199967  0.3781319691844271
  0.2543263868430280  0.2519285305330945  0.8731485078190360
  0.2493115864843368  0.7520423791788006  0.3737968557001257
  0.2532748313555114  0.7448274450748719  0.8742762725068540
  0.7507557572575839  0.2466696902241765  0.3739461461969251
  0.7497291959838843  0.2526865951109671  0.8747195090049140
  0.7375901505325083  0.7353601365028194  0.3774822651435097
  0.7531667669867973  0.7530903830461133  0.8770509417842468
  0.2463849164713650  0.2467342472126569  0.1253256139693682
  0.2615104203598459  0.2649179666863491  0.6192846504481719
  0.2470771885699836  0.7507384547384326  0.1244479222592792
  0.2451190053322773  0.7543386891556019  0.6246610695312114
  0.7505202364481932  0.2497423489185296  0.1244139258083063
  0.7506378657713783  0.2465622954761910  0.6247561625337208
  0.7506996368532985  0.7514470041956609  0.1260406647644995
  0.6389842962552293  0.3899048292555496  0.7454904220645857
  0.6142335571420852  0.6410313908740279  0.7558485941860608
  0.4907943935820837  0.4931519000072837  0.3710485523106714
  0.6033959296654103  0.3481331738350558  0.4978795724879360
  0.7565240117708345  0.7594734938184197  0.6278895519921595
  0.8717946845849722  0.6275586373080742  0.5018918992834336
  0.5854180721985085  0.5751842126640279  0.5795259491952369
 
  0.00000000E+00  0.00000000E+00  0.00000000E+00
  0.00000000E+00  0.00000000E+00  0.00000000E+00
  0.00000000E+00  0.00000000E+00  0.00000000E+00
  0.00000000E+00  0.00000000E+00  0.00000000E+00
  0.00000000E+00  0.00000000E+00  0.00000000E+00
  0.00000000E+00  0.00000000E+00  0.00000000E+00
  0.00000000E+00  0.00000000E+00  0.00000000E+00
  0.00000000E+00  0.00000000E+00  0.00000000E+00
  0.00000000E+00  0.00000000E+00  0.00000000E+00
  0.00000000E+00  0.00000000E+00  0.00000000E+00
  0.00000000E+00  0.00000000E+00  0.00000000E+00
  0.00000000E+00  0.00000000E+00  0.00000000E+00
  0.00000000E+00  0.00000000E+00  0.00000000E+00
  0.00000000E+00  0.00000000E+00  0.00000000E+00
  0.00000000E+00  0.00000000E+00  0.00000000E+00
  0.00000000E+00  0.00000000E+00  0.00000000E+00
  0.00000000E+00  0.00000000E+00  0.00000000E+00
  0.00000000E+00  0.00000000E+00  0.00000000E+00
  0.00000000E+00  0.00000000E+00  0.00000000E+00
  0.00000000E+00  0.00000000E+00  0.00000000E+00
  0.00000000E+00  0.00000000E+00  0.00000000E+00
  0.00000000E+00  0.00000000E+00  0.00000000E+00
  0.00000000E+00  0.00000000E+00  0.00000000E+00
  0.00000000E+00  0.00000000E+00  0.00000000E+00
  0.00000000E+00  0.00000000E+00  0.00000000E+00
  0.00000000E+00  0.00000000E+00  0.00000000E+00
  0.00000000E+00  0.00000000E+00  0.00000000E+00
  0.00000000E+00  0.00000000E+00  0.00000000E+00
  0.00000000E+00  0.00000000E+00  0.00000000E+00
  0.00000000E+00  0.00000000E+00  0.00000000E+00
  0.00000000E+00  0.00000000E+00  0.00000000E+00
  0.00000000E+00  0.00000000E+00  0.00000000E+00
  0.00000000E+00  0.00000000E+00  0.00000000E+00
  0.00000000E+00  0.00000000E+00  0.00000000E+00
  0.00000000E+00  0.00000000E+00  0.00000000E+00
  0.00000000E+00  0.00000000E+00  0.00000000E+00
  0.00000000E+00  0.00000000E+00  0.00000000E+00
  0.00000000E+00  0.00000000E+00  0.00000000E+00
  0.00000000E+00  0.00000000E+00  0.00000000E+00
  0.00000000E+00  0.00000000E+00  0.00000000E+00
  0.00000000E+00  0.00000000E+00  0.00000000E+00
  0.00000000E+00  0.00000000E+00  0.00000000E+00
  0.00000000E+00  0.00000000E+00  0.00000000E+00
  0.00000000E+00  0.00000000E+00  0.00000000E+00
  0.00000000E+00  0.00000000E+00  0.00000000E+00
  0.00000000E+00  0.00000000E+00  0.00000000E+00
  0.00000000E+00  0.00000000E+00  0.00000000E+00
  0.00000000E+00  0.00000000E+00  0.00000000E+00
  0.00000000E+00  0.00000000E+00  0.00000000E+00
  0.00000000E+00  0.00000000E+00  0.00000000E+00
  0.00000000E+00  0.00000000E+00  0.00000000E+00
  0.00000000E+00  0.00000000E+00  0.00000000E+00
  0.00000000E+00  0.00000000E+00  0.00000000E+00
  0.00000000E+00  0.00000000E+00  0.00000000E+00
  0.00000000E+00  0.00000000E+00  0.00000000E+00
  0.00000000E+00  0.00000000E+00  0.00000000E+00
  0.00000000E+00  0.00000000E+00  0.00000000E+00
  0.00000000E+00  0.00000000E+00  0.00000000E+00
  0.00000000E+00  0.00000000E+00  0.00000000E+00
  0.00000000E+00  0.00000000E+00  0.00000000E+00
  0.00000000E+00  0.00000000E+00  0.00000000E+00
  0.00000000E+00  0.00000000E+00  0.00000000E+00
  0.00000000E+00  0.00000000E+00  0.00000000E+00
  0.00000000E+00  0.00000000E+00  0.00000000E+00
  0.00000000E+00  0.00000000E+00  0.00000000E+00
  0.00000000E+00  0.00000000E+00  0.00000000E+00
  0.00000000E+00  0.00000000E+00  0.00000000E+00
  0.00000000E+00  0.00000000E+00  0.00000000E+00
  0.00000000E+00  0.00000000E+00  0.00000000E+00
  0.00000000E+00  0.00000000E+00  0.00000000E+00
  0.00000000E+00  0.00000000E+00  0.00000000E+00
  0.00000000E+00  0.00000000E+00  0.00000000E+00
  0.00000000E+00  0.00000000E+00  0.00000000E+00
  0.00000000E+00  0.00000000E+00  0.00000000E+00
  0.00000000E+00  0.00000000E+00  0.00000000E+00
  0.00000000E+00  0.00000000E+00  0.00000000E+00
  0.00000000E+00  0.00000000E+00  0.00000000E+00
  0.00000000E+00  0.00000000E+00  0.00000000E+00
  0.00000000E+00  0.00000000E+00  0.00000000E+00
  0.00000000E+00  0.00000000E+00  0.00000000E+00
  0.00000000E+00  0.00000000E+00  0.00000000E+00
  0.00000000E+00  0.00000000E+00  0.00000000E+00
  0.00000000E+00  0.00000000E+00  0.00000000E+00
  0.00000000E+00  0.00000000E+00  0.00000000E+00
  0.00000000E+00  0.00000000E+00  0.00000000E+00
  0.00000000E+00  0.00000000E+00  0.00000000E+00
  0.00000000E+00  0.00000000E+00  0.00000000E+00
  0.00000000E+00  0.00000000E+00  0.00000000E+00
  0.00000000E+00  0.00000000E+00  0.00000000E+00
  0.00000000E+00  0.00000000E+00  0.00000000E+00
  0.00000000E+00  0.00000000E+00  0.00000000E+00
  0.00000000E+00  0.00000000E+00  0.00000000E+00
  0.00000000E+00  0.00000000E+00  0.00000000E+00
  0.00000000E+00  0.00000000E+00  0.00000000E+00
  0.00000000E+00  0.00000000E+00  0.00000000E+00
  0.00000000E+00  0.00000000E+00  0.00000000E+00
  0.00000000E+00  0.00000000E+00  0.00000000E+00
  0.00000000E+00  0.00000000E+00  0.00000000E+00
  0.00000000E+00  0.00000000E+00  0.00000000E+00
  0.00000000E+00  0.00000000E+00  0.00000000E+00
  0.00000000E+00  0.00000000E+00  0.00000000E+00
  0.00000000E+00  0.00000000E+00  0.00000000E+00
  0.00000000E+00  0.00000000E+00  0.00000000E+00
  0.00000000E+00  0.00000000E+00  0.00000000E+00
  0.00000000E+00  0.00000000E+00  0.00000000E+00
  0.00000000E+00  0.00000000E+00  0.00000000E+00
  0.00000000E+00  0.00000000E+00  0.00000000E+00
  0.00000000E+00  0.00000000E+00  0.00000000E+00
  0.00000000E+00  0.00000000E+00  0.00000000E+00
  0.00000000E+00  0.00000000E+00  0.00000000E+00
  0.00000000E+00  0.00000000E+00  0.00000000E+00
  0.00000000E+00  0.00000000E+00  0.00000000E+00
  0.00000000E+00  0.00000000E+00  0.00000000E+00
  0.00000000E+00  0.00000000E+00  0.00000000E+00
  0.00000000E+00  0.00000000E+00  0.00000000E+00
  0.00000000E+00  0.00000000E+00  0.00000000E+00
  0.00000000E+00  0.00000000E+00  0.00000000E+00
  0.00000000E+00  0.00000000E+00  0.00000000E+00
  0.00000000E+00  0.00000000E+00  0.00000000E+00
  0.00000000E+00  0.00000000E+00  0.00000000E+00
  0.00000000E+00  0.00000000E+00  0.00000000E+00
  0.00000000E+00  0.00000000E+00  0.00000000E+00
  0.00000000E+00  0.00000000E+00  0.00000000E+00
  0.00000000E+00  0.00000000E+00  0.00000000E+00
  0.00000000E+00  0.00000000E+00  0.00000000E+00
  0.00000000E+00  0.00000000E+00  0.00000000E+00
  0.00000000E+00  0.00000000E+00  0.00000000E+00
  0.00000000E+00  0.00000000E+00  0.00000000E+00
  0.00000000E+00  0.00000000E+00  0.00000000E+00
  0.00000000E+00  0.00000000E+00  0.00000000E+00
  0.00000000E+00  0.00000000E+00  0.00000000E+00
  0.00000000E+00  0.00000000E+00  0.00000000E+00
  0.00000000E+00  0.00000000E+00  0.00000000E+00
  0.00000000E+00  0.00000000E+00  0.00000000E+00
  0.00000000E+00  0.00000000E+00  0.00000000E+00
  0.00000000E+00  0.00000000E+00  0.00000000E+00
  0.00000000E+00  0.00000000E+00  0.00000000E+00
  0.00000000E+00  0.00000000E+00  0.00000000E+00
  0.00000000E+00  0.00000000E+00  0.00000000E+00
  0.00000000E+00  0.00000000E+00  0.00000000E+00
  0.00000000E+00  0.00000000E+00  0.00000000E+00
  0.00000000E+00  0.00000000E+00  0.00000000E+00
  0.00000000E+00  0.00000000E+00  0.00000000E+00
  0.00000000E+00  0.00000000E+00  0.00000000E+00
  0.00000000E+00  0.00000000E+00  0.00000000E+00
  0.00000000E+00  0.00000000E+00  0.00000000E+00
  0.00000000E+00  0.00000000E+00  0.00000000E+00
  0.00000000E+00  0.00000000E+00  0.00000000E+00
  0.00000000E+00  0.00000000E+00  0.00000000E+00
  0.00000000E+00  0.00000000E+00  0.00000000E+00
  0.00000000E+00  0.00000000E+00  0.00000000E+00
  0.00000000E+00  0.00000000E+00  0.00000000E+00
  0.00000000E+00  0.00000000E+00  0.00000000E+00
  0.00000000E+00  0.00000000E+00  0.00000000E+00
  0.00000000E+00  0.00000000E+00  0.00000000E+00
  0.00000000E+00  0.00000000E+00  0.00000000E+00
  0.00000000E+00  0.00000000E+00  0.00000000E+00
  0.00000000E+00  0.00000000E+00  0.00000000E+00
