Sr   Ti   Fe   O                        
   1.00000000000000     
    11.1989999999999998    0.0000000000000000    0.0000000000000000
     0.0000000000000000   11.1989999999999998    0.0000000000000000
     0.0000000000000000    0.0000000000000000   15.9830000000000005
   Sr   Ti   Fe   O 
    32    29     3    94
Direct
  0.9985703297422163  0.2507969995678196  0.1251108876174569
  0.0013696947534323  0.2517096153955241  0.6244536758981768
  0.9980202954254169  0.7502169839542213  0.1251798605984547
  0.9952659375750835  0.7487024227130263  0.6277879998292309
  0.4999598698794556  0.2525041610801713  0.1250891441502506
  0.4975985666158892  0.2441046180638450  0.6271249655582616
  0.4987276500704504  0.7482534253616953  0.1239066387661662
  0.5048399892426974  0.7562980434174509  0.6304261576612963
  0.0013696947534323  0.2517096153955241  0.3755463241018231
  0.9985703297422163  0.2507969995678196  0.8748891123825362
  0.9952659375750835  0.7487024227130263  0.3722120001707687
  0.9980202954254169  0.7502169839542213  0.8748201394015384
  0.4975985666158892  0.2441046180638450  0.3728750344417385
  0.4999598698794556  0.2525041610801713  0.8749108558497493
  0.5048399892426974  0.7562980434174509  0.3695738423386976
  0.4987276500704504  0.7482534253616953  0.8760933612338335
  0.2486611553731471  0.9992582831978160  0.1252873428311360
  0.2522633202434605  0.0026360284583617  0.6251955850574765
  0.2502925222114749  0.4990861755526926  0.1228691048226650
  0.2491179405804854  0.4958735089114601  0.6287118910132579
  0.7499339452925473  0.0005548876004790  0.1259219661960547
  0.7489904467139611  0.0027190693371513  0.6239143872825557
  0.7470032906373656  0.5004003751485927  0.1252466768119523
  0.7595114039122742  0.4987747970765499  0.6277603140371449
  0.2522633202434605  0.0026360284583617  0.3748044149425236
  0.2486611553731471  0.9992582831978160  0.8747126571688644
  0.2491179405804854  0.4958735089114601  0.3712881089867424
  0.2502925222114749  0.4990861755526926  0.8771308951773352
  0.7489904467139611  0.0027190693371513  0.3760856127174442
  0.7499339452925473  0.0005548876004790  0.8740780338039456
  0.7595114039122742  0.4987747970765499  0.3722396859628549
  0.7470032906373656  0.5004003751485927  0.8747533231880475
  0.9989709263858010  0.9998235371396411  0.0000000000000000
  0.9984890379444054  0.0043545846229690  0.5000000000000000
  0.9990928310954545  0.5001479526971351  0.0000000000000000
  0.0014580509261365  0.4996261586121256  0.5000000000000000
  0.5000323106348870  0.0002799595204806  0.0000000000000000
  0.5031614108612380  0.9987316633677114  0.5000000000000000
  0.4995114516580884  0.4994498106524498  0.0000000000000000
  0.2496552376079889  0.2491583074503252  0.0000000000000000
  0.2502948960134556  0.2500001483249570  0.5000000000000000
  0.2483508331006568  0.7513082883569066  0.0000000000000000
  0.2384348247978585  0.7555607767260354  0.5000000000000000
  0.7495885018883065  0.2502707251934440  0.0000000000000000
  0.7492371779779312  0.7510096643871000  0.0000000000000000
  0.2495508078259014  0.2494169571419563  0.2493273059815029
  0.2495508078259014  0.2494169571419563  0.7506726940185042
  0.2502946280846236  0.7488917083038581  0.2494463140608870
  0.2502946280846236  0.7488917083038581  0.7505536859391131
  0.7484658516786880  0.2517175996656306  0.2523476287063365
  0.7484658516786880  0.2517175996656306  0.7476523712936639
  0.7492888418332058  0.7494819153271692  0.2508222070731332
  0.7492888418332058  0.7494819153271692  0.7491777929268668
  0.9997002092297382  0.0005190284854331  0.2512604801169093
  0.9997002092297382  0.0005190284854331  0.7487395198830833
  0.0010208431045786  0.5003352975899313  0.2491156977736776
  0.0010208431045786  0.5003352975899313  0.7508843022263224
  0.4999220070311448  1.0001209361713752  0.2489880973963981
  0.4999220070311448  1.0001209361713752  0.7510119026036015
  0.4980653957285291  0.5020008834461847  0.2528874790802911
  0.4980653957285291  0.5020008834461847  0.7471125209197164
  0.7610192091322804  0.2488588737259992  0.5000000000000000
  0.4973743081035510  0.4897596498608986  0.5000000000000000
  0.7606554431721142  0.7576374834192949  0.5000000000000000
  0.1089554163012001  0.1398766538427536  0.2486558735536912
  0.1089554163012001  0.1398766538427536  0.7513441264463230
  0.1099623173602759  0.6412112482366176  0.2498909774633957
  0.1099623173602759  0.6412112482366176  0.7501090225366036
  0.6087268489334153  0.1407561030789374  0.2501320054987616
  0.6087268489334153  0.1407561030789374  0.7498679945012313
  0.6093469180050280  0.6411239699797093  0.2461788256086896
  0.6093469180050280  0.6411239699797093  0.7538211743913105
  0.3890342266252507  0.3592666178445578  0.2516819271576236
  0.3890342266252507  0.3592666178445578  0.7483180728423761
  0.3899693450611433  0.8601523287632714  0.2495744156070563
  0.3899693450611433  0.8601523287632714  0.7504255843929362
  0.8891545145052081  0.3615031134660715  0.2519837599712803
  0.8891545145052081  0.3615031134660715  0.7480162400287199
  0.8882304580014790  0.8612454758854559  0.2528229986915004
  0.8882304580014790  0.8612454758854559  0.7471770013084996
  0.3598845857464326  0.1095535901487546  0.2501732736715344
  0.3598845857464326  0.1095535901487546  0.7498267263284664
  0.3573285467398737  0.6110894081881704  0.2414518807606582
  0.3573285467398737  0.6110894081881704  0.7585481192393345
  0.8587766703162687  0.1116101927640679  0.2537911135906259
  0.8587766703162687  0.1116101927640679  0.7462088864093740
  0.8624622485691239  0.6123802936283865  0.2471583791071674
  0.8624622485691239  0.6123802936283865  0.7528416208928327
  0.1397183940403033  0.3894222672830735  0.2484674118390516
  0.1397183940403033  0.3894222672830735  0.7515325881609488
  0.1400936025697092  0.8893682515059712  0.2549730459596350
  0.1400936025697092  0.8893682515059712  0.7450269540403649
  0.6373214263949792  0.3913729298859555  0.2519650387350376
  0.6373214263949792  0.3913729298859555  0.7480349612649626
  0.6395872453368506  0.8903566984566443  0.2529437260483070
  0.6395872453368506  0.8903566984566443  0.7470562739516932
  0.3586920273159609  0.3894869117900207  0.0000000000000000
  0.3586789893035207  0.8914455044145894  0.0000000000000000
  0.3666574077297283  0.8745864466433836  0.5000000000000000
  0.8587778129226618  0.3911969556517929  0.0000000000000000
  0.8580195454728741  0.8924308630919546  0.0000000000000000
  0.8609717729031268  0.8939454078096768  0.5000000000000000
  0.1402371991441964  0.1084348117846112  0.0000000000000000
  0.1403044492065618  0.1055953837506891  0.5000000000000000
  0.1397073800605254  0.6099894397250121  0.0000000000000000
  0.1569374934200819  0.6022271004564281  0.5000000000000000
  0.6413782881908729  0.1090894156583781  0.0000000000000000
  0.6318433869288038  0.1200938438332549  0.5000000000000000
  0.6399195399033218  0.6103915637584169  0.0000000000000000
  0.1091929821066496  0.3589673422084130  0.0000000000000000
  0.1142596876189845  0.3580376961317393  0.5000000000000000
  0.1067776399791648  0.8600271962088927  0.0000000000000000
  0.1066834239038360  0.8544431372596063  0.5000000000000000
  0.6097983638047112  0.3587178570592557  0.0000000000000000
  0.6080258105109712  0.8593007183519000  0.0000000000000000
  0.6104440369599621  0.8559694467636763  0.5000000000000000
  0.3911765601314146  0.1404975377571529  0.0000000000000000
  0.3844467896316633  0.1303570127200847  0.5000000000000000
  0.3879067190472508  0.6407190161371743  0.0000000000000000
  0.8909946675515994  0.1414697950395722  0.0000000000000000
  0.8910190469694418  0.1382360475202188  0.5000000000000000
  0.8900547049602291  0.6412048550111146  0.0000000000000000
  0.9983887142760702  0.9986957155023705  0.1262074650213264
  0.0013981507638736  0.0005468199912714  0.6242225413557756
  0.0004788743673374  0.4990124714843884  0.1246645862395019
  0.0046215709326449  0.5022833606261279  0.6259584529852016
  0.5010971987259378  0.9996089490153894  0.1251321862582546
  0.4990471721512575  0.0002969952440754  0.6251615395868310
  0.4997811284522806  0.4976334155863144  0.1239188213568049
  0.4833847809206074  0.5178810777201217  0.6264276032520423
  0.0013981507638736  0.0005468199912714  0.3757774586442248
  0.9983887142760702  0.9986957155023705  0.8737925349786735
  0.0046215709326449  0.5022833606261279  0.3740415470147983
  0.0004788743673374  0.4990124714843884  0.8753354137604979
  0.4990471721512575  0.0002969952440754  0.3748384604131686
  0.5010971987259378  0.9996089490153894  0.8748678137417524
  0.4997811284522806  0.4976334155863144  0.8760811786431952
  0.2478991316082491  0.2460240468406799  0.3740020689657195
  0.2505629476299663  0.2489280002437255  0.8752259823698548
  0.2619346644223335  0.7388331827188152  0.3775744688971901
  0.2456600224145384  0.7557468367251059  0.8752929930690545
  0.7501703948901715  0.2511113457635546  0.8739142997376322
  0.7501775503643189  0.7535164548975836  0.8749876271370339
  0.2505629476299663  0.2489280002437255  0.1247740176301454
  0.2478991316082491  0.2460240468406799  0.6259979310342810
  0.2456600224145384  0.7557468367251059  0.1247070069309456
  0.2619346644223335  0.7388331827188152  0.6224255311028093
  0.7501703948901715  0.2511113457635546  0.1260857002623672
  0.7408113466341746  0.2566430395889602  0.6225958603923019
  0.7501775503643189  0.7535164548975836  0.1250123728629658
  0.7457701255161302  0.7400294814326316  0.6237719842114570
  0.7408113466341746  0.2566430395889602  0.3774041396076983
  0.8761412797601811  0.3825412257552810  0.5000000000000000
  0.4833847809206074  0.5178810777201217  0.3735723967479578
  0.3610467456776742  0.3816088901784663  0.5000000000000000
  0.8970650760990322  0.6399973600885094  0.5000000000000000
  0.7457701255161302  0.7400294814326316  0.3762280157885436
  0.6602398155964765  0.4934497127988840  0.5000000000000000
 
  0.00000000E+00  0.00000000E+00  0.00000000E+00
  0.00000000E+00  0.00000000E+00  0.00000000E+00
  0.00000000E+00  0.00000000E+00  0.00000000E+00
  0.00000000E+00  0.00000000E+00  0.00000000E+00
  0.00000000E+00  0.00000000E+00  0.00000000E+00
  0.00000000E+00  0.00000000E+00  0.00000000E+00
  0.00000000E+00  0.00000000E+00  0.00000000E+00
  0.00000000E+00  0.00000000E+00  0.00000000E+00
  0.00000000E+00  0.00000000E+00  0.00000000E+00
  0.00000000E+00  0.00000000E+00  0.00000000E+00
  0.00000000E+00  0.00000000E+00  0.00000000E+00
  0.00000000E+00  0.00000000E+00  0.00000000E+00
  0.00000000E+00  0.00000000E+00  0.00000000E+00
  0.00000000E+00  0.00000000E+00  0.00000000E+00
  0.00000000E+00  0.00000000E+00  0.00000000E+00
  0.00000000E+00  0.00000000E+00  0.00000000E+00
  0.00000000E+00  0.00000000E+00  0.00000000E+00
  0.00000000E+00  0.00000000E+00  0.00000000E+00
  0.00000000E+00  0.00000000E+00  0.00000000E+00
  0.00000000E+00  0.00000000E+00  0.00000000E+00
  0.00000000E+00  0.00000000E+00  0.00000000E+00
  0.00000000E+00  0.00000000E+00  0.00000000E+00
  0.00000000E+00  0.00000000E+00  0.00000000E+00
  0.00000000E+00  0.00000000E+00  0.00000000E+00
  0.00000000E+00  0.00000000E+00  0.00000000E+00
  0.00000000E+00  0.00000000E+00  0.00000000E+00
  0.00000000E+00  0.00000000E+00  0.00000000E+00
  0.00000000E+00  0.00000000E+00  0.00000000E+00
  0.00000000E+00  0.00000000E+00  0.00000000E+00
  0.00000000E+00  0.00000000E+00  0.00000000E+00
  0.00000000E+00  0.00000000E+00  0.00000000E+00
  0.00000000E+00  0.00000000E+00  0.00000000E+00
  0.00000000E+00  0.00000000E+00  0.00000000E+00
  0.00000000E+00  0.00000000E+00  0.00000000E+00
  0.00000000E+00  0.00000000E+00  0.00000000E+00
  0.00000000E+00  0.00000000E+00  0.00000000E+00
  0.00000000E+00  0.00000000E+00  0.00000000E+00
  0.00000000E+00  0.00000000E+00  0.00000000E+00
  0.00000000E+00  0.00000000E+00  0.00000000E+00
  0.00000000E+00  0.00000000E+00  0.00000000E+00
  0.00000000E+00  0.00000000E+00  0.00000000E+00
  0.00000000E+00  0.00000000E+00  0.00000000E+00
  0.00000000E+00  0.00000000E+00  0.00000000E+00
  0.00000000E+00  0.00000000E+00  0.00000000E+00
  0.00000000E+00  0.00000000E+00  0.00000000E+00
  0.00000000E+00  0.00000000E+00  0.00000000E+00
  0.00000000E+00  0.00000000E+00  0.00000000E+00
  0.00000000E+00  0.00000000E+00  0.00000000E+00
  0.00000000E+00  0.00000000E+00  0.00000000E+00
  0.00000000E+00  0.00000000E+00  0.00000000E+00
  0.00000000E+00  0.00000000E+00  0.00000000E+00
  0.00000000E+00  0.00000000E+00  0.00000000E+00
  0.00000000E+00  0.00000000E+00  0.00000000E+00
  0.00000000E+00  0.00000000E+00  0.00000000E+00
  0.00000000E+00  0.00000000E+00  0.00000000E+00
  0.00000000E+00  0.00000000E+00  0.00000000E+00
  0.00000000E+00  0.00000000E+00  0.00000000E+00
  0.00000000E+00  0.00000000E+00  0.00000000E+00
  0.00000000E+00  0.00000000E+00  0.00000000E+00
  0.00000000E+00  0.00000000E+00  0.00000000E+00
  0.00000000E+00  0.00000000E+00  0.00000000E+00
  0.00000000E+00  0.00000000E+00  0.00000000E+00
  0.00000000E+00  0.00000000E+00  0.00000000E+00
  0.00000000E+00  0.00000000E+00  0.00000000E+00
  0.00000000E+00  0.00000000E+00  0.00000000E+00
  0.00000000E+00  0.00000000E+00  0.00000000E+00
  0.00000000E+00  0.00000000E+00  0.00000000E+00
  0.00000000E+00  0.00000000E+00  0.00000000E+00
  0.00000000E+00  0.00000000E+00  0.00000000E+00
  0.00000000E+00  0.00000000E+00  0.00000000E+00
  0.00000000E+00  0.00000000E+00  0.00000000E+00
  0.00000000E+00  0.00000000E+00  0.00000000E+00
  0.00000000E+00  0.00000000E+00  0.00000000E+00
  0.00000000E+00  0.00000000E+00  0.00000000E+00
  0.00000000E+00  0.00000000E+00  0.00000000E+00
  0.00000000E+00  0.00000000E+00  0.00000000E+00
  0.00000000E+00  0.00000000E+00  0.00000000E+00
  0.00000000E+00  0.00000000E+00  0.00000000E+00
  0.00000000E+00  0.00000000E+00  0.00000000E+00
  0.00000000E+00  0.00000000E+00  0.00000000E+00
  0.00000000E+00  0.00000000E+00  0.00000000E+00
  0.00000000E+00  0.00000000E+00  0.00000000E+00
  0.00000000E+00  0.00000000E+00  0.00000000E+00
  0.00000000E+00  0.00000000E+00  0.00000000E+00
  0.00000000E+00  0.00000000E+00  0.00000000E+00
  0.00000000E+00  0.00000000E+00  0.00000000E+00
  0.00000000E+00  0.00000000E+00  0.00000000E+00
  0.00000000E+00  0.00000000E+00  0.00000000E+00
  0.00000000E+00  0.00000000E+00  0.00000000E+00
  0.00000000E+00  0.00000000E+00  0.00000000E+00
  0.00000000E+00  0.00000000E+00  0.00000000E+00
  0.00000000E+00  0.00000000E+00  0.00000000E+00
  0.00000000E+00  0.00000000E+00  0.00000000E+00
  0.00000000E+00  0.00000000E+00  0.00000000E+00
  0.00000000E+00  0.00000000E+00  0.00000000E+00
  0.00000000E+00  0.00000000E+00  0.00000000E+00
  0.00000000E+00  0.00000000E+00  0.00000000E+00
  0.00000000E+00  0.00000000E+00  0.00000000E+00
  0.00000000E+00  0.00000000E+00  0.00000000E+00
  0.00000000E+00  0.00000000E+00  0.00000000E+00
  0.00000000E+00  0.00000000E+00  0.00000000E+00
  0.00000000E+00  0.00000000E+00  0.00000000E+00
  0.00000000E+00  0.00000000E+00  0.00000000E+00
  0.00000000E+00  0.00000000E+00  0.00000000E+00
  0.00000000E+00  0.00000000E+00  0.00000000E+00
  0.00000000E+00  0.00000000E+00  0.00000000E+00
  0.00000000E+00  0.00000000E+00  0.00000000E+00
  0.00000000E+00  0.00000000E+00  0.00000000E+00
  0.00000000E+00  0.00000000E+00  0.00000000E+00
  0.00000000E+00  0.00000000E+00  0.00000000E+00
  0.00000000E+00  0.00000000E+00  0.00000000E+00
  0.00000000E+00  0.00000000E+00  0.00000000E+00
  0.00000000E+00  0.00000000E+00  0.00000000E+00
  0.00000000E+00  0.00000000E+00  0.00000000E+00
  0.00000000E+00  0.00000000E+00  0.00000000E+00
  0.00000000E+00  0.00000000E+00  0.00000000E+00
  0.00000000E+00  0.00000000E+00  0.00000000E+00
  0.00000000E+00  0.00000000E+00  0.00000000E+00
  0.00000000E+00  0.00000000E+00  0.00000000E+00
  0.00000000E+00  0.00000000E+00  0.00000000E+00
  0.00000000E+00  0.00000000E+00  0.00000000E+00
  0.00000000E+00  0.00000000E+00  0.00000000E+00
  0.00000000E+00  0.00000000E+00  0.00000000E+00
  0.00000000E+00  0.00000000E+00  0.00000000E+00
  0.00000000E+00  0.00000000E+00  0.00000000E+00
  0.00000000E+00  0.00000000E+00  0.00000000E+00
  0.00000000E+00  0.00000000E+00  0.00000000E+00
  0.00000000E+00  0.00000000E+00  0.00000000E+00
  0.00000000E+00  0.00000000E+00  0.00000000E+00
  0.00000000E+00  0.00000000E+00  0.00000000E+00
  0.00000000E+00  0.00000000E+00  0.00000000E+00
  0.00000000E+00  0.00000000E+00  0.00000000E+00
  0.00000000E+00  0.00000000E+00  0.00000000E+00
  0.00000000E+00  0.00000000E+00  0.00000000E+00
  0.00000000E+00  0.00000000E+00  0.00000000E+00
  0.00000000E+00  0.00000000E+00  0.00000000E+00
  0.00000000E+00  0.00000000E+00  0.00000000E+00
  0.00000000E+00  0.00000000E+00  0.00000000E+00
  0.00000000E+00  0.00000000E+00  0.00000000E+00
  0.00000000E+00  0.00000000E+00  0.00000000E+00
  0.00000000E+00  0.00000000E+00  0.00000000E+00
  0.00000000E+00  0.00000000E+00  0.00000000E+00
  0.00000000E+00  0.00000000E+00  0.00000000E+00
  0.00000000E+00  0.00000000E+00  0.00000000E+00
  0.00000000E+00  0.00000000E+00  0.00000000E+00
  0.00000000E+00  0.00000000E+00  0.00000000E+00
  0.00000000E+00  0.00000000E+00  0.00000000E+00
  0.00000000E+00  0.00000000E+00  0.00000000E+00
  0.00000000E+00  0.00000000E+00  0.00000000E+00
  0.00000000E+00  0.00000000E+00  0.00000000E+00
  0.00000000E+00  0.00000000E+00  0.00000000E+00
  0.00000000E+00  0.00000000E+00  0.00000000E+00
  0.00000000E+00  0.00000000E+00  0.00000000E+00
  0.00000000E+00  0.00000000E+00  0.00000000E+00
  0.00000000E+00  0.00000000E+00  0.00000000E+00
  0.00000000E+00  0.00000000E+00  0.00000000E+00
  0.00000000E+00  0.00000000E+00  0.00000000E+00
  0.00000000E+00  0.00000000E+00  0.00000000E+00
