Sr   Ti   Fe   O                        
   1.00000000000000     
    11.1989999999999998    0.0000000000000000    0.0000000000000000
     0.0000000000000000   11.1989999999999998    0.0000000000000000
     0.0000000000000000    0.0000000000000000   15.9830000000000005
   Sr   Ti   Fe   O 
    32    31     1    94
Direct
  0.0003295551130030  0.2493227346681231  0.1252834882200242
  0.0049472309535662  0.2529660744703605  0.6250514904870307
  0.9983421177399008  0.7506385059713936  0.1254384490518895
  0.0035372507928252  0.7485010700783078  0.6252062465794930
  0.5012679727691449  0.2498771580898749  0.1228465559527760
  0.4979336814320602  0.2479277383182118  0.6322576334659176
  0.4989514496176381  0.7476419617843629  0.1244990985902017
  0.4958992378056428  0.7487574432482517  0.6269212965893812
  0.0049472309535662  0.2529660744703605  0.3749485095129697
  0.0003295551130030  0.2493227346681231  0.8747165117799685
  0.0035372507928252  0.7485010700783078  0.3747937534205145
  0.9983421177399008  0.7506385059713936  0.8745615509481108
  0.4979336814320602  0.2479277383182118  0.3677423665340904
  0.5012679727691449  0.2498771580898749  0.8771534440472243
  0.4958992378056428  0.7487574432482517  0.3730787034106277
  0.4989514496176381  0.7476419617843629  0.8755009014097984
  0.2493312621813427  0.9995811503933725  0.1248201464047222
  0.2490991605197263  0.9964658551244322  0.6262100378495025
  0.2513200923758694  0.4986682618541917  0.1239847303757711
  0.2483488116363186  0.5038767119955224  0.6275449452004830
  0.7496060222012209  0.9999381960683990  0.1255948609180123
  0.7476457635961743  0.0003874229079094  0.6264443309063644
  0.7480128239772807  0.5004341092617044  0.1238795174819329
  0.7572907837994707  0.4967135681186955  0.6296945964360841
  0.2490991605197263  0.9964658551244322  0.3737899621505049
  0.2493312621813427  0.9995811503933725  0.8751798535952704
  0.2483488116363186  0.5038767119955224  0.3724550547995248
  0.2513200923758694  0.4986682618541917  0.8760152696242355
  0.7476457635961743  0.0003874229079094  0.3735556690936355
  0.7496060222012209  0.9999381960683990  0.8744051390819946
  0.7572907837994707  0.4967135681186955  0.3703054035639156
  0.7480128239772807  0.5004341092617044  0.8761204825180675
  0.9989774711388587  0.9999292967207126  0.0000000000000000
  0.0023558253259469  0.9975083020938500  0.5000000000000000
  0.9998610881883997  0.4997405382898769  0.0000000000000000
  0.0038706213151267  0.5010996793439080  0.5000000000000000
  0.4995949559292963  0.9992999723417025  0.0000000000000000
  0.5000817857378297  0.0003664378684644  0.5000000000000000
  0.4996255268351230  0.4999815667126308  0.0000000000000000
  0.2487168347290262  0.2483774831058730  0.0000000000000000
  0.2515666438780815  0.2449314804282593  0.5000000000000000
  0.2488175976906800  0.7500800122640231  0.0000000000000000
  0.2508603620681182  0.7506629655200456  0.5000000000000000
  0.7510419502461527  0.2495139629102211  0.0000000000000000
  0.7493725472628655  0.7504532816143276  0.0000000000000000
  0.2510010431619092  0.2500795428698875  0.2490400039240425
  0.2510010431619092  0.2500795428698875  0.7509599960759651
  0.2493677180093589  0.7499199955836409  0.2484680703147964
  0.2493677180093589  0.7499199955836409  0.7515319296851956
  0.7494767098328530  0.2508926204189699  0.2495599434291934
  0.7494767098328530  0.2508926204189699  0.7504400565707995
  0.7487141078973333  0.7480725626113898  0.2500678519868476
  0.7487141078973333  0.7480725626113898  0.7499321480131524
  0.9991768392471452  0.0000903084452883  0.2514672921254242
  0.9991768392471452  0.0000903084452883  0.7485327078745753
  0.0008765980908537  0.5000671046531848  0.2488438018805213
  0.0008765980908537  0.5000671046531848  0.7511561981194720
  0.4998931899554497  0.9986828650011450  0.2496336915258313
  0.4998931899554497  0.9986828650011450  0.7503663084741549
  0.4981006504974908  0.4986726521943849  0.2506106137791910
  0.4981006504974908  0.4986726521943849  0.7493893862208090
  0.7622050657350146  0.2463082933542503  0.5000000000000000
  0.7566299940599688  0.7546547731477095  0.5000000000000000
  0.4938154220449063  0.5033592244860173  0.5000000000000000
  0.1099411887766916  0.1404093450532137  0.2538663536184409
  0.1099411887766916  0.1404093450532137  0.7461336463815591
  0.1096017566601230  0.6401854829341148  0.2489566686824271
  0.1096017566601230  0.6401854829341148  0.7510433313175738
  0.6106789675744603  0.1388641578244982  0.2498210687308024
  0.6106789675744603  0.1388641578244982  0.7501789312692044
  0.6092330020838492  0.6389040170515856  0.2491462170193030
  0.6092330020838492  0.6389040170515856  0.7508537829807043
  0.3888863985677776  0.3566962950385185  0.2402583247917416
  0.3888863985677776  0.3566962950385185  0.7597416752082577
  0.3897443401902898  0.8598631362770566  0.2489111049009757
  0.3897443401902898  0.8598631362770566  0.7510888950990319
  0.8901242215619467  0.3596571359555319  0.2521498704002694
  0.8901242215619467  0.3596571359555319  0.7478501295997302
  0.8874818098030443  0.8597183120755106  0.2541354524790445
  0.8874818098030443  0.8597183120755106  0.7458645475209555
  0.3600374169446620  0.1090416236652789  0.2518869020488972
  0.3600374169446620  0.1090416236652789  0.7481130979510952
  0.3578448557817365  0.6109077897289500  0.2458274427982718
  0.3578448557817365  0.6109077897289500  0.7541725572017215
  0.8585781804211369  0.1113438337960213  0.2546942158393460
  0.8585781804211369  0.1113438337960213  0.7453057841606620
  0.8614959970864322  0.6112025736180984  0.2471647682449558
  0.8614959970864322  0.6112025736180984  0.7528352317550441
  0.1401262288926605  0.3897170471591745  0.2494770600902270
  0.1401262288926605  0.3897170471591745  0.7505229399097726
  0.1385697599785128  0.8905227092377338  0.2485600369139339
  0.1385697599785128  0.8905227092377338  0.7514399630860652
  0.6394774312152322  0.3885804911034078  0.2462370653050192
  0.6394774312152322  0.3885804911034078  0.7537629346949957
  0.6398537865960073  0.8889709295161067  0.2513297102244845
  0.6398537865960073  0.8889709295161067  0.7486702897755142
  0.3588135172337961  0.3877916147029979  0.0000000000000000
  0.3586111154757029  0.8909450764006356  0.0000000000000000
  0.3579816432463663  0.8953768533810541  0.5000000000000000
  0.8589015825696134  0.3907214013486145  0.0000000000000000
  0.8579094662441745  0.8914276426039922  0.0000000000000000
  0.8530408058464720  0.8889086131932220  0.5000000000000000
  0.1394656703513607  0.1067913296693230  0.0000000000000000
  0.1450843141779535  0.1124964951221533  0.5000000000000000
  0.1398786684738584  0.6087403991689215  0.0000000000000000
  0.1406928623467682  0.6118419176956486  0.5000000000000000
  0.6406657968560517  0.1093931813595486  0.0000000000000000
  0.6390207517941306  0.1152262040175714  0.5000000000000000
  0.6408706657180744  0.6106632204936374  0.0000000000000000
  0.1089239385831049  0.3584470965805234  0.0000000000000000
  0.1284022246990967  0.3701702456352376  0.5000000000000000
  0.1066458591826168  0.8594151105448216  0.0000000000000000
  0.1111852929120769  0.8554457424353302  0.5000000000000000
  0.6110401126031995  0.3589514768635615  0.0000000000000000
  0.6083396432843600  0.8590881269432225  0.0000000000000000
  0.6050797892333175  0.8495627035429055  0.5000000000000000
  0.3902214839203025  0.1396235184098788  0.0000000000000000
  0.3977262751891327  0.1471977905357549  0.5000000000000000
  0.3884622854554778  0.6407066368538318  0.0000000000000000
  0.8911954312598676  0.1413285500773799  0.0000000000000000
  0.8879351384680148  0.1396465416132333  0.5000000000000000
  0.8902611467177628  0.6408959737162540  0.0000000000000000
  0.9958988703229271  0.0016324257487315  0.1262793160998387
  0.0006117681743168  0.9987446398567279  0.6250034477146164
  0.9997805022515284  0.4981801303330951  0.1247049107202523
  0.0025136498860462  0.5014123180161704  0.6259211657989550
  0.5003852503555507  0.0000686597205610  0.1251267513124358
  0.5012543183912588  0.9986967863156323  0.6249997207751880
  0.5000565953233712  0.5013714188809206  0.1225557674558534
  0.4838036366803564  0.4893544698682563  0.6315180566048809
  0.0006117681743168  0.9987446398567279  0.3749965522853904
  0.9958988703229271  0.0016324257487315  0.8737206839001538
  0.0025136498860462  0.5014123180161704  0.3740788342010455
  0.9997805022515284  0.4981801303330951  0.8752950892797482
  0.5012543183912588  0.9986967863156323  0.3750002792248187
  0.5003852503555507  0.0000686597205610  0.8748732486875572
  0.5000565953233712  0.5013714188809206  0.8774442325441393
  0.2598530885401338  0.2597007758000831  0.3755566423003987
  0.2449485856270021  0.2440714394983846  0.8755319239331959
  0.2495955137026862  0.7515841372768272  0.3730360683050437
  0.2475079689552437  0.7522814761595563  0.8759978092069776
  0.7525903279345532  0.2478588609041943  0.8745826003859595
  0.7497496986787542  0.7518105807144101  0.8746543657527818
  0.2449485856270021  0.2440714394983846  0.1244680760667969
  0.2598530885401338  0.2597007758000831  0.6244433576996008
  0.2475079689552437  0.7522814761595563  0.1240021907930223
  0.2495955137026862  0.7515841372768272  0.6269639316949488
  0.7525903279345532  0.2478588609041943  0.1254173996140398
  0.7391990288187746  0.2595372605912121  0.6220662237089386
  0.7497496986787542  0.7518105807144101  0.1253456342472252
  0.7419956447137753  0.7382433851517365  0.6225039244960698
  0.7391990288187746  0.2595372605912121  0.3779337762910612
  0.8796725857002133  0.3786675106792338  0.5000000000000000
  0.3874303198184679  0.6440607051615848  0.5000000000000000
  0.4838036366803564  0.4893544698682563  0.3684819433951192
  0.8904429015617628  0.6386479712175595  0.5000000000000000
  0.7419956447137753  0.7382433851517365  0.3774960755039373
  0.6600589001816082  0.4939158796311109  0.5000000000000000
 
  0.00000000E+00  0.00000000E+00  0.00000000E+00
  0.00000000E+00  0.00000000E+00  0.00000000E+00
  0.00000000E+00  0.00000000E+00  0.00000000E+00
  0.00000000E+00  0.00000000E+00  0.00000000E+00
  0.00000000E+00  0.00000000E+00  0.00000000E+00
  0.00000000E+00  0.00000000E+00  0.00000000E+00
  0.00000000E+00  0.00000000E+00  0.00000000E+00
  0.00000000E+00  0.00000000E+00  0.00000000E+00
  0.00000000E+00  0.00000000E+00  0.00000000E+00
  0.00000000E+00  0.00000000E+00  0.00000000E+00
  0.00000000E+00  0.00000000E+00  0.00000000E+00
  0.00000000E+00  0.00000000E+00  0.00000000E+00
  0.00000000E+00  0.00000000E+00  0.00000000E+00
  0.00000000E+00  0.00000000E+00  0.00000000E+00
  0.00000000E+00  0.00000000E+00  0.00000000E+00
  0.00000000E+00  0.00000000E+00  0.00000000E+00
  0.00000000E+00  0.00000000E+00  0.00000000E+00
  0.00000000E+00  0.00000000E+00  0.00000000E+00
  0.00000000E+00  0.00000000E+00  0.00000000E+00
  0.00000000E+00  0.00000000E+00  0.00000000E+00
  0.00000000E+00  0.00000000E+00  0.00000000E+00
  0.00000000E+00  0.00000000E+00  0.00000000E+00
  0.00000000E+00  0.00000000E+00  0.00000000E+00
  0.00000000E+00  0.00000000E+00  0.00000000E+00
  0.00000000E+00  0.00000000E+00  0.00000000E+00
  0.00000000E+00  0.00000000E+00  0.00000000E+00
  0.00000000E+00  0.00000000E+00  0.00000000E+00
  0.00000000E+00  0.00000000E+00  0.00000000E+00
  0.00000000E+00  0.00000000E+00  0.00000000E+00
  0.00000000E+00  0.00000000E+00  0.00000000E+00
  0.00000000E+00  0.00000000E+00  0.00000000E+00
  0.00000000E+00  0.00000000E+00  0.00000000E+00
  0.00000000E+00  0.00000000E+00  0.00000000E+00
  0.00000000E+00  0.00000000E+00  0.00000000E+00
  0.00000000E+00  0.00000000E+00  0.00000000E+00
  0.00000000E+00  0.00000000E+00  0.00000000E+00
  0.00000000E+00  0.00000000E+00  0.00000000E+00
  0.00000000E+00  0.00000000E+00  0.00000000E+00
  0.00000000E+00  0.00000000E+00  0.00000000E+00
  0.00000000E+00  0.00000000E+00  0.00000000E+00
  0.00000000E+00  0.00000000E+00  0.00000000E+00
  0.00000000E+00  0.00000000E+00  0.00000000E+00
  0.00000000E+00  0.00000000E+00  0.00000000E+00
  0.00000000E+00  0.00000000E+00  0.00000000E+00
  0.00000000E+00  0.00000000E+00  0.00000000E+00
  0.00000000E+00  0.00000000E+00  0.00000000E+00
  0.00000000E+00  0.00000000E+00  0.00000000E+00
  0.00000000E+00  0.00000000E+00  0.00000000E+00
  0.00000000E+00  0.00000000E+00  0.00000000E+00
  0.00000000E+00  0.00000000E+00  0.00000000E+00
  0.00000000E+00  0.00000000E+00  0.00000000E+00
  0.00000000E+00  0.00000000E+00  0.00000000E+00
  0.00000000E+00  0.00000000E+00  0.00000000E+00
  0.00000000E+00  0.00000000E+00  0.00000000E+00
  0.00000000E+00  0.00000000E+00  0.00000000E+00
  0.00000000E+00  0.00000000E+00  0.00000000E+00
  0.00000000E+00  0.00000000E+00  0.00000000E+00
  0.00000000E+00  0.00000000E+00  0.00000000E+00
  0.00000000E+00  0.00000000E+00  0.00000000E+00
  0.00000000E+00  0.00000000E+00  0.00000000E+00
  0.00000000E+00  0.00000000E+00  0.00000000E+00
  0.00000000E+00  0.00000000E+00  0.00000000E+00
  0.00000000E+00  0.00000000E+00  0.00000000E+00
  0.00000000E+00  0.00000000E+00  0.00000000E+00
  0.00000000E+00  0.00000000E+00  0.00000000E+00
  0.00000000E+00  0.00000000E+00  0.00000000E+00
  0.00000000E+00  0.00000000E+00  0.00000000E+00
  0.00000000E+00  0.00000000E+00  0.00000000E+00
  0.00000000E+00  0.00000000E+00  0.00000000E+00
  0.00000000E+00  0.00000000E+00  0.00000000E+00
  0.00000000E+00  0.00000000E+00  0.00000000E+00
  0.00000000E+00  0.00000000E+00  0.00000000E+00
  0.00000000E+00  0.00000000E+00  0.00000000E+00
  0.00000000E+00  0.00000000E+00  0.00000000E+00
  0.00000000E+00  0.00000000E+00  0.00000000E+00
  0.00000000E+00  0.00000000E+00  0.00000000E+00
  0.00000000E+00  0.00000000E+00  0.00000000E+00
  0.00000000E+00  0.00000000E+00  0.00000000E+00
  0.00000000E+00  0.00000000E+00  0.00000000E+00
  0.00000000E+00  0.00000000E+00  0.00000000E+00
  0.00000000E+00  0.00000000E+00  0.00000000E+00
  0.00000000E+00  0.00000000E+00  0.00000000E+00
  0.00000000E+00  0.00000000E+00  0.00000000E+00
  0.00000000E+00  0.00000000E+00  0.00000000E+00
  0.00000000E+00  0.00000000E+00  0.00000000E+00
  0.00000000E+00  0.00000000E+00  0.00000000E+00
  0.00000000E+00  0.00000000E+00  0.00000000E+00
  0.00000000E+00  0.00000000E+00  0.00000000E+00
  0.00000000E+00  0.00000000E+00  0.00000000E+00
  0.00000000E+00  0.00000000E+00  0.00000000E+00
  0.00000000E+00  0.00000000E+00  0.00000000E+00
  0.00000000E+00  0.00000000E+00  0.00000000E+00
  0.00000000E+00  0.00000000E+00  0.00000000E+00
  0.00000000E+00  0.00000000E+00  0.00000000E+00
  0.00000000E+00  0.00000000E+00  0.00000000E+00
  0.00000000E+00  0.00000000E+00  0.00000000E+00
  0.00000000E+00  0.00000000E+00  0.00000000E+00
  0.00000000E+00  0.00000000E+00  0.00000000E+00
  0.00000000E+00  0.00000000E+00  0.00000000E+00
  0.00000000E+00  0.00000000E+00  0.00000000E+00
  0.00000000E+00  0.00000000E+00  0.00000000E+00
  0.00000000E+00  0.00000000E+00  0.00000000E+00
  0.00000000E+00  0.00000000E+00  0.00000000E+00
  0.00000000E+00  0.00000000E+00  0.00000000E+00
  0.00000000E+00  0.00000000E+00  0.00000000E+00
  0.00000000E+00  0.00000000E+00  0.00000000E+00
  0.00000000E+00  0.00000000E+00  0.00000000E+00
  0.00000000E+00  0.00000000E+00  0.00000000E+00
  0.00000000E+00  0.00000000E+00  0.00000000E+00
  0.00000000E+00  0.00000000E+00  0.00000000E+00
  0.00000000E+00  0.00000000E+00  0.00000000E+00
  0.00000000E+00  0.00000000E+00  0.00000000E+00
  0.00000000E+00  0.00000000E+00  0.00000000E+00
  0.00000000E+00  0.00000000E+00  0.00000000E+00
  0.00000000E+00  0.00000000E+00  0.00000000E+00
  0.00000000E+00  0.00000000E+00  0.00000000E+00
  0.00000000E+00  0.00000000E+00  0.00000000E+00
  0.00000000E+00  0.00000000E+00  0.00000000E+00
  0.00000000E+00  0.00000000E+00  0.00000000E+00
  0.00000000E+00  0.00000000E+00  0.00000000E+00
  0.00000000E+00  0.00000000E+00  0.00000000E+00
  0.00000000E+00  0.00000000E+00  0.00000000E+00
  0.00000000E+00  0.00000000E+00  0.00000000E+00
  0.00000000E+00  0.00000000E+00  0.00000000E+00
  0.00000000E+00  0.00000000E+00  0.00000000E+00
  0.00000000E+00  0.00000000E+00  0.00000000E+00
  0.00000000E+00  0.00000000E+00  0.00000000E+00
  0.00000000E+00  0.00000000E+00  0.00000000E+00
  0.00000000E+00  0.00000000E+00  0.00000000E+00
  0.00000000E+00  0.00000000E+00  0.00000000E+00
  0.00000000E+00  0.00000000E+00  0.00000000E+00
  0.00000000E+00  0.00000000E+00  0.00000000E+00
  0.00000000E+00  0.00000000E+00  0.00000000E+00
  0.00000000E+00  0.00000000E+00  0.00000000E+00
  0.00000000E+00  0.00000000E+00  0.00000000E+00
  0.00000000E+00  0.00000000E+00  0.00000000E+00
  0.00000000E+00  0.00000000E+00  0.00000000E+00
  0.00000000E+00  0.00000000E+00  0.00000000E+00
  0.00000000E+00  0.00000000E+00  0.00000000E+00
  0.00000000E+00  0.00000000E+00  0.00000000E+00
  0.00000000E+00  0.00000000E+00  0.00000000E+00
  0.00000000E+00  0.00000000E+00  0.00000000E+00
  0.00000000E+00  0.00000000E+00  0.00000000E+00
  0.00000000E+00  0.00000000E+00  0.00000000E+00
  0.00000000E+00  0.00000000E+00  0.00000000E+00
  0.00000000E+00  0.00000000E+00  0.00000000E+00
  0.00000000E+00  0.00000000E+00  0.00000000E+00
  0.00000000E+00  0.00000000E+00  0.00000000E+00
  0.00000000E+00  0.00000000E+00  0.00000000E+00
  0.00000000E+00  0.00000000E+00  0.00000000E+00
  0.00000000E+00  0.00000000E+00  0.00000000E+00
  0.00000000E+00  0.00000000E+00  0.00000000E+00
  0.00000000E+00  0.00000000E+00  0.00000000E+00
  0.00000000E+00  0.00000000E+00  0.00000000E+00
  0.00000000E+00  0.00000000E+00  0.00000000E+00
  0.00000000E+00  0.00000000E+00  0.00000000E+00
  0.00000000E+00  0.00000000E+00  0.00000000E+00
  0.00000000E+00  0.00000000E+00  0.00000000E+00
