SrTiFeO                                 
   1.00000000000000     
    11.1989999999999998    0.0000000000000000    0.0000000000000000
     0.0000000000000000   11.1989999999999998    0.0000000000000000
     0.0000000000000000    0.0000000000000000   15.9830000000000005
   Sr   Ti   Fe   O 
    32    31     1    94
Direct
  0.0009331336009656  0.2496853064206744  0.1250733863101322
  0.9969985095739841  0.2520227678537192  0.6251850886146243
  0.9990668663990345  0.7503146935793252  0.1250733863101322
  0.0030014904260160  0.7479772321462812  0.6251850886146243
  0.5004912102427433  0.2508945492049819  0.1240910185304716
  0.5050142653396436  0.2494275928199428  0.6277968502712774
  0.4995087897572565  0.7491054507950181  0.1240910185304716
  0.4949857346603566  0.7505724071800571  0.6277968502712774
  0.9969985095739841  0.2520227678537192  0.3748149113853757
  0.0009331336009656  0.2496853064206744  0.8749266136898677
  0.0030014904260160  0.7479772321462812  0.3748149113853757
  0.9990668663990345  0.7503146935793252  0.8749266136898677
  0.5050142653396436  0.2494275928199428  0.3722031497287227
  0.5004912102427433  0.2508945492049819  0.8759089814695284
  0.4949857346603566  0.7505724071800571  0.3722031497287227
  0.4995087897572565  0.7491054507950181  0.8759089814695284
  0.2510060106538182  0.0004492771302779  0.1245255481534612
  0.2505865128694814  0.9943194594272166  0.6278447746865584
  0.2511460000049905  0.4996488948687874  0.1240850668022608
  0.2450877934877245  0.5062060880051726  0.6290486422797460
  0.7489939893461819  0.9995507228697221  0.1245255481534612
  0.7494134871305117  0.0056805405727833  0.6278447746865584
  0.7488539999950098  0.5003511051312126  0.1240850668022608
  0.7549122065122756  0.4937939119948275  0.6290486422797460
  0.2505865128694814  0.9943194594272166  0.3721552253134415
  0.2510060106538182  0.0004492771302779  0.8754744518465388
  0.2450877934877245  0.5062060880051726  0.3709513577202541
  0.2511460000049905  0.4996488948687874  0.8759149331977391
  0.7494134871305117  0.0056805405727833  0.3721552253134415
  0.7489939893461819  0.9995507228697221  0.8754744518465388
  0.7549122065122756  0.4937939119948275  0.3709513577202541
  0.7488539999950098  0.5003511051312126  0.8759149331977391
  0.0000000000000000 -0.0000000000000000  0.0000000000000000
  0.0000000000000000 -0.0000000000000000  0.5000000000000000
  0.0000000000000000  0.5000000000000000  0.0000000000000000
  0.0000000000000000  0.5000000000000000  0.5000000000000000
  0.5000000000000000 -0.0000000000000000  0.0000000000000000
  0.5000000000000000 -0.0000000000000000  0.5000000000000000
  0.5000000000000000  0.5000000000000000  0.0000000000000000
  0.2498956651869721  0.2497419773695113  0.0000000000000000
  0.2453142588996587  0.2384938319046185  0.5000000000000000
  0.2494630528722176  0.7500198542797455  0.0000000000000000
  0.2497096802881711  0.7504458654901365  0.5000000000000000
  0.7505369471277825  0.2499801457202546  0.0000000000000000
  0.7501043348130276  0.7502580226304889  0.0000000000000000
  0.2515970817242613  0.2512520230706138  0.2502740436796000
  0.2515970817242613  0.2512520230706138  0.7497259563204001
  0.2496387746327547  0.7501511913566091  0.2484129028384745
  0.2496387746327547  0.7501511913566091  0.7515870971615256
  0.7503612253672450  0.2498488086433911  0.2484129028384745
  0.7503612253672450  0.2498488086433911  0.7515870971615256
  0.7484029182757388  0.7487479769293862  0.2502740436796000
  0.7484029182757388  0.7487479769293862  0.7497259563204001
  0.0000000000000000 -0.0000000000000000  0.2507152767314026
  0.0000000000000000 -0.0000000000000000  0.7492847232685974
  0.0000000000000000  0.5000000000000000  0.2488399227137634
  0.0000000000000000  0.5000000000000000  0.7511600772862363
  0.5000000000000000 -0.0000000000000000  0.2497437831135064
  0.5000000000000000 -0.0000000000000000  0.7502562168864937
  0.5000000000000000  0.5000000000000000  0.2513005734250978
  0.5000000000000000  0.5000000000000000  0.7486994265749021
  0.7502903197118291  0.2495541345098635  0.5000000000000000
  0.7546857411003417  0.7615061680953817  0.5000000000000000
  0.5000000000000000  0.5000000000000000  0.5000000000000000
  0.1111394161328867  0.1416814775000681  0.2547921828524405
  0.1111394161328867  0.1416814775000681  0.7452078171475589
  0.1094204463172784  0.6404126905359161  0.2507569874020763
  0.1094204463172784  0.6404126905359161  0.7492430125979235
  0.6105105616365586  0.1398389560255389  0.2494215846237685
  0.6105105616365586  0.1398389560255389  0.7505784153762316
  0.6080302338755349  0.6404131610593988  0.2476269964420809
  0.6080302338755349  0.6404131610593988  0.7523730035579190
  0.3919697661244649  0.3595868389406011  0.2476269964420809
  0.3919697661244649  0.3595868389406011  0.7523730035579190
  0.3894894383634412  0.8601610439744610  0.2494215846237685
  0.3894894383634412  0.8601610439744610  0.7505784153762316
  0.8905795536827218  0.3595873094640836  0.2507569874020763
  0.8905795536827218  0.3595873094640836  0.7492430125979235
  0.8888605838671135  0.8583185224999319  0.2547921828524405
  0.8888605838671135  0.8583185224999319  0.7452078171475589
  0.3594282200064366  0.1100769782616668  0.2516608001602990
  0.3594282200064366  0.1100769782616668  0.7483391998397012
  0.3586762231473815  0.6096131905959723  0.2490539290706439
  0.3586762231473815  0.6096131905959723  0.7509460709293559
  0.8601588222368944  0.1094865788235718  0.2487891944930350
  0.8601588222368944  0.1094865788235718  0.7512108055069650
  0.8586974191179644  0.6089979357983438  0.2500292390854936
  0.8586974191179644  0.6089979357983438  0.7499707609145064
  0.1413025808820353  0.3910020642016561  0.2500292390854936
  0.1413025808820353  0.3910020642016561  0.7499707609145064
  0.1398411777631055  0.8905134211764285  0.2487891944930350
  0.1398411777631055  0.8905134211764285  0.7512108055069650
  0.6413237768526181  0.3903868094040274  0.2490539290706439
  0.6413237768526181  0.3903868094040274  0.7509460709293559
  0.6405717799935635  0.8899230217383329  0.2516608001602990
  0.6405717799935635  0.8899230217383329  0.7483391998397012
  0.3591314309639002  0.3897738869016809  0.0000000000000000
  0.3591252471319117  0.8905474700436653  0.0000000000000000
  0.3574466493858171  0.8941812708138025  0.5000000000000000
  0.8594378890436605  0.3907713771377025  0.0000000000000000
  0.8594924625727521  0.8911672429237767  0.0000000000000000
  0.8513154771856787  0.8930103102429079  0.5000000000000000
  0.1405075374272481  0.1088327570762234  0.0000000000000000
  0.1486845228143213  0.1069896897570920  0.5000000000000000
  0.1405621109563395  0.6092286228622975  0.0000000000000000
  0.1359866471598337  0.6117165020676496  0.5000000000000000
  0.6408747528680884  0.1094525299563344  0.0000000000000000
  0.6425533506141826  0.1058187291861973  0.5000000000000000
  0.6408685690360996  0.6102261130983193  0.0000000000000000
  0.1095614769051702  0.3589483502013150  0.0000000000000000
  0.1223633035859008  0.3658686075867263  0.5000000000000000
  0.1086000029811457  0.8592750644661437  0.0000000000000000
  0.1100083967556349  0.8538126041510096  0.5000000000000000
  0.6098844431466471  0.3594660785394049  0.0000000000000000
  0.6096252750053929  0.8594305907151686  0.0000000000000000
  0.6015195938618603  0.8482321183069915  0.5000000000000000
  0.3903747249946070  0.1405694092848313  0.0000000000000000
  0.3984804061381396  0.1517678816930085  0.5000000000000000
  0.3901155568533530  0.6405339214605951  0.0000000000000000
  0.8913999970188542  0.1407249355338561  0.0000000000000000
  0.8899916032443653  0.1461873958489904  0.5000000000000000
  0.8904385230948294  0.6410516497986851  0.0000000000000000
  0.0000000000000000 -0.0000000000000000  0.1257309265610273
  0.0000000000000000 -0.0000000000000000  0.6256438856032335
  0.0000000000000000  0.5000000000000000  0.1250908655644025
  0.0000000000000000  0.5000000000000000  0.6250785904035460
  0.5000000000000000 -0.0000000000000000  0.1252821574705755
  0.5000000000000000 -0.0000000000000000  0.6246363035840401
  0.5000000000000000  0.5000000000000000  0.1242107023636778
  0.5000000000000000  0.5000000000000000  0.6248848798378819
  0.0000000000000000 -0.0000000000000000  0.3743561143967664
  0.0000000000000000 -0.0000000000000000  0.8742690734389726
  0.0000000000000000  0.5000000000000000  0.3749214095964539
  0.0000000000000000  0.5000000000000000  0.8749091344355977
  0.5000000000000000 -0.0000000000000000  0.3753636964159595
  0.5000000000000000 -0.0000000000000000  0.8747178425294246
  0.5000000000000000  0.5000000000000000  0.8757892976363220
  0.2628582845727365  0.2645792191377795  0.3787256167822545
  0.2491023310010876  0.2485862878602474  0.8742476765474833
  0.2497876675112173  0.7508131232632983  0.3738650129329914
  0.2491322085523418  0.7499901757298535  0.8753756043823875
  0.7508677914476585  0.2500098242701466  0.8753756043823875
  0.7508976689989117  0.7514137121397527  0.8742476765474833
  0.2491023310010876  0.2485862878602474  0.1257523234525167
  0.2628582845727365  0.2645792191377795  0.6212743832177455
  0.2491322085523418  0.7499901757298535  0.1246243956176128
  0.2497876675112173  0.7508131232632983  0.6261349870670084
  0.7508677914476585  0.2500098242701466  0.1246243956176128
  0.7502123324887829  0.2491868767367016  0.6261349870670084
  0.7508976689989117  0.7514137121397527  0.1257523234525167
  0.7371417154272640  0.7354207808622206  0.6212743832177455
  0.7502123324887829  0.2491868767367016  0.3738650129329914
  0.8640133528401658  0.3882834979323507  0.5000000000000000
  0.3877142817235795  0.6360793062260894  0.5000000000000000
  0.5000000000000000  0.5000000000000000  0.3751151201621186
  0.8776366964140992  0.6341313924132737  0.5000000000000000
  0.7371417154272640  0.7354207808622206  0.3787256167822545
  0.6122857182764204  0.3639206937739106  0.5000000000000000
 
  0.00000000E+00  0.00000000E+00  0.00000000E+00
  0.00000000E+00  0.00000000E+00  0.00000000E+00
  0.00000000E+00  0.00000000E+00  0.00000000E+00
  0.00000000E+00  0.00000000E+00  0.00000000E+00
  0.00000000E+00  0.00000000E+00  0.00000000E+00
  0.00000000E+00  0.00000000E+00  0.00000000E+00
  0.00000000E+00  0.00000000E+00  0.00000000E+00
  0.00000000E+00  0.00000000E+00  0.00000000E+00
  0.00000000E+00  0.00000000E+00  0.00000000E+00
  0.00000000E+00  0.00000000E+00  0.00000000E+00
  0.00000000E+00  0.00000000E+00  0.00000000E+00
  0.00000000E+00  0.00000000E+00  0.00000000E+00
  0.00000000E+00  0.00000000E+00  0.00000000E+00
  0.00000000E+00  0.00000000E+00  0.00000000E+00
  0.00000000E+00  0.00000000E+00  0.00000000E+00
  0.00000000E+00  0.00000000E+00  0.00000000E+00
  0.00000000E+00  0.00000000E+00  0.00000000E+00
  0.00000000E+00  0.00000000E+00  0.00000000E+00
  0.00000000E+00  0.00000000E+00  0.00000000E+00
  0.00000000E+00  0.00000000E+00  0.00000000E+00
  0.00000000E+00  0.00000000E+00  0.00000000E+00
  0.00000000E+00  0.00000000E+00  0.00000000E+00
  0.00000000E+00  0.00000000E+00  0.00000000E+00
  0.00000000E+00  0.00000000E+00  0.00000000E+00
  0.00000000E+00  0.00000000E+00  0.00000000E+00
  0.00000000E+00  0.00000000E+00  0.00000000E+00
  0.00000000E+00  0.00000000E+00  0.00000000E+00
  0.00000000E+00  0.00000000E+00  0.00000000E+00
  0.00000000E+00  0.00000000E+00  0.00000000E+00
  0.00000000E+00  0.00000000E+00  0.00000000E+00
  0.00000000E+00  0.00000000E+00  0.00000000E+00
  0.00000000E+00  0.00000000E+00  0.00000000E+00
  0.00000000E+00  0.00000000E+00  0.00000000E+00
  0.00000000E+00  0.00000000E+00  0.00000000E+00
  0.00000000E+00  0.00000000E+00  0.00000000E+00
  0.00000000E+00  0.00000000E+00  0.00000000E+00
  0.00000000E+00  0.00000000E+00  0.00000000E+00
  0.00000000E+00  0.00000000E+00  0.00000000E+00
  0.00000000E+00  0.00000000E+00  0.00000000E+00
  0.00000000E+00  0.00000000E+00  0.00000000E+00
  0.00000000E+00  0.00000000E+00  0.00000000E+00
  0.00000000E+00  0.00000000E+00  0.00000000E+00
  0.00000000E+00  0.00000000E+00  0.00000000E+00
  0.00000000E+00  0.00000000E+00  0.00000000E+00
  0.00000000E+00  0.00000000E+00  0.00000000E+00
  0.00000000E+00  0.00000000E+00  0.00000000E+00
  0.00000000E+00  0.00000000E+00  0.00000000E+00
  0.00000000E+00  0.00000000E+00  0.00000000E+00
  0.00000000E+00  0.00000000E+00  0.00000000E+00
  0.00000000E+00  0.00000000E+00  0.00000000E+00
  0.00000000E+00  0.00000000E+00  0.00000000E+00
  0.00000000E+00  0.00000000E+00  0.00000000E+00
  0.00000000E+00  0.00000000E+00  0.00000000E+00
  0.00000000E+00  0.00000000E+00  0.00000000E+00
  0.00000000E+00  0.00000000E+00  0.00000000E+00
  0.00000000E+00  0.00000000E+00  0.00000000E+00
  0.00000000E+00  0.00000000E+00  0.00000000E+00
  0.00000000E+00  0.00000000E+00  0.00000000E+00
  0.00000000E+00  0.00000000E+00  0.00000000E+00
  0.00000000E+00  0.00000000E+00  0.00000000E+00
  0.00000000E+00  0.00000000E+00  0.00000000E+00
  0.00000000E+00  0.00000000E+00  0.00000000E+00
  0.00000000E+00  0.00000000E+00  0.00000000E+00
  0.00000000E+00  0.00000000E+00  0.00000000E+00
  0.00000000E+00  0.00000000E+00  0.00000000E+00
  0.00000000E+00  0.00000000E+00  0.00000000E+00
  0.00000000E+00  0.00000000E+00  0.00000000E+00
  0.00000000E+00  0.00000000E+00  0.00000000E+00
  0.00000000E+00  0.00000000E+00  0.00000000E+00
  0.00000000E+00  0.00000000E+00  0.00000000E+00
  0.00000000E+00  0.00000000E+00  0.00000000E+00
  0.00000000E+00  0.00000000E+00  0.00000000E+00
  0.00000000E+00  0.00000000E+00  0.00000000E+00
  0.00000000E+00  0.00000000E+00  0.00000000E+00
  0.00000000E+00  0.00000000E+00  0.00000000E+00
  0.00000000E+00  0.00000000E+00  0.00000000E+00
  0.00000000E+00  0.00000000E+00  0.00000000E+00
  0.00000000E+00  0.00000000E+00  0.00000000E+00
  0.00000000E+00  0.00000000E+00  0.00000000E+00
  0.00000000E+00  0.00000000E+00  0.00000000E+00
  0.00000000E+00  0.00000000E+00  0.00000000E+00
  0.00000000E+00  0.00000000E+00  0.00000000E+00
  0.00000000E+00  0.00000000E+00  0.00000000E+00
  0.00000000E+00  0.00000000E+00  0.00000000E+00
  0.00000000E+00  0.00000000E+00  0.00000000E+00
  0.00000000E+00  0.00000000E+00  0.00000000E+00
  0.00000000E+00  0.00000000E+00  0.00000000E+00
  0.00000000E+00  0.00000000E+00  0.00000000E+00
  0.00000000E+00  0.00000000E+00  0.00000000E+00
  0.00000000E+00  0.00000000E+00  0.00000000E+00
  0.00000000E+00  0.00000000E+00  0.00000000E+00
  0.00000000E+00  0.00000000E+00  0.00000000E+00
  0.00000000E+00  0.00000000E+00  0.00000000E+00
  0.00000000E+00  0.00000000E+00  0.00000000E+00
  0.00000000E+00  0.00000000E+00  0.00000000E+00
  0.00000000E+00  0.00000000E+00  0.00000000E+00
  0.00000000E+00  0.00000000E+00  0.00000000E+00
  0.00000000E+00  0.00000000E+00  0.00000000E+00
  0.00000000E+00  0.00000000E+00  0.00000000E+00
  0.00000000E+00  0.00000000E+00  0.00000000E+00
  0.00000000E+00  0.00000000E+00  0.00000000E+00
  0.00000000E+00  0.00000000E+00  0.00000000E+00
  0.00000000E+00  0.00000000E+00  0.00000000E+00
  0.00000000E+00  0.00000000E+00  0.00000000E+00
  0.00000000E+00  0.00000000E+00  0.00000000E+00
  0.00000000E+00  0.00000000E+00  0.00000000E+00
  0.00000000E+00  0.00000000E+00  0.00000000E+00
  0.00000000E+00  0.00000000E+00  0.00000000E+00
  0.00000000E+00  0.00000000E+00  0.00000000E+00
  0.00000000E+00  0.00000000E+00  0.00000000E+00
  0.00000000E+00  0.00000000E+00  0.00000000E+00
  0.00000000E+00  0.00000000E+00  0.00000000E+00
  0.00000000E+00  0.00000000E+00  0.00000000E+00
  0.00000000E+00  0.00000000E+00  0.00000000E+00
  0.00000000E+00  0.00000000E+00  0.00000000E+00
  0.00000000E+00  0.00000000E+00  0.00000000E+00
  0.00000000E+00  0.00000000E+00  0.00000000E+00
  0.00000000E+00  0.00000000E+00  0.00000000E+00
  0.00000000E+00  0.00000000E+00  0.00000000E+00
  0.00000000E+00  0.00000000E+00  0.00000000E+00
  0.00000000E+00  0.00000000E+00  0.00000000E+00
  0.00000000E+00  0.00000000E+00  0.00000000E+00
  0.00000000E+00  0.00000000E+00  0.00000000E+00
  0.00000000E+00  0.00000000E+00  0.00000000E+00
  0.00000000E+00  0.00000000E+00  0.00000000E+00
  0.00000000E+00  0.00000000E+00  0.00000000E+00
  0.00000000E+00  0.00000000E+00  0.00000000E+00
  0.00000000E+00  0.00000000E+00  0.00000000E+00
  0.00000000E+00  0.00000000E+00  0.00000000E+00
  0.00000000E+00  0.00000000E+00  0.00000000E+00
  0.00000000E+00  0.00000000E+00  0.00000000E+00
  0.00000000E+00  0.00000000E+00  0.00000000E+00
  0.00000000E+00  0.00000000E+00  0.00000000E+00
  0.00000000E+00  0.00000000E+00  0.00000000E+00
  0.00000000E+00  0.00000000E+00  0.00000000E+00
  0.00000000E+00  0.00000000E+00  0.00000000E+00
  0.00000000E+00  0.00000000E+00  0.00000000E+00
  0.00000000E+00  0.00000000E+00  0.00000000E+00
  0.00000000E+00  0.00000000E+00  0.00000000E+00
  0.00000000E+00  0.00000000E+00  0.00000000E+00
  0.00000000E+00  0.00000000E+00  0.00000000E+00
  0.00000000E+00  0.00000000E+00  0.00000000E+00
  0.00000000E+00  0.00000000E+00  0.00000000E+00
  0.00000000E+00  0.00000000E+00  0.00000000E+00
  0.00000000E+00  0.00000000E+00  0.00000000E+00
  0.00000000E+00  0.00000000E+00  0.00000000E+00
  0.00000000E+00  0.00000000E+00  0.00000000E+00
  0.00000000E+00  0.00000000E+00  0.00000000E+00
  0.00000000E+00  0.00000000E+00  0.00000000E+00
  0.00000000E+00  0.00000000E+00  0.00000000E+00
  0.00000000E+00  0.00000000E+00  0.00000000E+00
  0.00000000E+00  0.00000000E+00  0.00000000E+00
  0.00000000E+00  0.00000000E+00  0.00000000E+00
  0.00000000E+00  0.00000000E+00  0.00000000E+00
  0.00000000E+00  0.00000000E+00  0.00000000E+00
  0.00000000E+00  0.00000000E+00  0.00000000E+00
  0.00000000E+00  0.00000000E+00  0.00000000E+00
  0.00000000E+00  0.00000000E+00  0.00000000E+00
