SrTiFeO                                 
   1.00000000000000     
    11.1989999999999998    0.0000000000000000    0.0000000000000000
     0.0000000000000000   11.1989999999999998    0.0000000000000000
     0.0000000000000000    0.0000000000000000   15.9830000000000005
   Sr   Ti   Fe   O 
    32    30     2    95
Direct
  0.9998671550075926  0.2497067949403033  0.1251524416666149
  0.9999195940738693  0.2484325168065457  0.6232284091791319
  0.9995365964310492  0.7503203359156976  0.1254157708085272
  0.9981495661156381  0.7516370013572388  0.6224676174498009
  0.5002119407775418  0.2484361480824825  0.1256651451094990
  0.5001494288273040  0.2412978813595848  0.6231882263039196
  0.5004302073092451  0.7515196883250270  0.1259524067497833
  0.5026722863828735  0.7571789971790464  0.6218529508772874
  0.0002707180073009  0.2497999912690698  0.3767314712249487
  0.9991588100055090  0.2499615002042694  0.8746255428927101
  0.9975449781816238  0.7503799978097314  0.3773118358547280
  0.0001532656501667  0.7500064637752678  0.8743613617699535
  0.5006080220552647  0.2489592125419660  0.3760848100547693
  0.4996807430005893  0.2452387972474240  0.8761637397823929
  0.5015047321370066  0.7502666112335906  0.3772410974174997
  0.5011005736489481  0.7544962048256560  0.8757680603539966
  0.2496394981413913  0.0000892043854510  0.1251394450521894
  0.2484152783582396  0.0001382887109841  0.6231976158614638
  0.2485046500149228  0.4999873169557805  0.1256695729325359
  0.2410038158972650  0.4994597995288338  0.6232242241465563
  0.7504248968056099  0.9994151649106434  0.1253911197452595
  0.7515382377758427  0.9980645371495889  0.6225996939578801
  0.7513303187265182  0.5007907426401033  0.1261052771447836
  0.7580563842547908  0.5032621533078030  0.6222842098774609
  0.2495946230371027  0.9999019024216577  0.3765948151806123
  0.2498158346158306  0.0004229490428595  0.8746703387681292
  0.2489894204947919  0.4995075434386569  0.3762928960026455
  0.2455119765900128  0.5005133543657765  0.8760481293497551
  0.7502829803743990  0.9978244083278541  0.3771855824273085
  0.7502945611306497  0.9988660334115946  0.8744955066008097
  0.7500172161699842  0.5029672472187340  0.3778530681818821
  0.7544892131068091  0.5002647320256970  0.8758708369932191
  1.0000109034112807  0.0000245916601208  0.9995108029332351
  0.9987105925594795  0.9989731223364684  0.4992743146264904
  0.9999683687415609  0.5000827227944042  0.0004228955753591
  0.9987266715139433  0.5013599793341883  0.4992850526068219
  0.4999646814263304  0.9998422722287647  0.0003772900954151
  0.5011883615222777  0.9987048751566943  0.4992654906044158
  0.5001079075042272  0.4999329586774758  0.0048405828815109
  0.2504029286970078  0.2506219425865102  1.0000005846366709
  0.2514739836436469  0.2513428497023936  0.5007563245930865
  0.2506622332944257  0.7495895755261780  0.9999177654863729
  0.2514905621656333  0.7484614791961791  0.5005924638698473
  0.7493615205625312  0.2504254839814795  0.9999852861480308
  0.7483185847343561  0.2514581824936732  0.5006113639873325
  0.7497260092289898  0.7494552881156262  0.0001462039964024
  0.2506274240010783  0.2505779974726669  0.2501499341659401
  0.2495799550615858  0.2500215551663552  0.7490063930483504
  0.2503555542121103  0.7495113074857015  0.2504695177845727
  0.2503076319243618  0.7503282837896935  0.7482860360652059
  0.7496905969574397  0.2506360653687026  0.2505060895085125
  0.7498521126530696  0.2495749997534615  0.7484272337802281
  0.7495001891537783  0.7496930518543826  0.2520190810057330
  0.7504353668780199  0.7501079080569738  0.7476868750362466
  0.0000540823292927  0.0001787797742370  0.2507611351545544
  0.0001422621310269  0.9999490170350738  0.7506439217886256
  0.9998914911673416  0.5000143138887970  0.2503502555033902
  0.9999531377947255  0.5000026925867489  0.7500180861476160
  0.4999704790346945  0.9999716257010300  0.2502954744592995
  0.4999847217999839  0.9998340818930732  0.7499455988376470
  0.4999866423092461  0.5000348282874497  0.2501005594057462
  0.5000137368821383  0.4997410565247009  0.7594807661136083
  0.5002066033591055  0.5002016353278490  0.4913899399508912
  0.7481219178135464  0.7486437432130816  0.5010595992442639
  0.1096047629612775  0.1417493209086713  0.2508138153749839
  0.1100369731633236  0.1406979001020041  0.7530216971674414
  0.1087606040437782  0.6413966551223393  0.2504069819676635
  0.1111909993130949  0.6392121644863831  0.7499805572826325
  0.6085083059274761  0.1415668416279985  0.2497198462246003
  0.6096317978532214  0.1402999607395232  0.7510653115567770
  0.6076011640672803  0.6410395997748857  0.2480778106536721
  0.3922538223671377  0.3583004966586469  0.2482339457323292
  0.3924901798119959  0.3641323195667744  0.7386248203248325
  0.3914881090490780  0.8584982472175909  0.2502086304578667
  0.3903528751952570  0.8596811063214341  0.7501659331662667
  0.8914048726014173  0.3585124567602242  0.2496487551574148
  0.8890456268407950  0.3605894243403235  0.7501938210319310
  0.8908079274135196  0.8590862683760051  0.2505380326284669
  0.8905884655024344  0.8601974508727066  0.7531567539325820
  0.3585139433458073  0.1089707055998761  0.2498525089546560
  0.3604886050366020  0.1109213911392188  0.7503584149455551
  0.3581906115388211  0.6077195871173519  0.2483674201436949
  0.3643980643248912  0.6072488882361030  0.7382312111289749
  0.8586425833566934  0.1094557244048676  0.2509150540944750
  0.8596462440176450  0.1101277050308642  0.7525527989680767
  0.8590268279178230  0.6083061912569564  0.2498498324206628
  0.8605548203151050  0.6098553460455468  0.7512233451590751
  0.1417162333044759  0.3915571063610062  0.2496298763358453
  0.1402690949459261  0.3901332431758717  0.7511291057894820
  0.1416129261110140  0.8907590063510680  0.2505279031544523
  0.1408423175287186  0.8902356184579397  0.7527940329473028
  0.6415913493364040  0.3921209326773247  0.2489402086355903
  0.6408940198778558  0.8915339309766690  0.2495290613478927
  0.6391224962057626  0.8896194565398793  0.7507873270018997
  0.3590513542409162  0.3923253771028121  0.0004110157092811
  0.3593139054653791  0.8905607456655148  0.9991097824663819
  0.3614267747861812  0.8883893524416526  0.5001739784830602
  0.8590770560029751  0.3909281959179022  0.0002097199153390
  0.8620630239118960  0.3877414550488886  0.4998011509819891
  0.8594159994410037  0.8900486920459467  0.9986732743717412
  0.8633756859234586  0.8895741261446641  0.4985486731317060
  0.1409897737547552  0.1103315375591414  0.9985285645545560
  0.1393306692969596  0.1119536326560524  0.4982290863833935
  0.1410332264599733  0.6092069425459583  0.0000851601898248
  0.1378157400843743  0.6115962561719804  0.4995398171137682
  0.6405118943831014  0.1094346451562684  0.9990291615404705
  0.6385717408495778  0.1117393007337094  0.4999611980739123
  0.6406919699966754  0.6074189216506807  0.0002659210645389
  0.1094451772699251  0.3594013753078760  0.9990847202624329
  0.1124747086582333  0.3619808047995606  0.5002578200618293
  0.1102992331330026  0.8591494184756172  0.9983774387858915
  0.1120424464103959  0.8616055589409258  0.4982669913425442
  0.6076263932484337  0.3589938464285514  0.0003864284004582
  0.6090110708846256  0.8592965572706784  0.0002168185378946
  0.6103554836063454  0.8637175079870779  0.4994366194627669
  0.3907838012126633  0.1409470762626795  0.0001906364203646
  0.3886841221364937  0.1384869242436727  0.4996832179330908
  0.3924091948009850  0.6408019877358456  0.0003717560470816
  0.3871434323165116  0.6359146184466403  0.5099020522146402
  0.8897509730413400  0.1410393017147922  0.9984662357838221
  0.8890500864001765  0.1391181694330444  0.4985415096040852
  0.8907951145358669  0.6404509570958464  0.9990837042335068
  0.0002810444388717  0.0005400495598535  0.1244923781428267
  0.0010090379223194  0.0006463112343481  0.6260705299135910
  0.0004708467169954  0.5000632116655194  0.1247577821765976
  0.0006129153501232  0.4992426979718311  0.6254452197262290
  0.4994533753832600  0.0001279018094954  0.1247356899060214
  0.4998090157431934  0.0007901617078601  0.6253710252492256
  0.4999388291945822  0.4994646385620603  0.1249633770564709
  0.0008388900221624  0.0006326332570004  0.3739965155629594
  0.0002621841219038  0.0005025984160706  0.8757423541009199
  0.0005325024952342  0.4988290137891382  0.3745651332517848
  0.0003439617873536  0.4998454516706766  0.8753220245150417
  0.4994045891160346  0.0009382663562729  0.3744667643978700
  0.4993147119936527  0.9999525937368701  0.8752985953392874
  0.4997264320707876  0.4992005794133898  0.8748100588380543
  0.2545357589633531  0.2557182382551045  0.3754770984537707
  0.2564418336689295  0.2546989015601596  0.8740224327729149
  0.2547515461630780  0.7463163820893002  0.3755565935311545
  0.2549225025659145  0.7436664272224618  0.8737254828077063
  0.7457159778485627  0.2536383682110279  0.3755168618811179
  0.7453035470993226  0.2565479694768418  0.8737987263991347
  0.7457481275915645  0.7453876663696228  0.3740829602657726
  0.7441100748175176  0.7459203289336614  0.8744050301437708
  0.2493731056982482  0.2500283067648068  0.1244882053441738
  0.2443102377668387  0.2445260715084937  0.6258474688096133
  0.2499624948890432  0.7506137923423318  0.1245651808270853
  0.2439077793230660  0.7555656255788812  0.6253797889890826
  0.7499279523015131  0.2494024700242792  0.1245601488615878
  0.7551102059915309  0.2438099348469900  0.6254202867233000
  0.7506965053446398  0.7498619269593728  0.1242914075636992
  0.6356044057421301  0.3925909692511422  0.7378878371684989
  0.6074219048201476  0.6355933484998415  0.7397529070665007
  0.4990019267468412  0.4997845807297263  0.3729451746202914
  0.6107388574642018  0.3621163503603201  0.5093718232314589
  0.3645392614796558  0.3892982142395915  0.5113306909081439
  0.7555213754930664  0.7554990002282997  0.6271525118180312
  0.8885675836295677  0.6359008490031069  0.5000565572364613
  0.6323172851339741  0.6086480494791323  0.5125339708828768
 
  0.00000000E+00  0.00000000E+00  0.00000000E+00
  0.00000000E+00  0.00000000E+00  0.00000000E+00
  0.00000000E+00  0.00000000E+00  0.00000000E+00
  0.00000000E+00  0.00000000E+00  0.00000000E+00
  0.00000000E+00  0.00000000E+00  0.00000000E+00
  0.00000000E+00  0.00000000E+00  0.00000000E+00
  0.00000000E+00  0.00000000E+00  0.00000000E+00
  0.00000000E+00  0.00000000E+00  0.00000000E+00
  0.00000000E+00  0.00000000E+00  0.00000000E+00
  0.00000000E+00  0.00000000E+00  0.00000000E+00
  0.00000000E+00  0.00000000E+00  0.00000000E+00
  0.00000000E+00  0.00000000E+00  0.00000000E+00
  0.00000000E+00  0.00000000E+00  0.00000000E+00
  0.00000000E+00  0.00000000E+00  0.00000000E+00
  0.00000000E+00  0.00000000E+00  0.00000000E+00
  0.00000000E+00  0.00000000E+00  0.00000000E+00
  0.00000000E+00  0.00000000E+00  0.00000000E+00
  0.00000000E+00  0.00000000E+00  0.00000000E+00
  0.00000000E+00  0.00000000E+00  0.00000000E+00
  0.00000000E+00  0.00000000E+00  0.00000000E+00
  0.00000000E+00  0.00000000E+00  0.00000000E+00
  0.00000000E+00  0.00000000E+00  0.00000000E+00
  0.00000000E+00  0.00000000E+00  0.00000000E+00
  0.00000000E+00  0.00000000E+00  0.00000000E+00
  0.00000000E+00  0.00000000E+00  0.00000000E+00
  0.00000000E+00  0.00000000E+00  0.00000000E+00
  0.00000000E+00  0.00000000E+00  0.00000000E+00
  0.00000000E+00  0.00000000E+00  0.00000000E+00
  0.00000000E+00  0.00000000E+00  0.00000000E+00
  0.00000000E+00  0.00000000E+00  0.00000000E+00
  0.00000000E+00  0.00000000E+00  0.00000000E+00
  0.00000000E+00  0.00000000E+00  0.00000000E+00
  0.00000000E+00  0.00000000E+00  0.00000000E+00
  0.00000000E+00  0.00000000E+00  0.00000000E+00
  0.00000000E+00  0.00000000E+00  0.00000000E+00
  0.00000000E+00  0.00000000E+00  0.00000000E+00
  0.00000000E+00  0.00000000E+00  0.00000000E+00
  0.00000000E+00  0.00000000E+00  0.00000000E+00
  0.00000000E+00  0.00000000E+00  0.00000000E+00
  0.00000000E+00  0.00000000E+00  0.00000000E+00
  0.00000000E+00  0.00000000E+00  0.00000000E+00
  0.00000000E+00  0.00000000E+00  0.00000000E+00
  0.00000000E+00  0.00000000E+00  0.00000000E+00
  0.00000000E+00  0.00000000E+00  0.00000000E+00
  0.00000000E+00  0.00000000E+00  0.00000000E+00
  0.00000000E+00  0.00000000E+00  0.00000000E+00
  0.00000000E+00  0.00000000E+00  0.00000000E+00
  0.00000000E+00  0.00000000E+00  0.00000000E+00
  0.00000000E+00  0.00000000E+00  0.00000000E+00
  0.00000000E+00  0.00000000E+00  0.00000000E+00
  0.00000000E+00  0.00000000E+00  0.00000000E+00
  0.00000000E+00  0.00000000E+00  0.00000000E+00
  0.00000000E+00  0.00000000E+00  0.00000000E+00
  0.00000000E+00  0.00000000E+00  0.00000000E+00
  0.00000000E+00  0.00000000E+00  0.00000000E+00
  0.00000000E+00  0.00000000E+00  0.00000000E+00
  0.00000000E+00  0.00000000E+00  0.00000000E+00
  0.00000000E+00  0.00000000E+00  0.00000000E+00
  0.00000000E+00  0.00000000E+00  0.00000000E+00
  0.00000000E+00  0.00000000E+00  0.00000000E+00
  0.00000000E+00  0.00000000E+00  0.00000000E+00
  0.00000000E+00  0.00000000E+00  0.00000000E+00
  0.00000000E+00  0.00000000E+00  0.00000000E+00
  0.00000000E+00  0.00000000E+00  0.00000000E+00
  0.00000000E+00  0.00000000E+00  0.00000000E+00
  0.00000000E+00  0.00000000E+00  0.00000000E+00
  0.00000000E+00  0.00000000E+00  0.00000000E+00
  0.00000000E+00  0.00000000E+00  0.00000000E+00
  0.00000000E+00  0.00000000E+00  0.00000000E+00
  0.00000000E+00  0.00000000E+00  0.00000000E+00
  0.00000000E+00  0.00000000E+00  0.00000000E+00
  0.00000000E+00  0.00000000E+00  0.00000000E+00
  0.00000000E+00  0.00000000E+00  0.00000000E+00
  0.00000000E+00  0.00000000E+00  0.00000000E+00
  0.00000000E+00  0.00000000E+00  0.00000000E+00
  0.00000000E+00  0.00000000E+00  0.00000000E+00
  0.00000000E+00  0.00000000E+00  0.00000000E+00
  0.00000000E+00  0.00000000E+00  0.00000000E+00
  0.00000000E+00  0.00000000E+00  0.00000000E+00
  0.00000000E+00  0.00000000E+00  0.00000000E+00
  0.00000000E+00  0.00000000E+00  0.00000000E+00
  0.00000000E+00  0.00000000E+00  0.00000000E+00
  0.00000000E+00  0.00000000E+00  0.00000000E+00
  0.00000000E+00  0.00000000E+00  0.00000000E+00
  0.00000000E+00  0.00000000E+00  0.00000000E+00
  0.00000000E+00  0.00000000E+00  0.00000000E+00
  0.00000000E+00  0.00000000E+00  0.00000000E+00
  0.00000000E+00  0.00000000E+00  0.00000000E+00
  0.00000000E+00  0.00000000E+00  0.00000000E+00
  0.00000000E+00  0.00000000E+00  0.00000000E+00
  0.00000000E+00  0.00000000E+00  0.00000000E+00
  0.00000000E+00  0.00000000E+00  0.00000000E+00
  0.00000000E+00  0.00000000E+00  0.00000000E+00
  0.00000000E+00  0.00000000E+00  0.00000000E+00
  0.00000000E+00  0.00000000E+00  0.00000000E+00
  0.00000000E+00  0.00000000E+00  0.00000000E+00
  0.00000000E+00  0.00000000E+00  0.00000000E+00
  0.00000000E+00  0.00000000E+00  0.00000000E+00
  0.00000000E+00  0.00000000E+00  0.00000000E+00
  0.00000000E+00  0.00000000E+00  0.00000000E+00
  0.00000000E+00  0.00000000E+00  0.00000000E+00
  0.00000000E+00  0.00000000E+00  0.00000000E+00
  0.00000000E+00  0.00000000E+00  0.00000000E+00
  0.00000000E+00  0.00000000E+00  0.00000000E+00
  0.00000000E+00  0.00000000E+00  0.00000000E+00
  0.00000000E+00  0.00000000E+00  0.00000000E+00
  0.00000000E+00  0.00000000E+00  0.00000000E+00
  0.00000000E+00  0.00000000E+00  0.00000000E+00
  0.00000000E+00  0.00000000E+00  0.00000000E+00
  0.00000000E+00  0.00000000E+00  0.00000000E+00
  0.00000000E+00  0.00000000E+00  0.00000000E+00
  0.00000000E+00  0.00000000E+00  0.00000000E+00
  0.00000000E+00  0.00000000E+00  0.00000000E+00
  0.00000000E+00  0.00000000E+00  0.00000000E+00
  0.00000000E+00  0.00000000E+00  0.00000000E+00
  0.00000000E+00  0.00000000E+00  0.00000000E+00
  0.00000000E+00  0.00000000E+00  0.00000000E+00
  0.00000000E+00  0.00000000E+00  0.00000000E+00
  0.00000000E+00  0.00000000E+00  0.00000000E+00
  0.00000000E+00  0.00000000E+00  0.00000000E+00
  0.00000000E+00  0.00000000E+00  0.00000000E+00
  0.00000000E+00  0.00000000E+00  0.00000000E+00
  0.00000000E+00  0.00000000E+00  0.00000000E+00
  0.00000000E+00  0.00000000E+00  0.00000000E+00
  0.00000000E+00  0.00000000E+00  0.00000000E+00
  0.00000000E+00  0.00000000E+00  0.00000000E+00
  0.00000000E+00  0.00000000E+00  0.00000000E+00
  0.00000000E+00  0.00000000E+00  0.00000000E+00
  0.00000000E+00  0.00000000E+00  0.00000000E+00
  0.00000000E+00  0.00000000E+00  0.00000000E+00
  0.00000000E+00  0.00000000E+00  0.00000000E+00
  0.00000000E+00  0.00000000E+00  0.00000000E+00
  0.00000000E+00  0.00000000E+00  0.00000000E+00
  0.00000000E+00  0.00000000E+00  0.00000000E+00
  0.00000000E+00  0.00000000E+00  0.00000000E+00
  0.00000000E+00  0.00000000E+00  0.00000000E+00
  0.00000000E+00  0.00000000E+00  0.00000000E+00
  0.00000000E+00  0.00000000E+00  0.00000000E+00
  0.00000000E+00  0.00000000E+00  0.00000000E+00
  0.00000000E+00  0.00000000E+00  0.00000000E+00
  0.00000000E+00  0.00000000E+00  0.00000000E+00
  0.00000000E+00  0.00000000E+00  0.00000000E+00
  0.00000000E+00  0.00000000E+00  0.00000000E+00
  0.00000000E+00  0.00000000E+00  0.00000000E+00
  0.00000000E+00  0.00000000E+00  0.00000000E+00
  0.00000000E+00  0.00000000E+00  0.00000000E+00
  0.00000000E+00  0.00000000E+00  0.00000000E+00
  0.00000000E+00  0.00000000E+00  0.00000000E+00
  0.00000000E+00  0.00000000E+00  0.00000000E+00
  0.00000000E+00  0.00000000E+00  0.00000000E+00
  0.00000000E+00  0.00000000E+00  0.00000000E+00
  0.00000000E+00  0.00000000E+00  0.00000000E+00
  0.00000000E+00  0.00000000E+00  0.00000000E+00
  0.00000000E+00  0.00000000E+00  0.00000000E+00
  0.00000000E+00  0.00000000E+00  0.00000000E+00
  0.00000000E+00  0.00000000E+00  0.00000000E+00
  0.00000000E+00  0.00000000E+00  0.00000000E+00
  0.00000000E+00  0.00000000E+00  0.00000000E+00
  0.00000000E+00  0.00000000E+00  0.00000000E+00
