SrTiFeO                                 
   1.00000000000000     
    11.1989999999999998    0.0000000000000000    0.0000000000000000
     0.0000000000000000   11.1989999999999998    0.0000000000000000
     0.0000000000000000    0.0000000000000000   15.9830000000000005
   Sr   Ti   Fe   O 
    32    30     2    95
Direct
 -0.0001108517610073  0.2501108517610074  0.1249534199288208
  0.0004863715457595  0.2495136284542404  0.6247357458446908
 -0.0015278501815894  0.7502207364471843  0.1256351254998463
  0.0008676677328253  0.7481814290271701  0.6237250048374250
  0.4997792635528154  0.2515278501815895  0.1256351254998463
  0.5018185709728299  0.2491323322671747  0.6237250048374250
  0.5000872175499155  0.7499127824500845  0.1239838005899360
  0.4986554409907212  0.7513445590092784  0.6276168216132573
  0.0004863715457595  0.2495136284542404  0.3752642541553096
 -0.0001108517610073  0.2501108517610074  0.8750465800711794
  0.0008676677328253  0.7481814290271701  0.3762749951625748
 -0.0015278501815894  0.7502207364471843  0.8743648745001537
  0.5018185709728299  0.2491323322671747  0.3762749951625748
  0.4997792635528154  0.2515278501815895  0.8743648745001537
  0.4986554409907212  0.7513445590092784  0.3723831783867429
  0.5000872175499155  0.7499127824500845  0.8760161994100640
  0.2501643406136848 -0.0001643406136847  0.1250980297418985
  0.2501974040105282 -0.0001974040105283  0.6252247985922537
  0.2511836749844821  0.5005713080733138  0.1249332612087039
  0.2476128241694579  0.4997385544784938  0.6253990947137034
  0.7494286919266862 -0.0011836749844822  0.1249332612087039
  0.7502614455215064  0.0023871758305421  0.6253990947137034
  0.7487708005904754  0.5012291994095247  0.1248014259396134
  0.7540534887915393  0.4959465112084608  0.6275690177027989
  0.2501974040105282 -0.0001974040105283  0.3747752014077469
  0.2501643406136848 -0.0001643406136847  0.8749019702581015
  0.2476128241694579  0.4997385544784938  0.3746009052862967
  0.2511836749844821  0.5005713080733138  0.8750667387912965
  0.7502614455215064  0.0023871758305421  0.3746009052862967
  0.7494286919266862 -0.0011836749844822  0.8750667387912965
  0.7540534887915393  0.4959465112084608  0.3724309822972014
  0.7487708005904754  0.5012291994095247  0.8751985740603869
 -0.0003427368189193 -0.0004918744957861  0.0000000000000000
  0.0019022048237207  0.0010979606340859  0.5000000000000000
  0.0000261788018050  0.4997684504695867  0.0000000000000000
 -0.0012351374086224  0.5001107867365128  0.5000000000000000
  0.5001043304740539  0.0003897864998673  0.0000000000000000
  0.5005128376466014 -0.0025861666750459  0.5000000000000000
  0.4994505084893551  0.4994711882561845  0.0000000000000000
  0.2504918744957862  0.2503427368189193  0.0000000000000000
  0.2489020393659141  0.2480977951762793  0.5000000000000000
  0.2496102135001327  0.7498956695259462  0.0000000000000000
  0.2525861666750459  0.7494871623533985  0.5000000000000000
  0.7502315495304133  0.2499738211981950  0.0000000000000000
  0.7498892132634872  0.2512351374086224  0.5000000000000000
  0.7505288117438154  0.7505494915106448  0.0000000000000000
  0.2502669469764808  0.2499819189659858  0.2504166192989674
  0.2502669469764808  0.2499819189659858  0.7495833807010329
  0.2497417163862276  0.7498771514476094  0.2499540679322201
  0.2497417163862276  0.7498771514476094  0.7500459320677799
  0.7500705410921503  0.2495541420498740  0.2495332927151409
  0.7500705410921503  0.2495541420498740  0.7504667072848591
  0.7489507760760146  0.7488753661256614  0.2523388566730081
  0.7489507760760146  0.7488753661256614  0.7476611433269917
  0.0000180810340142 -0.0002669469764809  0.2504166192989674
  0.0000180810340142 -0.0002669469764809  0.7495833807010329
  0.0004458579501260  0.4999294589078495  0.2495332927151409
  0.0004458579501260  0.4999294589078495  0.7504667072848591
  0.5001228485523906  0.0002582836137723  0.2499540679322201
  0.5001228485523906  0.0002582836137723  0.7500459320677799
  0.5011246338743385  0.5010492239239854  0.2523388566730081
  0.5011246338743385  0.5010492239239854  0.7476611433269917
  0.4874473788842278  0.4921405061077688  0.5000000000000000
  0.7578594938922312  0.7625526211157719  0.5000000000000000
  0.1091667868642315  0.1408332131357685  0.2483215664020895
  0.1091667868642315  0.1408332131357685  0.7516784335979108
  0.1088448172938959  0.6410475898696891  0.2500504939772870
  0.1088448172938959  0.6410475898696891  0.7499495060227130
  0.6089524101303109  0.1411551827061041  0.2500504939772870
  0.6089524101303109  0.1411551827061041  0.7499495060227130
  0.6089918539288989  0.6410081460711011  0.2442643686101330
  0.3915411187264416  0.3604524562705499  0.2555555350584204
  0.3915411187264416  0.3604524562705499  0.7444444649415791
  0.3900819429656731  0.8599180570343270  0.2496135475856246
  0.3900819429656731  0.8599180570343270  0.7503864524143755
  0.8907070694751582  0.3592929305248418  0.2512545148367862
  0.8907070694751582  0.3592929305248418  0.7487454851632136
  0.8895475437294501  0.8584588812735586  0.2555555350584204
  0.8895475437294501  0.8584588812735586  0.7444444649415791
  0.3593648462469651  0.1096508088953490  0.2497030369234908
  0.3593648462469651  0.1096508088953490  0.7502969630765092
  0.3591862327700743  0.6093632907536264  0.2516239869071869
  0.3591862327700743  0.6093632907536264  0.7483760130928131
  0.8589356450382030  0.1086499142427582  0.2496793995389392
  0.8589356450382030  0.1086499142427582  0.7503206004610609
  0.8593467644244163  0.6085497278067469  0.2495858133516249
  0.8593467644244163  0.6085497278067469  0.7504141866483751
  0.1413500857572417  0.3910643549617970  0.2496793995389392
  0.1413500857572417  0.3910643549617970  0.7503206004610609
  0.1403491911046510  0.8906351537530349  0.2497030369234908
  0.1403491911046510  0.8906351537530349  0.7502969630765092
  0.6414502721932531  0.3906532355755836  0.2495858133516249
  0.6406367092463736  0.8908137672299257  0.2516239869071869
  0.6406367092463736  0.8908137672299257  0.7483760130928131
  0.3586437689361528  0.3907719841418092  0.0000000000000000
  0.3591830021590399  0.8908169978409601  0.0000000000000000
  0.3570895964695032  0.8929104035304969  0.5000000000000000
  0.8591956439537912  0.3908043560462086  0.0000000000000000
  0.8626842803431038  0.3873157196568963  0.5000000000000000
  0.8592280158581905  0.8913562310638472  0.0000000000000000
  0.8604427393233453  0.8946870927371962  0.5000000000000000
  0.1408398670125574  0.1091601329874426  0.0000000000000000
  0.1415614775097242  0.1084385224902758  0.5000000000000000
  0.1408291389124324  0.6087778552313551  0.0000000000000000
  0.1390308637592251  0.6106808000687534  0.5000000000000000
  0.6412221447686449  0.1091708610875676  0.0000000000000000
  0.6393191999312466  0.1109691362407747  0.5000000000000000
  0.6399876682012282  0.6100123317987718  0.0000000000000000
  0.1091488910621608  0.3585749589716103  0.0000000000000000
  0.1092890383544370  0.3592508900876696  0.5000000000000000
  0.1090677873845382  0.8588804092337627  0.0000000000000000
  0.1085428787655808  0.8590684871231563  0.5000000000000000
  0.6094685839693786  0.3592003718104576  0.0000000000000000
  0.6093904970154125  0.8595829005250682  0.0000000000000000
  0.6053349078338444  0.8542883304482116  0.5000000000000000
  0.3911195907662373  0.1409322126154619  0.0000000000000000
  0.3909315128768440  0.1414571212344192  0.5000000000000000
  0.3904170994749319  0.6406095029845875  0.0000000000000000
  0.3957116695517883  0.6446650921661556  0.5000000000000000
  0.8914250410283897  0.1408511089378391  0.0000000000000000
  0.8907491099123304  0.1407109616455630  0.5000000000000000
  0.8907996281895423  0.6405314160306214  0.0000000000000000
 -0.0017849242452991 -0.0026035492423054  0.1253771378803194
  0.0020279233031796  0.0025957428848437  0.6250124980834235
  0.0000795804152472  0.4991211249639042  0.1249624578708838
  0.0012984604773259  0.5004512401707476  0.6252219060456097
  0.5006881218507306 -0.0002133627187011  0.1250778781158512
  0.4995991889939341  0.0011568850633330  0.6250218817191761
  0.4974218474431163  0.4973964171120055  0.1252988120641592
  0.0020279233031796  0.0025957428848437  0.3749875019165766
 -0.0017849242452991 -0.0026035492423054  0.8746228621196807
  0.0012984604773259  0.5004512401707476  0.3747780939543900
  0.0000795804152472  0.4991211249639042  0.8750375421291162
  0.4995991889939341  0.0011568850633330  0.3749781182808240
  0.5006881218507306 -0.0002133627187011  0.8749221218841486
  0.4974218474431163  0.4973964171120055  0.8747011879358407
  0.2474042571151563  0.2479720766968204  0.3749875019165766
  0.2526035492423054  0.2517849242452991  0.8746228621196807
  0.2488431149366671  0.7504008110060663  0.3749781182808240
  0.2502133627187011  0.7493118781492694  0.8749221218841486
  0.7495487598292524  0.2487015395226741  0.3747780939543900
  0.7508788750360958  0.2499204195847528  0.8750375421291162
  0.7385175546830438  0.7366731658151516  0.3773111931637798
  0.7526035828879944  0.7525781525568837  0.8747011879358407
  0.2526035492423054  0.2517849242452991  0.1253771378803194
  0.2474042571151563  0.2479720766968204  0.6250124980834235
  0.2502133627187011  0.7493118781492694  0.1250778781158512
  0.2488431149366671  0.7504008110060663  0.6250218817191761
  0.7508788750360958  0.2499204195847528  0.1249624578708838
  0.7495487598292524  0.2487015395226741  0.6252219060456097
  0.7526035828879944  0.7525781525568837  0.1252988120641592
  0.6414502721932531  0.3906532355755836  0.7504141866483751
  0.6089918539288989  0.6410081460711011  0.7557356313898673
  0.5133268341848484  0.5114824453169562  0.3773111931637798
  0.6170789229119732  0.3703969642972463  0.5000000000000000
  0.3553129072628040  0.3895572606766547  0.5000000000000000
  0.7385175546830438  0.7366731658151516  0.6226888068362204
  0.8796030357027538  0.6329210770880268  0.5000000000000000
  0.5133268341848484  0.5114824453169562  0.6226888068362204
 
  0.00000000E+00  0.00000000E+00  0.00000000E+00
  0.00000000E+00  0.00000000E+00  0.00000000E+00
  0.00000000E+00  0.00000000E+00  0.00000000E+00
  0.00000000E+00  0.00000000E+00  0.00000000E+00
  0.00000000E+00  0.00000000E+00  0.00000000E+00
  0.00000000E+00  0.00000000E+00  0.00000000E+00
  0.00000000E+00  0.00000000E+00  0.00000000E+00
  0.00000000E+00  0.00000000E+00  0.00000000E+00
  0.00000000E+00  0.00000000E+00  0.00000000E+00
  0.00000000E+00  0.00000000E+00  0.00000000E+00
  0.00000000E+00  0.00000000E+00  0.00000000E+00
  0.00000000E+00  0.00000000E+00  0.00000000E+00
  0.00000000E+00  0.00000000E+00  0.00000000E+00
  0.00000000E+00  0.00000000E+00  0.00000000E+00
  0.00000000E+00  0.00000000E+00  0.00000000E+00
  0.00000000E+00  0.00000000E+00  0.00000000E+00
  0.00000000E+00  0.00000000E+00  0.00000000E+00
  0.00000000E+00  0.00000000E+00  0.00000000E+00
  0.00000000E+00  0.00000000E+00  0.00000000E+00
  0.00000000E+00  0.00000000E+00  0.00000000E+00
  0.00000000E+00  0.00000000E+00  0.00000000E+00
  0.00000000E+00  0.00000000E+00  0.00000000E+00
  0.00000000E+00  0.00000000E+00  0.00000000E+00
  0.00000000E+00  0.00000000E+00  0.00000000E+00
  0.00000000E+00  0.00000000E+00  0.00000000E+00
  0.00000000E+00  0.00000000E+00  0.00000000E+00
  0.00000000E+00  0.00000000E+00  0.00000000E+00
  0.00000000E+00  0.00000000E+00  0.00000000E+00
  0.00000000E+00  0.00000000E+00  0.00000000E+00
  0.00000000E+00  0.00000000E+00  0.00000000E+00
  0.00000000E+00  0.00000000E+00  0.00000000E+00
  0.00000000E+00  0.00000000E+00  0.00000000E+00
  0.00000000E+00  0.00000000E+00  0.00000000E+00
  0.00000000E+00  0.00000000E+00  0.00000000E+00
  0.00000000E+00  0.00000000E+00  0.00000000E+00
  0.00000000E+00  0.00000000E+00  0.00000000E+00
  0.00000000E+00  0.00000000E+00  0.00000000E+00
  0.00000000E+00  0.00000000E+00  0.00000000E+00
  0.00000000E+00  0.00000000E+00  0.00000000E+00
  0.00000000E+00  0.00000000E+00  0.00000000E+00
  0.00000000E+00  0.00000000E+00  0.00000000E+00
  0.00000000E+00  0.00000000E+00  0.00000000E+00
  0.00000000E+00  0.00000000E+00  0.00000000E+00
  0.00000000E+00  0.00000000E+00  0.00000000E+00
  0.00000000E+00  0.00000000E+00  0.00000000E+00
  0.00000000E+00  0.00000000E+00  0.00000000E+00
  0.00000000E+00  0.00000000E+00  0.00000000E+00
  0.00000000E+00  0.00000000E+00  0.00000000E+00
  0.00000000E+00  0.00000000E+00  0.00000000E+00
  0.00000000E+00  0.00000000E+00  0.00000000E+00
  0.00000000E+00  0.00000000E+00  0.00000000E+00
  0.00000000E+00  0.00000000E+00  0.00000000E+00
  0.00000000E+00  0.00000000E+00  0.00000000E+00
  0.00000000E+00  0.00000000E+00  0.00000000E+00
  0.00000000E+00  0.00000000E+00  0.00000000E+00
  0.00000000E+00  0.00000000E+00  0.00000000E+00
  0.00000000E+00  0.00000000E+00  0.00000000E+00
  0.00000000E+00  0.00000000E+00  0.00000000E+00
  0.00000000E+00  0.00000000E+00  0.00000000E+00
  0.00000000E+00  0.00000000E+00  0.00000000E+00
  0.00000000E+00  0.00000000E+00  0.00000000E+00
  0.00000000E+00  0.00000000E+00  0.00000000E+00
  0.00000000E+00  0.00000000E+00  0.00000000E+00
  0.00000000E+00  0.00000000E+00  0.00000000E+00
  0.00000000E+00  0.00000000E+00  0.00000000E+00
  0.00000000E+00  0.00000000E+00  0.00000000E+00
  0.00000000E+00  0.00000000E+00  0.00000000E+00
  0.00000000E+00  0.00000000E+00  0.00000000E+00
  0.00000000E+00  0.00000000E+00  0.00000000E+00
  0.00000000E+00  0.00000000E+00  0.00000000E+00
  0.00000000E+00  0.00000000E+00  0.00000000E+00
  0.00000000E+00  0.00000000E+00  0.00000000E+00
  0.00000000E+00  0.00000000E+00  0.00000000E+00
  0.00000000E+00  0.00000000E+00  0.00000000E+00
  0.00000000E+00  0.00000000E+00  0.00000000E+00
  0.00000000E+00  0.00000000E+00  0.00000000E+00
  0.00000000E+00  0.00000000E+00  0.00000000E+00
  0.00000000E+00  0.00000000E+00  0.00000000E+00
  0.00000000E+00  0.00000000E+00  0.00000000E+00
  0.00000000E+00  0.00000000E+00  0.00000000E+00
  0.00000000E+00  0.00000000E+00  0.00000000E+00
  0.00000000E+00  0.00000000E+00  0.00000000E+00
  0.00000000E+00  0.00000000E+00  0.00000000E+00
  0.00000000E+00  0.00000000E+00  0.00000000E+00
  0.00000000E+00  0.00000000E+00  0.00000000E+00
  0.00000000E+00  0.00000000E+00  0.00000000E+00
  0.00000000E+00  0.00000000E+00  0.00000000E+00
  0.00000000E+00  0.00000000E+00  0.00000000E+00
  0.00000000E+00  0.00000000E+00  0.00000000E+00
  0.00000000E+00  0.00000000E+00  0.00000000E+00
  0.00000000E+00  0.00000000E+00  0.00000000E+00
  0.00000000E+00  0.00000000E+00  0.00000000E+00
  0.00000000E+00  0.00000000E+00  0.00000000E+00
  0.00000000E+00  0.00000000E+00  0.00000000E+00
  0.00000000E+00  0.00000000E+00  0.00000000E+00
  0.00000000E+00  0.00000000E+00  0.00000000E+00
  0.00000000E+00  0.00000000E+00  0.00000000E+00
  0.00000000E+00  0.00000000E+00  0.00000000E+00
  0.00000000E+00  0.00000000E+00  0.00000000E+00
  0.00000000E+00  0.00000000E+00  0.00000000E+00
  0.00000000E+00  0.00000000E+00  0.00000000E+00
  0.00000000E+00  0.00000000E+00  0.00000000E+00
  0.00000000E+00  0.00000000E+00  0.00000000E+00
  0.00000000E+00  0.00000000E+00  0.00000000E+00
  0.00000000E+00  0.00000000E+00  0.00000000E+00
  0.00000000E+00  0.00000000E+00  0.00000000E+00
  0.00000000E+00  0.00000000E+00  0.00000000E+00
  0.00000000E+00  0.00000000E+00  0.00000000E+00
  0.00000000E+00  0.00000000E+00  0.00000000E+00
  0.00000000E+00  0.00000000E+00  0.00000000E+00
  0.00000000E+00  0.00000000E+00  0.00000000E+00
  0.00000000E+00  0.00000000E+00  0.00000000E+00
  0.00000000E+00  0.00000000E+00  0.00000000E+00
  0.00000000E+00  0.00000000E+00  0.00000000E+00
  0.00000000E+00  0.00000000E+00  0.00000000E+00
  0.00000000E+00  0.00000000E+00  0.00000000E+00
  0.00000000E+00  0.00000000E+00  0.00000000E+00
  0.00000000E+00  0.00000000E+00  0.00000000E+00
  0.00000000E+00  0.00000000E+00  0.00000000E+00
  0.00000000E+00  0.00000000E+00  0.00000000E+00
  0.00000000E+00  0.00000000E+00  0.00000000E+00
  0.00000000E+00  0.00000000E+00  0.00000000E+00
  0.00000000E+00  0.00000000E+00  0.00000000E+00
  0.00000000E+00  0.00000000E+00  0.00000000E+00
  0.00000000E+00  0.00000000E+00  0.00000000E+00
  0.00000000E+00  0.00000000E+00  0.00000000E+00
  0.00000000E+00  0.00000000E+00  0.00000000E+00
  0.00000000E+00  0.00000000E+00  0.00000000E+00
  0.00000000E+00  0.00000000E+00  0.00000000E+00
  0.00000000E+00  0.00000000E+00  0.00000000E+00
  0.00000000E+00  0.00000000E+00  0.00000000E+00
  0.00000000E+00  0.00000000E+00  0.00000000E+00
  0.00000000E+00  0.00000000E+00  0.00000000E+00
  0.00000000E+00  0.00000000E+00  0.00000000E+00
  0.00000000E+00  0.00000000E+00  0.00000000E+00
  0.00000000E+00  0.00000000E+00  0.00000000E+00
  0.00000000E+00  0.00000000E+00  0.00000000E+00
  0.00000000E+00  0.00000000E+00  0.00000000E+00
  0.00000000E+00  0.00000000E+00  0.00000000E+00
  0.00000000E+00  0.00000000E+00  0.00000000E+00
  0.00000000E+00  0.00000000E+00  0.00000000E+00
  0.00000000E+00  0.00000000E+00  0.00000000E+00
  0.00000000E+00  0.00000000E+00  0.00000000E+00
  0.00000000E+00  0.00000000E+00  0.00000000E+00
  0.00000000E+00  0.00000000E+00  0.00000000E+00
  0.00000000E+00  0.00000000E+00  0.00000000E+00
  0.00000000E+00  0.00000000E+00  0.00000000E+00
  0.00000000E+00  0.00000000E+00  0.00000000E+00
  0.00000000E+00  0.00000000E+00  0.00000000E+00
  0.00000000E+00  0.00000000E+00  0.00000000E+00
  0.00000000E+00  0.00000000E+00  0.00000000E+00
  0.00000000E+00  0.00000000E+00  0.00000000E+00
  0.00000000E+00  0.00000000E+00  0.00000000E+00
  0.00000000E+00  0.00000000E+00  0.00000000E+00
  0.00000000E+00  0.00000000E+00  0.00000000E+00
  0.00000000E+00  0.00000000E+00  0.00000000E+00
  0.00000000E+00  0.00000000E+00  0.00000000E+00
  0.00000000E+00  0.00000000E+00  0.00000000E+00
  0.00000000E+00  0.00000000E+00  0.00000000E+00
