SrTiFeO                                 
   1.00000000000000     
    11.1989999999999998    0.0000000000000000    0.0000000000000000
     0.0000000000000000   11.1989999999999998    0.0000000000000000
     0.0000000000000000    0.0000000000000000   15.9830000000000005
   Sr   Ti   Fe   O 
    32    31     1    94
Direct
  0.9995039707213533  0.2497468627674515  0.1249502586352310
  0.0022286577691198  0.2490570228694973  0.6243869451672017
  0.9979818328949457  0.7502928914124675  0.1260410556326045
  0.9970176641282624  0.7490354977530264  0.6224102113869558
  0.4988191039243952  0.2483443874685206  0.1241679811083817
  0.5012119093851815  0.2451697670758106  0.6256419360097507
  0.5007666223703999  0.7518972054590174  0.1238846690524529
  0.4991571440404385  0.7550567397464900  0.6287806093013381
  0.0014038673137281  0.2479371350530440  0.3755653037339780
  0.0002888384375896  0.2499536438748927  0.8751366329622094
  0.9980157282641566  0.7494394810037421  0.3773101247137639
  0.9982887002390498  0.7505208039324209  0.8743809817300764
  0.5010744958763796  0.2425118131396444  0.3754945753176304
  0.4996839673585364  0.2504486980507668  0.8745067077400372
  0.5003337155459181  0.7612296567387844  0.3715197109685417
  0.4997370427304450  0.7517431608747182  0.8763526806226701
  0.2489950183738459 -0.0000695035477793  0.1251765096542118
  0.2492031595078047  0.0012870055295700  0.6246885927113576
  0.2481981645204345  0.5002399905064299  0.1238818885870716
  0.2452131225848361  0.4985308928171512  0.6264104446330498
  0.7494950459647489  0.9981778440114621  0.1252532788810780
  0.7502135997733221  0.9991337154502657  0.6235508006815017
  0.7510756731835276  0.5003944865563814  0.1240143414141178
  0.7586155952927413  0.4957930728875007  0.6295942552366488
  0.2482235201578554  0.0009650815156912  0.3752218869803021
  0.2494324845526288  0.0003135969338745  0.8749400351943011
  0.2409157682226494  0.4985273960419572  0.3733633727284820
  0.2503347146010647  0.5004383948107358  0.8752270705830717
  0.7512374494009904  0.9975669506611321  0.3769477209775862
  0.7502228188813979  0.9987821283747462  0.8749431873931561
  0.7631965251760972  0.4959897549324763  0.3721710212304662
  0.7502149647640952  0.5014449184586229  0.8753489695670348
  0.9993727895656783  0.9995887719557256  0.0003276776340941
  0.9998899451194786  0.9996361131881735  0.5004088012909100
  0.0000611527606797  0.4998724115841359  0.9997807350603932
  0.9999662656044268  0.5003897866398627  0.5003166613407092
  0.4999623616687678  0.0003173526451880  0.9998588684187739
  0.4998492611730587  0.9979830874181058  0.5005824713048167
  0.4994725883573726  0.4996333449567531  0.9975556755785728
  0.2504055088939663  0.2505731424548913  0.0000721244624859
  0.2493434133207152  0.2488425336361932  0.4994644828971154
  0.2496179218769145  0.7498391351228753  0.0001384251782507
  0.2511292275471283  0.7513377507325060  0.4994627427366058
  0.7497886930821342  0.2500991992777675 -0.0000022201987709
  0.7500599747970622  0.7502960422765005  0.0000244629295372
  0.2494944664189604  0.2491722313272134  0.2504258899725434
  0.2508736186940907  0.2503860165788718  0.7498947012016941
  0.2493446095603713  0.7498512520851128  0.2504919284924095
  0.2498615655235331  0.7498555339000221  0.7499435122318630
  0.7498721592224712  0.2487131287616435  0.2502855823763863
  0.7499546732313288  0.2496895126670529  0.7502799298514723
  0.7486921428045556  0.7481248795211397  0.2527621653111601
  0.7486310121160688  0.7489085984390621  0.7481989192820273
  0.9994585215809364  0.9992749995525588  0.2499766497737476
  0.0000614045663532  0.9997273945338985  0.7492759851815459
  0.0004408128335531  0.4995632083153427  0.2487931824277075
  0.0011110102619602  0.5001225288175314  0.7506814027630042
  0.4996682347785394  0.0006730595576969  0.2493171511301843
  0.5000450683935972  0.0004671944748583  0.7505710637563858
  0.4993447885802270  0.4995365839495937  0.2449498341281441
  0.5014013931003882  0.5013029666679977  0.7501111801491442
  0.7524607611008660  0.2502980871807072  0.4993182640341911
  0.4926995788242390  0.4970474553154154  0.5030304738866573
  0.7531000380370197  0.7548100667154086  0.5006433186554247
  0.1091218730795284  0.1399111383875017  0.2457504016376678
  0.1098189499379262  0.1410434459874114  0.7520240292916615
  0.1096829389282773  0.6396892604391288  0.2503175274094042
  0.1093241059231988  0.6412419088555625  0.7493113907845914
  0.6088958539804490  0.1407922767480883  0.2488575725336546
  0.6088877983121257  0.1415223229839871  0.7508463114724392
  0.6062353619195467  0.6381242270895063  0.2510643433580137
  0.6079865073933958  0.6410424234005704  0.7583953454994302
  0.3910546255451425  0.3613598421238612  0.2586791205263745
  0.3924359129523680  0.3604130563898121  0.7457998057522144
  0.3893014614176790  0.8603802832381769  0.2484086296079469
  0.3902419570747330  0.8599590316866843  0.7511896179182380
  0.8890531870680233  0.3600859345361560  0.2511286120489299
  0.8905948036950572  0.3595907620872356  0.7482682269789417
  0.8891913960718569  0.8589153788580298  0.2532845958101139
  0.8896678170872604  0.8591695040648634  0.7458246760931274
  0.3598971034475844  0.1101357639356959  0.2486686407096765
  0.3596191641867251  0.1102620899354168  0.7508970279268530
  0.3605502582234368  0.6083212800917053  0.2570617292083662
  0.3591872063777090  0.6085785313144172  0.7493673741435070
  0.8586151375506309  0.1086976813756958  0.2482636604939862
  0.8586405306884020  0.1096197742559223  0.7484771136642305
  0.8602200775317594  0.6083174685371333  0.2470712556855416
  0.8602316709958844  0.6085234420043605  0.7518977552440040
  0.1400382383317846  0.3897108471938261  0.2481627768762592
  0.1416008195218349  0.3913213303521124  0.7514082456033795
  0.1396283343854830  0.8896538974191952  0.2482503219837195
  0.1409021063991641  0.8902102855870676  0.7497048436456315
  0.6381319437123851  0.3912645425538029  0.2577096099802330
  0.6416765819757200  0.3915011546776270  0.7518769659204899
  0.6388563180281065  0.8898268402646969  0.2513541474811585
  0.6399700532296476  0.8913214941225731  0.7494596007649860
  0.3586746144924223  0.3913576964771811  0.0001609042971767
  0.3591290819645623  0.8905116840389102  0.0004479511907812
  0.3556201440439676  0.8942753996495476  0.5000407156010144
  0.8591862749936447  0.3907238736643192  0.9998968121218458
  0.8591797468734460  0.8908227886058745  0.0009136643931004
  0.8644529462848080  0.8981413041242778  0.5004721605923772
  0.1404935272596764  0.1096212961919514  0.0005043606854698
  0.1414963074110771  0.1093818737910322  0.5010297667378000
  0.1408083066191354  0.6088010736696697  0.9999095860372903
  0.1436608957164772  0.6091653160734721  0.4999449396732102
  0.6408984453864049  0.1095541958043472  0.0004123586329391
  0.6375645664539357  0.1153439398237845  0.4999223364824198
  0.6398120073768329  0.6088217977398710  0.9995379252554567
  0.1093136645635894  0.3588502625770645  0.0003405301948797
  0.1106309727818134  0.3590700237394241  0.4998283611446830
  0.1094995538275978  0.8589564018250770  0.0006870309451852
  0.1098790281329905  0.8579685570765689  0.5010436387368388
  0.6089157480837721  0.3591515362028542  0.9996155133789619
  0.6089640640246176  0.8597511293585912  0.0000106273985749
  0.6021850504166358  0.8617235731701940  0.5013438500905545
  0.3909512632678799  0.1407596531678176  0.9998517445570702
  0.3905470358717316  0.1428858668200757  0.5005670169248202
  0.3909830697630263  0.6406236688690945  0.9997596361818741
  0.8904836959362994  0.1408812879405917  0.0009060111644929
  0.8909982951282324  0.1425818225644765  0.5019037656979847
  0.8907109070621674  0.6401581017851334  0.0006697798205623
  0.9980853144299617  0.9974940852457942  0.1247663163369098
  0.0034525830202742  0.0028830668761900  0.6259670252494065
  0.0006165342714993  0.4986542594962960  0.1244633425158380
  0.0029868506015397  0.4996672057563987  0.6259672372950461
  0.5006093258378065  0.0000019363241330  0.1246275428916368
  0.4984167864377650  0.0028015185663583  0.6261700712661066
  0.4977674000392652  0.4973286985506178  0.1244535117088162
  0.5145272251433233  0.5110728188084187  0.6248553597376100
  0.0031098899154021  0.0034299216755051  0.3741979165746013
  0.9981210636385587  0.9983010180524110  0.8749120251002187
  0.0016703196520118  0.4988566528699014  0.3738962064525333
  0.0006296902529381  0.4990947529871128  0.8752886617285305
  0.4982481478365183  0.0019177084311454  0.3742965127484713
  0.5001938731634148  0.0001719793016127  0.8754314008568829
  0.4965783594085902  0.4964304974597825  0.8752182265437487
  0.2436162407638999  0.2435704505698106  0.3732264339822132
  0.2524549064181891  0.2518857088453617  0.8751875032491188
  0.2472741473502797  0.7536486206529973  0.3748951921033592
  0.2497285507778080  0.7494184974798489  0.8750498678359565
  0.7514437103636102  0.2495542469989634  0.8750636059853534
  0.7527302505480385  0.7526861246171680  0.8760261330488384
  0.2547728686333504  0.2529642956407969  0.1251762052132650
  0.2497236267211807  0.2516045013982136  0.6255307954429781
  0.2518122719531589  0.7459668451272830  0.1255165983073309
  0.2543103759663072  0.7475789198342838  0.6242887870618873
  0.7478938670258645  0.2539316549429113  0.1256778962321739
  0.7436834542519047  0.2536909881365796  0.6243399047811689
  0.7479195594525476  0.7497771728716327  0.1251484725174311
  0.7380852794223357  0.7364506711648303  0.6274102042163843
  0.7538145152075277  0.2443279309661764  0.3746556770644024
  0.8639626960755903  0.3865332600570095  0.5007026925343434
  0.4025354565897581  0.6470896403983073  0.4928028830526688
  0.3559609719516804  0.3895740603968221  0.4911618332088305
  0.8881650452839539  0.6299801604082408  0.4994637137732758
  0.7441757913658092  0.7381740877570754  0.3734428638458377
  0.6198878921642799  0.3782608326745213  0.4890133117691645
 
  0.00000000E+00  0.00000000E+00  0.00000000E+00
  0.00000000E+00  0.00000000E+00  0.00000000E+00
  0.00000000E+00  0.00000000E+00  0.00000000E+00
  0.00000000E+00  0.00000000E+00  0.00000000E+00
  0.00000000E+00  0.00000000E+00  0.00000000E+00
  0.00000000E+00  0.00000000E+00  0.00000000E+00
  0.00000000E+00  0.00000000E+00  0.00000000E+00
  0.00000000E+00  0.00000000E+00  0.00000000E+00
  0.00000000E+00  0.00000000E+00  0.00000000E+00
  0.00000000E+00  0.00000000E+00  0.00000000E+00
  0.00000000E+00  0.00000000E+00  0.00000000E+00
  0.00000000E+00  0.00000000E+00  0.00000000E+00
  0.00000000E+00  0.00000000E+00  0.00000000E+00
  0.00000000E+00  0.00000000E+00  0.00000000E+00
  0.00000000E+00  0.00000000E+00  0.00000000E+00
  0.00000000E+00  0.00000000E+00  0.00000000E+00
  0.00000000E+00  0.00000000E+00  0.00000000E+00
  0.00000000E+00  0.00000000E+00  0.00000000E+00
  0.00000000E+00  0.00000000E+00  0.00000000E+00
  0.00000000E+00  0.00000000E+00  0.00000000E+00
  0.00000000E+00  0.00000000E+00  0.00000000E+00
  0.00000000E+00  0.00000000E+00  0.00000000E+00
  0.00000000E+00  0.00000000E+00  0.00000000E+00
  0.00000000E+00  0.00000000E+00  0.00000000E+00
  0.00000000E+00  0.00000000E+00  0.00000000E+00
  0.00000000E+00  0.00000000E+00  0.00000000E+00
  0.00000000E+00  0.00000000E+00  0.00000000E+00
  0.00000000E+00  0.00000000E+00  0.00000000E+00
  0.00000000E+00  0.00000000E+00  0.00000000E+00
  0.00000000E+00  0.00000000E+00  0.00000000E+00
  0.00000000E+00  0.00000000E+00  0.00000000E+00
  0.00000000E+00  0.00000000E+00  0.00000000E+00
  0.00000000E+00  0.00000000E+00  0.00000000E+00
  0.00000000E+00  0.00000000E+00  0.00000000E+00
  0.00000000E+00  0.00000000E+00  0.00000000E+00
  0.00000000E+00  0.00000000E+00  0.00000000E+00
  0.00000000E+00  0.00000000E+00  0.00000000E+00
  0.00000000E+00  0.00000000E+00  0.00000000E+00
  0.00000000E+00  0.00000000E+00  0.00000000E+00
  0.00000000E+00  0.00000000E+00  0.00000000E+00
  0.00000000E+00  0.00000000E+00  0.00000000E+00
  0.00000000E+00  0.00000000E+00  0.00000000E+00
  0.00000000E+00  0.00000000E+00  0.00000000E+00
  0.00000000E+00  0.00000000E+00  0.00000000E+00
  0.00000000E+00  0.00000000E+00  0.00000000E+00
  0.00000000E+00  0.00000000E+00  0.00000000E+00
  0.00000000E+00  0.00000000E+00  0.00000000E+00
  0.00000000E+00  0.00000000E+00  0.00000000E+00
  0.00000000E+00  0.00000000E+00  0.00000000E+00
  0.00000000E+00  0.00000000E+00  0.00000000E+00
  0.00000000E+00  0.00000000E+00  0.00000000E+00
  0.00000000E+00  0.00000000E+00  0.00000000E+00
  0.00000000E+00  0.00000000E+00  0.00000000E+00
  0.00000000E+00  0.00000000E+00  0.00000000E+00
  0.00000000E+00  0.00000000E+00  0.00000000E+00
  0.00000000E+00  0.00000000E+00  0.00000000E+00
  0.00000000E+00  0.00000000E+00  0.00000000E+00
  0.00000000E+00  0.00000000E+00  0.00000000E+00
  0.00000000E+00  0.00000000E+00  0.00000000E+00
  0.00000000E+00  0.00000000E+00  0.00000000E+00
  0.00000000E+00  0.00000000E+00  0.00000000E+00
  0.00000000E+00  0.00000000E+00  0.00000000E+00
  0.00000000E+00  0.00000000E+00  0.00000000E+00
  0.00000000E+00  0.00000000E+00  0.00000000E+00
  0.00000000E+00  0.00000000E+00  0.00000000E+00
  0.00000000E+00  0.00000000E+00  0.00000000E+00
  0.00000000E+00  0.00000000E+00  0.00000000E+00
  0.00000000E+00  0.00000000E+00  0.00000000E+00
  0.00000000E+00  0.00000000E+00  0.00000000E+00
  0.00000000E+00  0.00000000E+00  0.00000000E+00
  0.00000000E+00  0.00000000E+00  0.00000000E+00
  0.00000000E+00  0.00000000E+00  0.00000000E+00
  0.00000000E+00  0.00000000E+00  0.00000000E+00
  0.00000000E+00  0.00000000E+00  0.00000000E+00
  0.00000000E+00  0.00000000E+00  0.00000000E+00
  0.00000000E+00  0.00000000E+00  0.00000000E+00
  0.00000000E+00  0.00000000E+00  0.00000000E+00
  0.00000000E+00  0.00000000E+00  0.00000000E+00
  0.00000000E+00  0.00000000E+00  0.00000000E+00
  0.00000000E+00  0.00000000E+00  0.00000000E+00
  0.00000000E+00  0.00000000E+00  0.00000000E+00
  0.00000000E+00  0.00000000E+00  0.00000000E+00
  0.00000000E+00  0.00000000E+00  0.00000000E+00
  0.00000000E+00  0.00000000E+00  0.00000000E+00
  0.00000000E+00  0.00000000E+00  0.00000000E+00
  0.00000000E+00  0.00000000E+00  0.00000000E+00
  0.00000000E+00  0.00000000E+00  0.00000000E+00
  0.00000000E+00  0.00000000E+00  0.00000000E+00
  0.00000000E+00  0.00000000E+00  0.00000000E+00
  0.00000000E+00  0.00000000E+00  0.00000000E+00
  0.00000000E+00  0.00000000E+00  0.00000000E+00
  0.00000000E+00  0.00000000E+00  0.00000000E+00
  0.00000000E+00  0.00000000E+00  0.00000000E+00
  0.00000000E+00  0.00000000E+00  0.00000000E+00
  0.00000000E+00  0.00000000E+00  0.00000000E+00
  0.00000000E+00  0.00000000E+00  0.00000000E+00
  0.00000000E+00  0.00000000E+00  0.00000000E+00
  0.00000000E+00  0.00000000E+00  0.00000000E+00
  0.00000000E+00  0.00000000E+00  0.00000000E+00
  0.00000000E+00  0.00000000E+00  0.00000000E+00
  0.00000000E+00  0.00000000E+00  0.00000000E+00
  0.00000000E+00  0.00000000E+00  0.00000000E+00
  0.00000000E+00  0.00000000E+00  0.00000000E+00
  0.00000000E+00  0.00000000E+00  0.00000000E+00
  0.00000000E+00  0.00000000E+00  0.00000000E+00
  0.00000000E+00  0.00000000E+00  0.00000000E+00
  0.00000000E+00  0.00000000E+00  0.00000000E+00
  0.00000000E+00  0.00000000E+00  0.00000000E+00
  0.00000000E+00  0.00000000E+00  0.00000000E+00
  0.00000000E+00  0.00000000E+00  0.00000000E+00
  0.00000000E+00  0.00000000E+00  0.00000000E+00
  0.00000000E+00  0.00000000E+00  0.00000000E+00
  0.00000000E+00  0.00000000E+00  0.00000000E+00
  0.00000000E+00  0.00000000E+00  0.00000000E+00
  0.00000000E+00  0.00000000E+00  0.00000000E+00
  0.00000000E+00  0.00000000E+00  0.00000000E+00
  0.00000000E+00  0.00000000E+00  0.00000000E+00
  0.00000000E+00  0.00000000E+00  0.00000000E+00
  0.00000000E+00  0.00000000E+00  0.00000000E+00
  0.00000000E+00  0.00000000E+00  0.00000000E+00
  0.00000000E+00  0.00000000E+00  0.00000000E+00
  0.00000000E+00  0.00000000E+00  0.00000000E+00
  0.00000000E+00  0.00000000E+00  0.00000000E+00
  0.00000000E+00  0.00000000E+00  0.00000000E+00
  0.00000000E+00  0.00000000E+00  0.00000000E+00
  0.00000000E+00  0.00000000E+00  0.00000000E+00
  0.00000000E+00  0.00000000E+00  0.00000000E+00
  0.00000000E+00  0.00000000E+00  0.00000000E+00
  0.00000000E+00  0.00000000E+00  0.00000000E+00
  0.00000000E+00  0.00000000E+00  0.00000000E+00
  0.00000000E+00  0.00000000E+00  0.00000000E+00
  0.00000000E+00  0.00000000E+00  0.00000000E+00
  0.00000000E+00  0.00000000E+00  0.00000000E+00
  0.00000000E+00  0.00000000E+00  0.00000000E+00
  0.00000000E+00  0.00000000E+00  0.00000000E+00
  0.00000000E+00  0.00000000E+00  0.00000000E+00
  0.00000000E+00  0.00000000E+00  0.00000000E+00
  0.00000000E+00  0.00000000E+00  0.00000000E+00
  0.00000000E+00  0.00000000E+00  0.00000000E+00
  0.00000000E+00  0.00000000E+00  0.00000000E+00
  0.00000000E+00  0.00000000E+00  0.00000000E+00
  0.00000000E+00  0.00000000E+00  0.00000000E+00
  0.00000000E+00  0.00000000E+00  0.00000000E+00
  0.00000000E+00  0.00000000E+00  0.00000000E+00
  0.00000000E+00  0.00000000E+00  0.00000000E+00
  0.00000000E+00  0.00000000E+00  0.00000000E+00
  0.00000000E+00  0.00000000E+00  0.00000000E+00
  0.00000000E+00  0.00000000E+00  0.00000000E+00
  0.00000000E+00  0.00000000E+00  0.00000000E+00
  0.00000000E+00  0.00000000E+00  0.00000000E+00
  0.00000000E+00  0.00000000E+00  0.00000000E+00
  0.00000000E+00  0.00000000E+00  0.00000000E+00
  0.00000000E+00  0.00000000E+00  0.00000000E+00
  0.00000000E+00  0.00000000E+00  0.00000000E+00
  0.00000000E+00  0.00000000E+00  0.00000000E+00
  0.00000000E+00  0.00000000E+00  0.00000000E+00
  0.00000000E+00  0.00000000E+00  0.00000000E+00
  0.00000000E+00  0.00000000E+00  0.00000000E+00
