Sr   Ti   Fe   O                        
   1.00000000000000     
    11.1989999999999998    0.0000000000000000    0.0000000000000000
     0.0000000000000000   11.1989999999999998    0.0000000000000000
     0.0000000000000000    0.0000000000000000   15.9830000000000005
   Sr   Ti   Fe   O 
    32    30     2    94
Direct
  0.9982044732835503  0.2497472078583211  0.1250595479100886
  0.9977904827484839  0.2502198523004173  0.6224973477881071
  0.9986053958286811  0.7509860855455907  0.1258726321974827
  0.9944160819727622  0.7501322393198713  0.6224912217984093
  0.5002637885408151  0.2466082773781547  0.1233092642941994
  0.4974563487116141  0.2368681987548479  0.6305173147258191
  0.5010981050397368  0.7543345483358218  0.1234547399397953
  0.4997544749477844  0.7612813507384900  0.6298608308654604
  0.9975409071495478  0.2485498934411303  0.3774979293277816
  0.9990798897079201  0.2491722913085125  0.8747775487033083
  0.9974608669519071  0.7513717574831010  0.3770195146056084
  0.9986531442224355  0.7509135100551122  0.8744230852694441
  0.5007488934097765  0.2358397469171399  0.3734733103378002
  0.5005507031648168  0.2488978914179719  0.8755243807071559
  0.5020890716167042  0.7657844216776889  0.3710860266960894
  0.4999876533069876  0.7517647029508007  0.8763432545830604
  0.2491373253217301  0.0005044594543791  0.1249943105327571
  0.2487720015417564  0.9984991572403475  0.6250391628787256
  0.2459510745712987  0.5006310119199051  0.1229003227889698
  0.2368428644154203  0.5002217318896610  0.6313052389302192
  0.7504297852005911  0.9999593733585569  0.1257788084956754
  0.7493305284162085  0.0026639400842876  0.6214070752066341
  0.7536966729975264  0.4997096612811153  0.1232238589851987
  0.7561037999258375  0.4973072981631593  0.6236974335363328
  0.2483587794467202  0.9996367506836139  0.3751255462824893
  0.2489341417637377 -0.0001014144874464  0.8749922521540958
  0.2378980580063348  0.4973588622604009  0.3734316741075153
  0.2480844888671504  0.5003838871962646  0.8755106339692039
  0.7506317453602098  0.0012920745272964  0.3789637779782851
  0.7508455208402270  0.0003633939340417  0.8742883035892780
  0.7720668481549123  0.4968912785399606  0.3670041393574838
  0.7518146486215846  0.5007845486497542  0.8757473713842456
  0.9995943325817296  0.0000778884713441  0.0003333644526709
  0.9967843942487497  0.0003621081646395  0.5004320873024294
 -0.0000525314390356  0.5001023999014600  0.9995233922304060
  0.9993145048871858  0.5003093853341370  0.5002460992984422
  0.4997725229118493  0.0001626746764327  0.9998110639688249
  0.5013908624689840  0.9991421395266686  0.5006545282511012
  0.4992611471866010  0.5002474968642167  0.9970351805491922
  0.2501856507204644  0.2503999088109448  1.0000404699165586
  0.2484075292876501  0.2441196857129007  0.4993669290788894
  0.2500154528601452  0.7497241673545523  0.0001425190300567
  0.2472256942949055  0.7536227339472622  0.4993832302223136
  0.7499230485539062  0.2500718980353451 -0.0000937003985615
  0.7498308250878168  0.7503153620725170  0.0000492092985275
  0.2490733520848040  0.2497342576361586  0.2505054404978119
  0.2497092453233358  0.2503212056719816  0.7503467241008640
  0.2495183796477347  0.7504859525183498  0.2506172188635986
  0.2494349279615702  0.7492833683093624  0.7501748632594601
  0.7490230956981249  0.2496442758721443  0.2519126117204913
  0.7487630586928073  0.2511119475212990  0.7486623687164938
  0.7497861814100272  0.7496896521672429  0.2524606579925484
  0.7483425367269397  0.7487926993673722  0.7480547065954875
  0.9996762439048824  0.0001859413403161  0.2499931315662109
  0.9991431377366401  0.9998548715129201  0.7485523956047577
  0.0019249894931013  0.5000927945881248  0.2476265414917591
  0.9983404802109401  0.4998677780072672  0.7508743084216152
  0.4998844975384493  0.0005393969730995  0.2483030954067728
  0.4998537080314533  0.9995814804358155  0.7519303497392805
  0.4991575073209966  0.5000691485136958  0.2398522699574159
  0.4999044561589590  0.5000616395182736  0.7546882874541451
  0.4814153235701911  0.5041952462707903  0.5131980313291433
  0.7549255650747830  0.2491716531559983  0.4997081925873594
  0.7527290509962008  0.7523788306377621  0.4997858461754958
  0.1099560449613475  0.1407852391139945  0.2458743184510567
  0.1104491041906263  0.1410024416587939  0.7492276654523665
  0.1119020030914522  0.6393338681546405  0.2488658017695497
  0.1098061056783736  0.6400777346245039  0.7492990245055315
  0.6086057839066744  0.1395170163923406  0.2459244282871862
  0.6082469404143419  0.1398097342118934  0.7534416028702788
  0.6058365192917166  0.6363451877221428  0.2555006260401353
  0.6058173035979119  0.6405779658047922  0.7551169612867908
  0.3918797446978683  0.3641718518580442  0.2622127078247313
  0.3917184307028893  0.3589064018048649  0.7515126013464062
  0.3891959867248522  0.8606938393194701  0.2480715646302722
  0.3901046646546256  0.8593803121048732  0.7523672233362436
  0.8892365345000107  0.3624753504228139  0.2499444373394752
  0.8909965622491433  0.3597816257591150  0.7504183058891709
  0.8890437886572067  0.8605365953529109  0.2505010146222167
  0.8892176531843162  0.8587921833416382  0.7482553822822638
  0.3608369377185146  0.1118304760872941  0.2497002186138426
  0.3595749323555695  0.1102057972228029  0.7493428893402312
  0.3636694080181927  0.6077915513607141  0.2617556068281019
  0.3581596983251150  0.6076023038491098  0.7502671730080570
  0.8599617963700320  0.1101209229275931  0.2496341374380041
  0.8592067797717530  0.1096299001597383  0.7476270922641399
  0.8631058809500349  0.6114748255630676  0.2448524490021188
  0.8593785808807435  0.6085125377983109  0.7514882743517692
  0.1409166771937874  0.3901794427677296  0.2472107973574282
  0.1405887505155700  0.3904641294007337  0.7526925513578103
  0.1403329015196593  0.8895296007517042  0.2461862854738727
  0.1409694527516125  0.8892043032525960  0.7512072168381666
  0.6349886549387658  0.3938055389070484  0.2550424360400920
  0.6393607226564111  0.3933752694439846  0.7564613942150491
  0.6383810052923847  0.8895956764828720  0.2504649500613326
  0.6395445588659816  0.8906432633902084  0.7497671632503212
  0.3586086342918888  0.3919027311473309  0.9997137269427151
  0.3587966843497818  0.8904841530831126  0.0005576315163531
  0.3566587347116047  0.8917693878151507  0.4998124876200767
  0.8596708250723771  0.3912923019751374 -0.0000142405650051
  0.8591869166361704  0.8904972997459800  0.0008891371371279
  0.8646589963155423  0.8958440495801551  0.5002387307122136
  0.1409601749669100  0.1098364429012049  0.0014318002243027
  0.1439138547926668  0.1091083282739864  0.5027529434464860
  0.1408576708804506  0.6090587170331124  1.0000149303409891
  0.1488375197147899  0.6082738293256561  0.5009347252909121
  0.6401574068224287  0.1093740048376026  0.0009503558378674
  0.6294612388358793  0.1182694430388396  0.5000970261886867
  0.6396209877006375  0.6080509529961234  1.0000576342960374
  0.1095796845959574  0.3590304243411288  0.0004106334762150
  0.1213395350688642  0.3635365029933008  0.4997906960940139
  0.1098897123308978  0.8590793877164266  0.0009842268079292
  0.1108368222512167  0.8566456164779606  0.5019327240408863
  0.6077386958322514  0.3603149542162895  0.9994411659520231
  0.6086538683476787  0.8597613281778128  0.9998634841636435
  0.6035107218203407  0.8620236023333732  0.5011825998659974
  0.3909058553181888  0.1409538045353911  1.0000918579364573
  0.3872889759472709  0.1386429952135902  0.5007413406641964
  0.3917524215276783  0.6411924697593355  0.0005953799049058
  0.8906569837270010  0.1407750728878172  0.0013688113146460
  0.8986876865267893  0.1368333544846073  0.5015022260135311
  0.8905064847001011  0.6404987675225878  0.0010365093054537
  0.9985218949293133  0.9990959910271972  0.1245307561975789
  0.0045389971386605  0.9980364314607287  0.6267099924589350
  0.0016696136146474  0.4989791581756443  0.1238514732309360
  0.0035576506060832  0.4995845031058151  0.6268127504706905
  0.4985344383166537  0.9992337212611362  0.1242097010452831
  0.4979487571140246  1.0002595312849099  0.6271434256764044
  0.4950129767103044  0.4990913644776879  0.1244227929512287
  0.5017215970207740  0.4988384972730824  0.6278693325919426
  0.0065114438502979  0.0001570547633143  0.3733809082225038
  0.9992853528614907  0.0004116166762811  0.8752064491488666
  0.0053025469621465  0.5003649015181149  0.3728113735898801
  0.0003528206340115  0.5006787499487088  0.8756768059216165
  0.4982941350873867  0.0009472390930404  0.3733098736291386
  0.4986633010885213  0.9997432249671783  0.8759299007395770
  0.4947644494904525  0.5010484237116243  0.8765526238617117
  0.2429670713795004  0.2441075188415197  0.3738714876859267
  0.2507262797401661  0.2490517667514611  0.8755523805474902
  0.2455479177375052  0.7548794741843133  0.3743671800821685
  0.2504781698277151  0.7481908228243049  0.8756533355498396
  0.7516448484614955  0.2487457348127542  0.8765945622003486
  0.7503828972765403  0.7505294933673567  0.8760977908406113
  0.2567572495621424  0.2542063196691750  0.1257406998522042
  0.2553793430840914  0.2575646175283701  0.6246102372621976
  0.2542497050909787  0.7437784596265000  0.1258666045006633
  0.2571108446257225  0.7470332756363643  0.6247307607070306
  0.7475269785197701  0.2551119490237767  0.1247540499191496
  0.7373644874334034  0.2595041689434501  0.6297891598424775
  0.7445346022616940  0.7483662782980319  0.1251337763143107
  0.7392428636860640  0.7378150704595486  0.6273227834045666
  0.7444926068888529  0.2504379593571134  0.3702378289252929
  0.8717184702321497  0.3869609001265591  0.5006449391666010
  0.4055656228635651  0.6473268019946962  0.4879874593793525
  0.3807883167386232  0.3805527011469657  0.4819254141495447
  0.8947765796831422  0.6340010413581697  0.4994878137642298
  0.7480199097650297  0.7425850066793298  0.3721801592027885
  0.6328132455437303  0.4900350892190840  0.4766312964559579
 
  0.00000000E+00  0.00000000E+00  0.00000000E+00
  0.00000000E+00  0.00000000E+00  0.00000000E+00
  0.00000000E+00  0.00000000E+00  0.00000000E+00
  0.00000000E+00  0.00000000E+00  0.00000000E+00
  0.00000000E+00  0.00000000E+00  0.00000000E+00
  0.00000000E+00  0.00000000E+00  0.00000000E+00
  0.00000000E+00  0.00000000E+00  0.00000000E+00
  0.00000000E+00  0.00000000E+00  0.00000000E+00
  0.00000000E+00  0.00000000E+00  0.00000000E+00
  0.00000000E+00  0.00000000E+00  0.00000000E+00
  0.00000000E+00  0.00000000E+00  0.00000000E+00
  0.00000000E+00  0.00000000E+00  0.00000000E+00
  0.00000000E+00  0.00000000E+00  0.00000000E+00
  0.00000000E+00  0.00000000E+00  0.00000000E+00
  0.00000000E+00  0.00000000E+00  0.00000000E+00
  0.00000000E+00  0.00000000E+00  0.00000000E+00
  0.00000000E+00  0.00000000E+00  0.00000000E+00
  0.00000000E+00  0.00000000E+00  0.00000000E+00
  0.00000000E+00  0.00000000E+00  0.00000000E+00
  0.00000000E+00  0.00000000E+00  0.00000000E+00
  0.00000000E+00  0.00000000E+00  0.00000000E+00
  0.00000000E+00  0.00000000E+00  0.00000000E+00
  0.00000000E+00  0.00000000E+00  0.00000000E+00
  0.00000000E+00  0.00000000E+00  0.00000000E+00
  0.00000000E+00  0.00000000E+00  0.00000000E+00
  0.00000000E+00  0.00000000E+00  0.00000000E+00
  0.00000000E+00  0.00000000E+00  0.00000000E+00
  0.00000000E+00  0.00000000E+00  0.00000000E+00
  0.00000000E+00  0.00000000E+00  0.00000000E+00
  0.00000000E+00  0.00000000E+00  0.00000000E+00
  0.00000000E+00  0.00000000E+00  0.00000000E+00
  0.00000000E+00  0.00000000E+00  0.00000000E+00
  0.00000000E+00  0.00000000E+00  0.00000000E+00
  0.00000000E+00  0.00000000E+00  0.00000000E+00
  0.00000000E+00  0.00000000E+00  0.00000000E+00
  0.00000000E+00  0.00000000E+00  0.00000000E+00
  0.00000000E+00  0.00000000E+00  0.00000000E+00
  0.00000000E+00  0.00000000E+00  0.00000000E+00
  0.00000000E+00  0.00000000E+00  0.00000000E+00
  0.00000000E+00  0.00000000E+00  0.00000000E+00
  0.00000000E+00  0.00000000E+00  0.00000000E+00
  0.00000000E+00  0.00000000E+00  0.00000000E+00
  0.00000000E+00  0.00000000E+00  0.00000000E+00
  0.00000000E+00  0.00000000E+00  0.00000000E+00
  0.00000000E+00  0.00000000E+00  0.00000000E+00
  0.00000000E+00  0.00000000E+00  0.00000000E+00
  0.00000000E+00  0.00000000E+00  0.00000000E+00
  0.00000000E+00  0.00000000E+00  0.00000000E+00
  0.00000000E+00  0.00000000E+00  0.00000000E+00
  0.00000000E+00  0.00000000E+00  0.00000000E+00
  0.00000000E+00  0.00000000E+00  0.00000000E+00
  0.00000000E+00  0.00000000E+00  0.00000000E+00
  0.00000000E+00  0.00000000E+00  0.00000000E+00
  0.00000000E+00  0.00000000E+00  0.00000000E+00
  0.00000000E+00  0.00000000E+00  0.00000000E+00
  0.00000000E+00  0.00000000E+00  0.00000000E+00
  0.00000000E+00  0.00000000E+00  0.00000000E+00
  0.00000000E+00  0.00000000E+00  0.00000000E+00
  0.00000000E+00  0.00000000E+00  0.00000000E+00
  0.00000000E+00  0.00000000E+00  0.00000000E+00
  0.00000000E+00  0.00000000E+00  0.00000000E+00
  0.00000000E+00  0.00000000E+00  0.00000000E+00
  0.00000000E+00  0.00000000E+00  0.00000000E+00
  0.00000000E+00  0.00000000E+00  0.00000000E+00
  0.00000000E+00  0.00000000E+00  0.00000000E+00
  0.00000000E+00  0.00000000E+00  0.00000000E+00
  0.00000000E+00  0.00000000E+00  0.00000000E+00
  0.00000000E+00  0.00000000E+00  0.00000000E+00
  0.00000000E+00  0.00000000E+00  0.00000000E+00
  0.00000000E+00  0.00000000E+00  0.00000000E+00
  0.00000000E+00  0.00000000E+00  0.00000000E+00
  0.00000000E+00  0.00000000E+00  0.00000000E+00
  0.00000000E+00  0.00000000E+00  0.00000000E+00
  0.00000000E+00  0.00000000E+00  0.00000000E+00
  0.00000000E+00  0.00000000E+00  0.00000000E+00
  0.00000000E+00  0.00000000E+00  0.00000000E+00
  0.00000000E+00  0.00000000E+00  0.00000000E+00
  0.00000000E+00  0.00000000E+00  0.00000000E+00
  0.00000000E+00  0.00000000E+00  0.00000000E+00
  0.00000000E+00  0.00000000E+00  0.00000000E+00
  0.00000000E+00  0.00000000E+00  0.00000000E+00
  0.00000000E+00  0.00000000E+00  0.00000000E+00
  0.00000000E+00  0.00000000E+00  0.00000000E+00
  0.00000000E+00  0.00000000E+00  0.00000000E+00
  0.00000000E+00  0.00000000E+00  0.00000000E+00
  0.00000000E+00  0.00000000E+00  0.00000000E+00
  0.00000000E+00  0.00000000E+00  0.00000000E+00
  0.00000000E+00  0.00000000E+00  0.00000000E+00
  0.00000000E+00  0.00000000E+00  0.00000000E+00
  0.00000000E+00  0.00000000E+00  0.00000000E+00
  0.00000000E+00  0.00000000E+00  0.00000000E+00
  0.00000000E+00  0.00000000E+00  0.00000000E+00
  0.00000000E+00  0.00000000E+00  0.00000000E+00
  0.00000000E+00  0.00000000E+00  0.00000000E+00
  0.00000000E+00  0.00000000E+00  0.00000000E+00
  0.00000000E+00  0.00000000E+00  0.00000000E+00
  0.00000000E+00  0.00000000E+00  0.00000000E+00
  0.00000000E+00  0.00000000E+00  0.00000000E+00
  0.00000000E+00  0.00000000E+00  0.00000000E+00
  0.00000000E+00  0.00000000E+00  0.00000000E+00
  0.00000000E+00  0.00000000E+00  0.00000000E+00
  0.00000000E+00  0.00000000E+00  0.00000000E+00
  0.00000000E+00  0.00000000E+00  0.00000000E+00
  0.00000000E+00  0.00000000E+00  0.00000000E+00
  0.00000000E+00  0.00000000E+00  0.00000000E+00
  0.00000000E+00  0.00000000E+00  0.00000000E+00
  0.00000000E+00  0.00000000E+00  0.00000000E+00
  0.00000000E+00  0.00000000E+00  0.00000000E+00
  0.00000000E+00  0.00000000E+00  0.00000000E+00
  0.00000000E+00  0.00000000E+00  0.00000000E+00
  0.00000000E+00  0.00000000E+00  0.00000000E+00
  0.00000000E+00  0.00000000E+00  0.00000000E+00
  0.00000000E+00  0.00000000E+00  0.00000000E+00
  0.00000000E+00  0.00000000E+00  0.00000000E+00
  0.00000000E+00  0.00000000E+00  0.00000000E+00
  0.00000000E+00  0.00000000E+00  0.00000000E+00
  0.00000000E+00  0.00000000E+00  0.00000000E+00
  0.00000000E+00  0.00000000E+00  0.00000000E+00
  0.00000000E+00  0.00000000E+00  0.00000000E+00
  0.00000000E+00  0.00000000E+00  0.00000000E+00
  0.00000000E+00  0.00000000E+00  0.00000000E+00
  0.00000000E+00  0.00000000E+00  0.00000000E+00
  0.00000000E+00  0.00000000E+00  0.00000000E+00
  0.00000000E+00  0.00000000E+00  0.00000000E+00
  0.00000000E+00  0.00000000E+00  0.00000000E+00
  0.00000000E+00  0.00000000E+00  0.00000000E+00
  0.00000000E+00  0.00000000E+00  0.00000000E+00
  0.00000000E+00  0.00000000E+00  0.00000000E+00
  0.00000000E+00  0.00000000E+00  0.00000000E+00
  0.00000000E+00  0.00000000E+00  0.00000000E+00
  0.00000000E+00  0.00000000E+00  0.00000000E+00
  0.00000000E+00  0.00000000E+00  0.00000000E+00
  0.00000000E+00  0.00000000E+00  0.00000000E+00
  0.00000000E+00  0.00000000E+00  0.00000000E+00
  0.00000000E+00  0.00000000E+00  0.00000000E+00
  0.00000000E+00  0.00000000E+00  0.00000000E+00
  0.00000000E+00  0.00000000E+00  0.00000000E+00
  0.00000000E+00  0.00000000E+00  0.00000000E+00
  0.00000000E+00  0.00000000E+00  0.00000000E+00
  0.00000000E+00  0.00000000E+00  0.00000000E+00
  0.00000000E+00  0.00000000E+00  0.00000000E+00
  0.00000000E+00  0.00000000E+00  0.00000000E+00
  0.00000000E+00  0.00000000E+00  0.00000000E+00
  0.00000000E+00  0.00000000E+00  0.00000000E+00
  0.00000000E+00  0.00000000E+00  0.00000000E+00
  0.00000000E+00  0.00000000E+00  0.00000000E+00
  0.00000000E+00  0.00000000E+00  0.00000000E+00
  0.00000000E+00  0.00000000E+00  0.00000000E+00
  0.00000000E+00  0.00000000E+00  0.00000000E+00
  0.00000000E+00  0.00000000E+00  0.00000000E+00
  0.00000000E+00  0.00000000E+00  0.00000000E+00
  0.00000000E+00  0.00000000E+00  0.00000000E+00
  0.00000000E+00  0.00000000E+00  0.00000000E+00
  0.00000000E+00  0.00000000E+00  0.00000000E+00
  0.00000000E+00  0.00000000E+00  0.00000000E+00
  0.00000000E+00  0.00000000E+00  0.00000000E+00
  0.00000000E+00  0.00000000E+00  0.00000000E+00
  0.00000000E+00  0.00000000E+00  0.00000000E+00
