SrTiFeO                                 
   1.00000000000000     
    11.1989999999999998    0.0000000000000000    0.0000000000000000
     0.0000000000000000   11.1989999999999998    0.0000000000000000
     0.0000000000000000    0.0000000000000000   15.9830000000000005
   Sr   Ti   Fe   O 
    32    30     2    94
Direct
  0.9977990350149011  0.2502045365694484  0.1254378530342200
  0.9991266043105369  0.2501335975327875  0.6230036227921824
  0.9998518459452963  0.7507299135739052  0.1254249961041654
  0.9971154203768001  0.7513884132648895  0.6236504817113961
  0.5006212942951349  0.2471397275601620  0.1236036262339705
  0.4958160197770387  0.2398961774489177  0.6290400621689228
  0.5009996816362893  0.7538638778387969  0.1235866367975847
  0.5016021227058641  0.7598020648000787  0.6268443476852330
  0.9977794121196739  0.2495040131105386  0.3772160008392259
  0.9987025428289343  0.2495233537865922  0.8750429798267109
  0.9980650709593746  0.7522730222167598  0.3762886912769677
  0.9996713998185545  0.7504178640794426  0.8745365413625075
  0.4967827819755337  0.2357442870578538  0.3733311742884115
  0.5014166511057897  0.2492909834202071  0.8752871395904132
  0.5025860575985339  0.7629289371596121  0.3739356528719163
  0.5012110534117650  0.7505551531275189  0.8747845516368639
  0.2496660828312088  0.0005347016552276  0.1249750420674089
  0.2488951111205650  0.9983796004581275  0.6238298674201265
  0.2461612804353757  0.5007750924744848  0.1235187308767957
  0.2399845427159014  0.4987549577840835  0.6266472963564302
  0.7509284692499811  0.0012955453299796  0.1263970902273486
  0.7487098682901363  0.0007552712503822  0.6217666763500298
  0.7537553215825900  0.4993531190263794  0.1239393142468215
  0.7550316630711118  0.5028372327483198  0.6270289332496005
  0.2481334169244118  0.9995454170001860  0.3757585135808166
  0.2491884862955039  0.9996435957233318  0.8749913037120876
  0.2400467929019581  0.4978882162701588  0.3761491061861645
  0.2498185415117026  0.5003137608255943  0.8738091541295803
  0.7497151090415968  0.0005952330370843  0.3784140657768394
  0.7505991467827350  0.0010416353364198  0.8741683534481204
  0.7627695806347324  0.5017561143863420  0.3730505908372808
  0.7524023432960412  0.5010522790319186  0.8764218788245292
  0.9996079714135726  0.0004314303948371  0.0004632768243539
  0.9975545526818819  0.0003110945921130  0.5003972358319052
  0.0003117387085267  0.5000509936957246  0.9997652316341306
  0.9963218283367280  0.5016176658666344  0.5006925406584514
  0.4998366689067603 -0.0000319161996738  0.9997389020469989
  0.5015372111381899  0.9993534869078954  0.5004379677527323
  0.4994510900713186  0.5007151641377664  0.9955134811968607
  0.2501468123347472  0.2502599584521235 -0.0000228366670569
  0.2502766306587479  0.2476690552491601  0.4992980316299627
  0.2507531124633229  0.7493069210872959  0.0000282508471569
  0.2464527578053669  0.7523101260045076  0.4988751089666147
  0.7501390669862045  0.2498430488262836  0.0001250742859130
  0.7496474218134873  0.7500524886850440  0.0001051773608376
  0.2487744769211802  0.2502091773855794  0.2505286879615504
  0.2493389555942293  0.2501595788259768  0.7502855575935339
  0.2496515695855094  0.7502849995512100  0.2508863437130079
  0.2504491119212134  0.7489337490129234  0.7492759954493617
  0.7484506463881032  0.2508901764974376  0.2534970145482070
  0.7485865569469132  0.2516433734237160  0.7484464592109732
  0.7502181965843616  0.7506549167379531  0.2521146453496679
  0.7493888410436664  0.7500136093711425  0.7481285749008507
  0.9999552904772507  0.0000805777411782  0.2499565676126593
  0.9991143205071784  0.0002040542202469  0.7488633980377598
  0.0006343728485286  0.5003961878142836  0.2493958902224883
  0.9992262485225326  0.4997894768655703  0.7506124585695516
  0.4996704879658251 -0.0000245304431358  0.2486409335220081
  0.4995611018823532  0.9996091069331093  0.7511842717526337
  0.4992378577110287  0.5007194936070537  0.2408255379195057
  0.5013579952440405  0.4979092700894067  0.7500119244112102
  0.4942526580188801  0.5110254370667704  0.5072454637023390
  0.7543568008798168  0.2468056535922841  0.5016641388870227
  0.7514243377816739  0.7494817242348109  0.4991275308252907
  0.1096136928479132  0.1412041478432872  0.2471359170536373
  0.1097588678817207  0.1412136624357552  0.7486821672400885
  0.1109466551056589  0.6395684772232180  0.2491551545081455
  0.1107094918265255  0.6399625682927392  0.7494334108937148
  0.6084410108786991  0.1397987409028479  0.2467804178108014
  0.6081751446413122  0.1397065925126502  0.7525867552044541
  0.6069154360860864  0.6370299496545845  0.2596081947857918
  0.6076625023702966  0.6398450752264166  0.7487057071925951
  0.3922446920617184  0.3639476319374615  0.2607399344594397
  0.3916043634491002  0.3581470209391736  0.7527839017924949
  0.3896565153421940  0.8601115526648507  0.2483161792628786
  0.3911051817938069  0.8582541444423319  0.7515856217451692
  0.8892055316000078  0.3616824784188812  0.2507940188514761
  0.8915502125942421  0.3596091120042435  0.7500629875201835
  0.8897496132744622  0.8607266081871623  0.2469772337953803
  0.8899848607614049  0.8595138712123344  0.7503077023558106
  0.3605437088559144  0.1116684469444794  0.2505635040864058
  0.3590036932082706  0.1093198104975418  0.7486727969739585
  0.3630226259088444  0.6081605851452806  0.2619575201584935
  0.3608706262526119  0.6061759446083957  0.7445409093119081
  0.8594379748684642  0.1109444492781954  0.2528848331434285
  0.8590111064255451  0.1098219901050450  0.7460771421721965
  0.8609366931597348  0.6107518847231000  0.2482035242166883
  0.8600878649921054  0.6094415051433113  0.7513777963178938
  0.1404884430413001  0.3906327665225222  0.2484907086515530
  0.1410649978352552  0.3907476914099182  0.7514249627893762
  0.1403077635503184  0.8903355186669205  0.2448001590185942
  0.1413467287617393  0.8890702954410054  0.7505730931154673
  0.6360885355738086  0.3949865319859601  0.2541322924168670
  0.6412485926040806  0.3917939227707306  0.7606804743638871
  0.6388015608592331  0.8899805949874037  0.2497176304529865
  0.6398522557078629  0.8903513021491596  0.7498281721956419
  0.3591473385377329  0.3919205690870337  0.9990902760937667
  0.3587577617045966  0.8904179999112984  0.0003702809896772
  0.3605521057255562  0.8872287727374394  0.4994848373812849
  0.8598789367569234  0.3910071164557021  1.0000496156564460
  0.8591550223597516  0.8901480931518320  0.0009076528780146
  0.8612519970307102  0.8917146064115781  0.5010868880525879
  0.1411397714981297  0.1098104883966652  0.0015171281841197
  0.1427124092195161  0.1100115037038692  0.5023120672476965
  0.1409915661149137  0.6090076829972514  0.9997307284082545
  0.1428178754760168  0.6103355298650320  0.5006271730277954
  0.6399892102708380  0.1093160835479385  0.0010309485922925
  0.6286013557571177  0.1161024812032205  0.4998948530849628
  0.6401463307156602  0.6080878145884167  1.0000662987163915
  0.1096047217843690  0.3591619570572431  0.0008376398141124
  0.1171978548499591  0.3637837327282777  0.4998863765624056
  0.1102435064143096  0.8592007866705068  0.0006317952730719
  0.1109966549370123  0.8589517146527855  0.5024834347875903
  0.6081324186181724  0.3604814585673394  0.9992544346896716
  0.6087011865900805  0.8594294029279457  0.9997877761090287
  0.6098731132401204  0.8608566507991028  0.5002794212937256
  0.3907450481146708  0.1409558260520276  0.9999999302704539
  0.3853197222053804  0.1350439720918230  0.5007785015717927
  0.3921204866167372  0.6414595060975822  0.0002000610393138
  0.8907697942259979  0.1406014064826342  0.0016498569495732
  0.8989957629887474  0.1372380169138114  0.4991295299500509
  0.8905495001138983  0.6406099952247920  0.0006603900578174
  0.9979264415330116  0.0017758820918914  0.1245192206596467
  0.0030045895094686  0.9979492875947430  0.6261627420616322
  0.0004189324951306  0.4998799579698434  0.1245438101746725
  0.0028795659440068  0.5004487626221166  0.6264036060138534
  0.4982751689963641  0.9994103940175648  0.1242899713092603
  0.4987437978446543  0.9976486538940168  0.6264254741692524
  0.4958808230543231  0.5020313297573997  0.1248221567550438
  0.5162976597132727  0.4772345069300588  0.6245897650111820
  0.0054935425842806  0.9964518907770125  0.3736608494409113
  0.9994084298202199  0.0015654784413250  0.8750816645014388
  0.0019213638440073  0.5005490017296287  0.3741066688861674
  0.0004720583156208  0.5004061405931688  0.8754920142179722
  0.4987587023404660 -0.0003526040749361  0.3736735636203740
  0.4985738776079641  0.9996812466778079  0.8755774859672836
  0.4957885781968279  0.5044344471272499  0.8748717572911482
  0.2438648959484052  0.2455367582921504  0.3742298580068216
  0.2492647409643263  0.2484605037257850  0.8754180978081511
  0.2419288236414606  0.7581912873262767  0.3735816557422974
  0.2521229633947439  0.7463686791612478  0.8746114022401298
  0.7533937088505271  0.2462390969207204  0.8767030289413466
  0.7487589329383079  0.7492807826305730  0.8754180174381725
  0.2562986797004774  0.2540567823328319  0.1259121047208145
  0.2543900861539917  0.2573976542802747  0.6246265076395234
  0.2543757599285364  0.7432213583922114  0.1254871962796838
  0.2565282076948912  0.7473716341497474  0.6239191990876247
  0.7482058565258070  0.2538812551548842  0.1254464865373079
  0.7363818481392327  0.2621508995519513  0.6285210512917910
  0.7440414377090530  0.7465564878054824  0.1255611935469002
  0.7472547423945477  0.7460454170178699  0.6258317998283057
  0.7391235959884777  0.2549950067423247  0.3729436672969688
  0.8621125084835813  0.3956298209006594  0.5016854039948833
  0.3899577813144969  0.6384484620889479  0.4832610553457198
  0.3802296867212444  0.3806678703521278  0.4867084148462840
  0.8940315818543654  0.6418608848376017  0.4999431505620406
  0.7541466390464533  0.7541359621725924  0.3731922311354016
  0.6422761541115998  0.5954077323020590  0.4904598950215176
 
  0.00000000E+00  0.00000000E+00  0.00000000E+00
  0.00000000E+00  0.00000000E+00  0.00000000E+00
  0.00000000E+00  0.00000000E+00  0.00000000E+00
  0.00000000E+00  0.00000000E+00  0.00000000E+00
  0.00000000E+00  0.00000000E+00  0.00000000E+00
  0.00000000E+00  0.00000000E+00  0.00000000E+00
  0.00000000E+00  0.00000000E+00  0.00000000E+00
  0.00000000E+00  0.00000000E+00  0.00000000E+00
  0.00000000E+00  0.00000000E+00  0.00000000E+00
  0.00000000E+00  0.00000000E+00  0.00000000E+00
  0.00000000E+00  0.00000000E+00  0.00000000E+00
  0.00000000E+00  0.00000000E+00  0.00000000E+00
  0.00000000E+00  0.00000000E+00  0.00000000E+00
  0.00000000E+00  0.00000000E+00  0.00000000E+00
  0.00000000E+00  0.00000000E+00  0.00000000E+00
  0.00000000E+00  0.00000000E+00  0.00000000E+00
  0.00000000E+00  0.00000000E+00  0.00000000E+00
  0.00000000E+00  0.00000000E+00  0.00000000E+00
  0.00000000E+00  0.00000000E+00  0.00000000E+00
  0.00000000E+00  0.00000000E+00  0.00000000E+00
  0.00000000E+00  0.00000000E+00  0.00000000E+00
  0.00000000E+00  0.00000000E+00  0.00000000E+00
  0.00000000E+00  0.00000000E+00  0.00000000E+00
  0.00000000E+00  0.00000000E+00  0.00000000E+00
  0.00000000E+00  0.00000000E+00  0.00000000E+00
  0.00000000E+00  0.00000000E+00  0.00000000E+00
  0.00000000E+00  0.00000000E+00  0.00000000E+00
  0.00000000E+00  0.00000000E+00  0.00000000E+00
  0.00000000E+00  0.00000000E+00  0.00000000E+00
  0.00000000E+00  0.00000000E+00  0.00000000E+00
  0.00000000E+00  0.00000000E+00  0.00000000E+00
  0.00000000E+00  0.00000000E+00  0.00000000E+00
  0.00000000E+00  0.00000000E+00  0.00000000E+00
  0.00000000E+00  0.00000000E+00  0.00000000E+00
  0.00000000E+00  0.00000000E+00  0.00000000E+00
  0.00000000E+00  0.00000000E+00  0.00000000E+00
  0.00000000E+00  0.00000000E+00  0.00000000E+00
  0.00000000E+00  0.00000000E+00  0.00000000E+00
  0.00000000E+00  0.00000000E+00  0.00000000E+00
  0.00000000E+00  0.00000000E+00  0.00000000E+00
  0.00000000E+00  0.00000000E+00  0.00000000E+00
  0.00000000E+00  0.00000000E+00  0.00000000E+00
  0.00000000E+00  0.00000000E+00  0.00000000E+00
  0.00000000E+00  0.00000000E+00  0.00000000E+00
  0.00000000E+00  0.00000000E+00  0.00000000E+00
  0.00000000E+00  0.00000000E+00  0.00000000E+00
  0.00000000E+00  0.00000000E+00  0.00000000E+00
  0.00000000E+00  0.00000000E+00  0.00000000E+00
  0.00000000E+00  0.00000000E+00  0.00000000E+00
  0.00000000E+00  0.00000000E+00  0.00000000E+00
  0.00000000E+00  0.00000000E+00  0.00000000E+00
  0.00000000E+00  0.00000000E+00  0.00000000E+00
  0.00000000E+00  0.00000000E+00  0.00000000E+00
  0.00000000E+00  0.00000000E+00  0.00000000E+00
  0.00000000E+00  0.00000000E+00  0.00000000E+00
  0.00000000E+00  0.00000000E+00  0.00000000E+00
  0.00000000E+00  0.00000000E+00  0.00000000E+00
  0.00000000E+00  0.00000000E+00  0.00000000E+00
  0.00000000E+00  0.00000000E+00  0.00000000E+00
  0.00000000E+00  0.00000000E+00  0.00000000E+00
  0.00000000E+00  0.00000000E+00  0.00000000E+00
  0.00000000E+00  0.00000000E+00  0.00000000E+00
  0.00000000E+00  0.00000000E+00  0.00000000E+00
  0.00000000E+00  0.00000000E+00  0.00000000E+00
  0.00000000E+00  0.00000000E+00  0.00000000E+00
  0.00000000E+00  0.00000000E+00  0.00000000E+00
  0.00000000E+00  0.00000000E+00  0.00000000E+00
  0.00000000E+00  0.00000000E+00  0.00000000E+00
  0.00000000E+00  0.00000000E+00  0.00000000E+00
  0.00000000E+00  0.00000000E+00  0.00000000E+00
  0.00000000E+00  0.00000000E+00  0.00000000E+00
  0.00000000E+00  0.00000000E+00  0.00000000E+00
  0.00000000E+00  0.00000000E+00  0.00000000E+00
  0.00000000E+00  0.00000000E+00  0.00000000E+00
  0.00000000E+00  0.00000000E+00  0.00000000E+00
  0.00000000E+00  0.00000000E+00  0.00000000E+00
  0.00000000E+00  0.00000000E+00  0.00000000E+00
  0.00000000E+00  0.00000000E+00  0.00000000E+00
  0.00000000E+00  0.00000000E+00  0.00000000E+00
  0.00000000E+00  0.00000000E+00  0.00000000E+00
  0.00000000E+00  0.00000000E+00  0.00000000E+00
  0.00000000E+00  0.00000000E+00  0.00000000E+00
  0.00000000E+00  0.00000000E+00  0.00000000E+00
  0.00000000E+00  0.00000000E+00  0.00000000E+00
  0.00000000E+00  0.00000000E+00  0.00000000E+00
  0.00000000E+00  0.00000000E+00  0.00000000E+00
  0.00000000E+00  0.00000000E+00  0.00000000E+00
  0.00000000E+00  0.00000000E+00  0.00000000E+00
  0.00000000E+00  0.00000000E+00  0.00000000E+00
  0.00000000E+00  0.00000000E+00  0.00000000E+00
  0.00000000E+00  0.00000000E+00  0.00000000E+00
  0.00000000E+00  0.00000000E+00  0.00000000E+00
  0.00000000E+00  0.00000000E+00  0.00000000E+00
  0.00000000E+00  0.00000000E+00  0.00000000E+00
  0.00000000E+00  0.00000000E+00  0.00000000E+00
  0.00000000E+00  0.00000000E+00  0.00000000E+00
  0.00000000E+00  0.00000000E+00  0.00000000E+00
  0.00000000E+00  0.00000000E+00  0.00000000E+00
  0.00000000E+00  0.00000000E+00  0.00000000E+00
  0.00000000E+00  0.00000000E+00  0.00000000E+00
  0.00000000E+00  0.00000000E+00  0.00000000E+00
  0.00000000E+00  0.00000000E+00  0.00000000E+00
  0.00000000E+00  0.00000000E+00  0.00000000E+00
  0.00000000E+00  0.00000000E+00  0.00000000E+00
  0.00000000E+00  0.00000000E+00  0.00000000E+00
  0.00000000E+00  0.00000000E+00  0.00000000E+00
  0.00000000E+00  0.00000000E+00  0.00000000E+00
  0.00000000E+00  0.00000000E+00  0.00000000E+00
  0.00000000E+00  0.00000000E+00  0.00000000E+00
  0.00000000E+00  0.00000000E+00  0.00000000E+00
  0.00000000E+00  0.00000000E+00  0.00000000E+00
  0.00000000E+00  0.00000000E+00  0.00000000E+00
  0.00000000E+00  0.00000000E+00  0.00000000E+00
  0.00000000E+00  0.00000000E+00  0.00000000E+00
  0.00000000E+00  0.00000000E+00  0.00000000E+00
  0.00000000E+00  0.00000000E+00  0.00000000E+00
  0.00000000E+00  0.00000000E+00  0.00000000E+00
  0.00000000E+00  0.00000000E+00  0.00000000E+00
  0.00000000E+00  0.00000000E+00  0.00000000E+00
  0.00000000E+00  0.00000000E+00  0.00000000E+00
  0.00000000E+00  0.00000000E+00  0.00000000E+00
  0.00000000E+00  0.00000000E+00  0.00000000E+00
  0.00000000E+00  0.00000000E+00  0.00000000E+00
  0.00000000E+00  0.00000000E+00  0.00000000E+00
  0.00000000E+00  0.00000000E+00  0.00000000E+00
  0.00000000E+00  0.00000000E+00  0.00000000E+00
  0.00000000E+00  0.00000000E+00  0.00000000E+00
  0.00000000E+00  0.00000000E+00  0.00000000E+00
  0.00000000E+00  0.00000000E+00  0.00000000E+00
  0.00000000E+00  0.00000000E+00  0.00000000E+00
  0.00000000E+00  0.00000000E+00  0.00000000E+00
  0.00000000E+00  0.00000000E+00  0.00000000E+00
  0.00000000E+00  0.00000000E+00  0.00000000E+00
  0.00000000E+00  0.00000000E+00  0.00000000E+00
  0.00000000E+00  0.00000000E+00  0.00000000E+00
  0.00000000E+00  0.00000000E+00  0.00000000E+00
  0.00000000E+00  0.00000000E+00  0.00000000E+00
  0.00000000E+00  0.00000000E+00  0.00000000E+00
  0.00000000E+00  0.00000000E+00  0.00000000E+00
  0.00000000E+00  0.00000000E+00  0.00000000E+00
  0.00000000E+00  0.00000000E+00  0.00000000E+00
  0.00000000E+00  0.00000000E+00  0.00000000E+00
  0.00000000E+00  0.00000000E+00  0.00000000E+00
  0.00000000E+00  0.00000000E+00  0.00000000E+00
  0.00000000E+00  0.00000000E+00  0.00000000E+00
  0.00000000E+00  0.00000000E+00  0.00000000E+00
  0.00000000E+00  0.00000000E+00  0.00000000E+00
  0.00000000E+00  0.00000000E+00  0.00000000E+00
  0.00000000E+00  0.00000000E+00  0.00000000E+00
  0.00000000E+00  0.00000000E+00  0.00000000E+00
  0.00000000E+00  0.00000000E+00  0.00000000E+00
  0.00000000E+00  0.00000000E+00  0.00000000E+00
  0.00000000E+00  0.00000000E+00  0.00000000E+00
  0.00000000E+00  0.00000000E+00  0.00000000E+00
  0.00000000E+00  0.00000000E+00  0.00000000E+00
  0.00000000E+00  0.00000000E+00  0.00000000E+00
  0.00000000E+00  0.00000000E+00  0.00000000E+00
  0.00000000E+00  0.00000000E+00  0.00000000E+00
