SrTiFeO
1
11.199	0.000	0.000
0.000	11.199	0.000
0.000	0.000	15.983
Sr Ti Fe O VO
32 30 2 94 2
Direct
0.000	0.250	0.125
0.000	0.250	0.625
0.000	0.750	0.125
0.000	0.750	0.625
0.500	0.250	0.125
0.500	0.250	0.625
0.500	0.750	0.125
0.500	0.750	0.625
0.000	0.250	0.375
0.000	0.250	0.875
0.000	0.750	0.375
0.000	0.750	0.875
0.500	0.250	0.375
0.500	0.250	0.875
0.500	0.750	0.375
0.500	0.750	0.875
0.250	0.000	0.125
0.250	0.000	0.625
0.250	0.500	0.125
0.250	0.500	0.625
0.750	0.000	0.125
0.750	0.000	0.625
0.750	0.500	0.125
0.750	0.500	0.625
0.250	0.000	0.375
0.250	0.000	0.875
0.250	0.500	0.375
0.250	0.500	0.875
0.750	0.000	0.375
0.750	0.000	0.875
0.750	0.500	0.375
0.750	0.500	0.875
0.000	0.000	0.000
0.000	0.000	0.500
0.000	0.500	0.000
0.000	0.500	0.500
0.500	0.000	0.000
0.500	0.000	0.500
0.500	0.500	0.000
0.250	0.250	0.000
0.250	0.250	0.500
0.250	0.750	0.000
0.250	0.750	0.500
0.750	0.250	0.000
0.750	0.750	0.000
0.250	0.250	0.250
0.250	0.250	0.750
0.250	0.750	0.250
0.250	0.750	0.750
0.750	0.250	0.250
0.750	0.250	0.750
0.750	0.750	0.250
0.750	0.750	0.750
0.000	0.000	0.250
0.000	0.000	0.750
0.000	0.500	0.250
0.000	0.500	0.750
0.500	0.000	0.250
0.500	0.000	0.750
0.500	0.500	0.250
0.500	0.500	0.750
0.500	0.500	0.500 #B2
0.750	0.250	0.500 #B1
0.750	0.750	0.500 #B3
0.109	0.141	0.250
0.109	0.141	0.750
0.109	0.641	0.250
0.109	0.641	0.750
0.609	0.141	0.250
0.609	0.141	0.750
0.609	0.641	0.250
0.609	0.641	0.750
0.391	0.359	0.250
0.391	0.359	0.750
0.391	0.859	0.250
0.391	0.859	0.750
0.891	0.359	0.250
0.891	0.359	0.750
0.891	0.859	0.250
0.891	0.859	0.750
0.359	0.109	0.250
0.359	0.109	0.750
0.359	0.609	0.250
0.359	0.609	0.750
0.859	0.109	0.250
0.859	0.109	0.750
0.859	0.609	0.250
0.859	0.609	0.750
0.141	0.391	0.250
0.141	0.391	0.750
0.141	0.891	0.250
0.141	0.891	0.750
0.641	0.391	0.250
0.641	0.391	0.750
0.641	0.891	0.250
0.641	0.891	0.750
0.359	0.391	0.000
0.359	0.891	0.000
0.359	0.891	0.500
0.859	0.391	0.000
0.859	0.891	0.000
0.859	0.891	0.500
0.141	0.109	0.000
0.141	0.109	0.500
0.141	0.609	0.000
0.141	0.609	0.500
0.641	0.109	0.000
0.641	0.109	0.500
0.641	0.609	0.000
0.109	0.359	0.000
0.109	0.359	0.500
0.109	0.859	0.000
0.109	0.859	0.500
0.609	0.359	0.000
0.609	0.859	0.000
0.609	0.859	0.500
0.391	0.141	0.000
0.391	0.141	0.500
0.391	0.641	0.000
0.891	0.141	0.000
0.891	0.141	0.500
0.891	0.641	0.000
0.000	0.000	0.125
0.000	0.000	0.625
0.000	0.500	0.125
0.000	0.500	0.625
0.500	0.000	0.125
0.500	0.000	0.625
0.500	0.500	0.125
0.500	0.500	0.625
0.000	0.000	0.375
0.000	0.000	0.875
0.000	0.500	0.375
0.000	0.500	0.875
0.500	0.000	0.375
0.500	0.000	0.875
0.500	0.500	0.875
0.250	0.250	0.375
0.250	0.250	0.875
0.250	0.750	0.375
0.250	0.750	0.875
0.750	0.250	0.875
0.750	0.750	0.875
0.250	0.250	0.125
0.250	0.250	0.625
0.250	0.750	0.125
0.250	0.750	0.625
0.750	0.250	0.125
0.750	0.250	0.625
0.750	0.750	0.125
0.750	0.750	0.625
0.750	0.250	0.375 #O11
0.859	0.391	0.500 #O12
0.391	0.641	0.500 #O21
0.359	0.391	0.500 #O23
0.891	0.641	0.500 #O32
0.750	0.750	0.375 #O33
0.609	0.359	0.500 #OA
0.641	0.609	0.500 #OB
0.500	0.500	0.375 #O22