SrTiFeO                                 
   1.00000000000000     
    11.1989999999999998    0.0000000000000000    0.0000000000000000
     0.0000000000000000   11.1989999999999998    0.0000000000000000
     0.0000000000000000    0.0000000000000000   15.9830000000000005
   Sr   Ti   Fe   O 
    32    31     1    94
Direct
  0.9994011213607950  0.2503062603318228  0.1249825272797151
  0.9995587182108142  0.2449618989391389  0.6253332676060386
  0.9996221601776932  0.7493665174760242  0.1247342710492940
  0.0044154847916793  0.7558907112408767  0.6265943514442139
  0.5004733702222680  0.2489204669608013  0.1261839576414858
  0.5003252666948702  0.2401970605788062  0.6252508681431540
  0.4997892601037656  0.7511913803617098  0.1256660119725467
  0.4944604591608535  0.7589329917938623  0.6250398531024562
  0.9999887655350941  0.2469213020522529  0.3745468930449906
  0.9990196618444050  0.2505223713810600  0.8752015084405277
  0.0039194318071412  0.7541883209679945  0.3730017337546133
 -0.0000317620616045  0.7493866966713082  0.8752011983911222
  0.5008945864627862  0.2521065887155371  0.3761206633292335
  0.4997518502850753  0.2450774857790141  0.8763031930930300
  0.4974445902551871  0.7468840094114139  0.3754334378166418
  0.4999888162778849  0.7547215513749630  0.8771340277123131
  0.2502236134384426  0.0006281117230657  0.1250988585570991
  0.2481357479223908  0.0003245386148696  0.6239801954025364
  0.2481342938426855  0.4990813683912932  0.1263199890583241
  0.2405175821025165  0.5022866917686115  0.6243141943884880
  0.7498394559476534  0.9990018258532691  0.1253939543874630
  0.7533530017545662  0.0003651683028486  0.6241445294449504
  0.7505364114568160  0.4999643210420399  0.1249192304579083
  0.7570348723262800  0.4987589749707602  0.6272451541742560
  0.2505720185611897  0.0004754292643482  0.3755596799531632
  0.2502990955089999  0.0011725408364661  0.8749375835484626
  0.2549306553823316  0.5007089037638557  0.3765536001294701
  0.2443061633187463  0.5001198889127934  0.8761489569703969
  0.7516921348706622  0.0018516167573914  0.3756868627044219
  0.7494376062253113  0.9983512981042600  0.8746763554967362
  0.7467998664660872  0.4988394365423657  0.3734392118723929
  0.7541742435872575  0.4994228309768091  0.8778019664225132
  0.0001325105785144  0.9999648585956031  0.9996011287095077
  0.0009839191828675  1.0002845448072695  0.4991026441873054
  0.0004706370604232  0.4994431037292995  0.0005125633693139
  0.0027851589609029  0.4940556624833936  0.4988393437340435
  0.5002792198918508  0.9998649250519643  0.0005623544481129
  0.4991466575408279  0.0016820121720376  0.4992119538471755
  0.4994131910131646  0.5001189877903415  0.0050773336643580
  0.2502020153040367  0.2509496989260122  0.0000134095718420
  0.2531415122258765  0.2508740877337942  0.5010552911485850
  0.2503313270400601  0.7499323139709360  0.0002515512166353
  0.2516774033582408  0.7495940119302849  0.5006901345949188
  0.7494781555345098  0.2500399502047467  1.0001403072127035
  0.7473603473364868  0.2519896455325415  0.5012665926259511
  0.7490837498613100  0.7497950407959261 -0.0000587333110294
  0.2505780695277793  0.2508304199520224  0.2506376664364687
  0.2493460098344243  0.2502286586446169  0.7484155685957002
  0.2508762582293224  0.7496909896577388  0.2497518836646783
  0.2498416155313760  0.7508691097137905  0.7498722250047523
  0.7496022827441172  0.2505421319865946  0.2501043008415513
  0.7500599666049608  0.2489616086459942  0.7493747401588616
  0.7504768020740548  0.7491514364102334  0.2500245135739452
  0.7511377874064465  0.7491248909076317  0.7483163082927433
  0.0003119265314740  1.0003022914899935  0.2499685258688479
  0.0000193822804229  0.0004195491385739  0.7520335285023330
  0.9994886337829098  0.5009162817574095  0.2503689466272536
  0.9990277965011441  0.5004441361085725  0.7501609376669296
  0.5005212517372407  0.9999615683633717  0.2507374625017261
  0.5002834773428380  0.9995288400196488  0.7500591449450653
  0.4999857363930508  0.5005246584810553  0.2514732827686420
  0.4996504276448235  0.5001887370888743  0.7587788128817045
  0.7432222945655170  0.7509627132131754  0.5005153307562307
  0.5005654742607316  0.4977892009829136  0.4974452357232166
  0.1095612070283249  0.1413795148836200  0.2503577187752704
  0.1100149053890552  0.1398206214485893  0.7541105483302167
  0.1090487222884570  0.6415918722139198  0.2495592420605322
  0.1117583917147022  0.6387808449737532  0.7503047683670004
  0.6093352107390737  0.1409768961721374  0.2505954936125201
  0.6117166632653029  0.1379295294464437  0.7507557412595658
  0.6095483790147896  0.6422665573973607  0.2479124885237651
  0.3906121093949652  0.3592493969637669  0.2479218552253294
  0.3903076832249257  0.3664444349767168  0.7366338401028893
  0.3914350239905652  0.8588424374708812  0.2504990929685360
  0.3892480869162754  0.8607630861431637  0.7513544211725270
  0.8908620548541962  0.3592131577356318  0.2514012840216869
  0.8881358269486266  0.3613548433459650  0.7487060670501094
  0.8913631363204825  0.8593686798482544  0.2496021426662485
  0.8898095652325896  0.8600005273083107  0.7532602598725344
  0.3592044147047483  0.1095379930346910  0.2494815412256540
  0.3622176299256816  0.1125388476574116  0.7507068023142122
  0.3584421645705513  0.6092827027124083  0.2467314746216786
  0.3653359995618536  0.6092932128811700  0.7374693778323189
  0.8593285761797558  0.1098078369962416  0.2504726421690640
  0.8605032966813952  0.1099112119592165  0.7535717598214651
  0.8588408618075057  0.6090371862822814  0.2451781671450489
  0.8597565598264970  0.6097390080124904  0.7553722008931241
  0.1400367347530203  0.3920645368321858  0.2550551249659704
  0.1378930760048747  0.3897907680191836  0.7465276479228281
  0.1411260548889560  0.8907701387076704  0.2515608569179941
  0.1395244627292604  0.8897508199765590  0.7528627422457842
  0.6408839237838199  0.3908985496172306  0.2474542662058537
  0.6421341140626973  0.8902053689524523  0.2539117375606352
  0.6393129595653042  0.8864973782032399  0.7454262680124649
  0.3591373129701359  0.3924416711084043  0.9998462647998626
  0.3594705322302860  0.8906882945803718  0.9988800585775582
  0.3611006527321519  0.8896323041145665  0.5000330519274143
  0.8594833683924387  0.3902834509369212  0.0003137572013398
  0.8572678892931298  0.3948112371303569  0.5000106793581253
  0.8594131598067627  0.8896113310177807  0.9980044007791156
  0.8664836353396741  0.8823818030811535  0.4980004686336456
  0.1410266596499717  0.1102792420285931  0.9981512669931286
  0.1390032431631235  0.1099630018953246  0.4979479876601290
  0.1405898120071243  0.6094673212066871  0.0003848944645788
  0.1291742595854293  0.6164482844717200  0.4998460232320694
  0.6406544702613527  0.1096260256405028  0.9989854133863356
  0.6409598475695328  0.1075602889332425  0.5006077507949748
  0.6404231113826949  0.6082942633178500  0.9998841165632865
  0.1096015889149146  0.3591271648788134  0.9989430840175900
  0.1072561096842242  0.3586917732349045  0.5002522551086914
  0.1100509623264930  0.8592734321674304  0.9981231403510709
  0.1126091753804782  0.8632085981141981  0.4980460233598678
  0.6079928247550672  0.3594472547930900  0.9996947010025622
  0.6091022305672242  0.8592916258544759  0.0001870747863901
  0.6096107984180117  0.8587895258515811  0.5002106580596335
  0.3905423630432726  0.1408233477439533  0.0001995287226572
  0.3906141266523463  0.1396606497838722  0.5000708881916553
  0.3918141110046927  0.6410563718294243  1.0001108127242544
  0.3848451901293179  0.6388590061149264  0.5103995134068807
  0.8899647606674802  0.1405764984534269  0.9984272320110505
  0.8895634934765657  0.1384057556221480  0.4984136294849371
  0.8897160887749390  0.6397751368327135  0.9988245521041211
  0.0007852513022344  1.0000777742597147  0.1242248488764111
  0.9998717488910567  0.0006535882782999  0.6263815995711111
  0.0022256855821766  0.4975191209566237  0.1252487628659162
  0.9924303737973025  0.5102678702541144  0.6232912451806168
  0.5018020795545948  0.9989978634867762  0.1254382875355090
  0.4985013790051475  0.9998901191627474  0.6248307471881248
  0.5003497903417619  0.5003249284742509  0.1240602822657571
  0.9992777764498012  0.0008652690577040  0.3737216101430385
  0.0001621144103029  0.9996557827622944  0.8759180075998960
  0.9900986518608615  0.5109652572095561  0.3769141831421976
  0.0019979532255031  0.4977542412629381  0.8749514058161120
  0.4993596120451921  0.0007646667699922  0.3755649592846204
  0.5020448284170669  0.9986529780489084  0.8747636347134962
  0.4999479802404286  0.5011872428255826  0.8738341004802436
  0.2543722825726604  0.2530939285396317  0.3759461195980262
  0.2555991648612878  0.2566740143096433  0.8732534054522129
  0.2546047401489492  0.7454154728444442  0.3752894591210595
  0.2543283948561706  0.7436973890066727  0.8738847620421445
  0.7455626242222753  0.2528232162454436  0.3758084128140112
  0.7461302087039237  0.2565100765287970  0.8737861266851512
  0.7576585388235582  0.7391006082628282  0.3766370038190544
  0.7409735994251266  0.7473042749854534  0.8731741681601022
  0.2476362871823514  0.2519998719560976  0.1249209437041591
  0.2422604101673910  0.2401023224181977  0.6257035209900601
  0.2493453794376692  0.7524668793524558  0.1244050940389856
  0.2438652746775599  0.7572372300497112  0.6260674668994476
  0.7504644452476694  0.2491361018816659  0.1245936083854207
  0.7575225995934878  0.2419523722308796  0.6260636958083170
  0.7495835363405149  0.7528628859320349  0.1242461618307921
  0.6334455231800465  0.3896414243248585  0.7386890656834735
  0.6086547350585565  0.6334847476506082  0.7348346197283852
  0.4994365341021135  0.5031368168526384  0.3698169082291047
  0.6102743690282364  0.3560462681427147  0.5114326791966497
  0.3544029473112582  0.3882369019585218  0.5113111128969381
  0.7678539188689257  0.7477176751907444  0.6238551257621545
  0.6529101457973634  0.6072455714670864  0.5073276863055057
 
  0.00000000E+00  0.00000000E+00  0.00000000E+00
  0.00000000E+00  0.00000000E+00  0.00000000E+00
  0.00000000E+00  0.00000000E+00  0.00000000E+00
  0.00000000E+00  0.00000000E+00  0.00000000E+00
  0.00000000E+00  0.00000000E+00  0.00000000E+00
  0.00000000E+00  0.00000000E+00  0.00000000E+00
  0.00000000E+00  0.00000000E+00  0.00000000E+00
  0.00000000E+00  0.00000000E+00  0.00000000E+00
  0.00000000E+00  0.00000000E+00  0.00000000E+00
  0.00000000E+00  0.00000000E+00  0.00000000E+00
  0.00000000E+00  0.00000000E+00  0.00000000E+00
  0.00000000E+00  0.00000000E+00  0.00000000E+00
  0.00000000E+00  0.00000000E+00  0.00000000E+00
  0.00000000E+00  0.00000000E+00  0.00000000E+00
  0.00000000E+00  0.00000000E+00  0.00000000E+00
  0.00000000E+00  0.00000000E+00  0.00000000E+00
  0.00000000E+00  0.00000000E+00  0.00000000E+00
  0.00000000E+00  0.00000000E+00  0.00000000E+00
  0.00000000E+00  0.00000000E+00  0.00000000E+00
  0.00000000E+00  0.00000000E+00  0.00000000E+00
  0.00000000E+00  0.00000000E+00  0.00000000E+00
  0.00000000E+00  0.00000000E+00  0.00000000E+00
  0.00000000E+00  0.00000000E+00  0.00000000E+00
  0.00000000E+00  0.00000000E+00  0.00000000E+00
  0.00000000E+00  0.00000000E+00  0.00000000E+00
  0.00000000E+00  0.00000000E+00  0.00000000E+00
  0.00000000E+00  0.00000000E+00  0.00000000E+00
  0.00000000E+00  0.00000000E+00  0.00000000E+00
  0.00000000E+00  0.00000000E+00  0.00000000E+00
  0.00000000E+00  0.00000000E+00  0.00000000E+00
  0.00000000E+00  0.00000000E+00  0.00000000E+00
  0.00000000E+00  0.00000000E+00  0.00000000E+00
  0.00000000E+00  0.00000000E+00  0.00000000E+00
  0.00000000E+00  0.00000000E+00  0.00000000E+00
  0.00000000E+00  0.00000000E+00  0.00000000E+00
  0.00000000E+00  0.00000000E+00  0.00000000E+00
  0.00000000E+00  0.00000000E+00  0.00000000E+00
  0.00000000E+00  0.00000000E+00  0.00000000E+00
  0.00000000E+00  0.00000000E+00  0.00000000E+00
  0.00000000E+00  0.00000000E+00  0.00000000E+00
  0.00000000E+00  0.00000000E+00  0.00000000E+00
  0.00000000E+00  0.00000000E+00  0.00000000E+00
  0.00000000E+00  0.00000000E+00  0.00000000E+00
  0.00000000E+00  0.00000000E+00  0.00000000E+00
  0.00000000E+00  0.00000000E+00  0.00000000E+00
  0.00000000E+00  0.00000000E+00  0.00000000E+00
  0.00000000E+00  0.00000000E+00  0.00000000E+00
  0.00000000E+00  0.00000000E+00  0.00000000E+00
  0.00000000E+00  0.00000000E+00  0.00000000E+00
  0.00000000E+00  0.00000000E+00  0.00000000E+00
  0.00000000E+00  0.00000000E+00  0.00000000E+00
  0.00000000E+00  0.00000000E+00  0.00000000E+00
  0.00000000E+00  0.00000000E+00  0.00000000E+00
  0.00000000E+00  0.00000000E+00  0.00000000E+00
  0.00000000E+00  0.00000000E+00  0.00000000E+00
  0.00000000E+00  0.00000000E+00  0.00000000E+00
  0.00000000E+00  0.00000000E+00  0.00000000E+00
  0.00000000E+00  0.00000000E+00  0.00000000E+00
  0.00000000E+00  0.00000000E+00  0.00000000E+00
  0.00000000E+00  0.00000000E+00  0.00000000E+00
  0.00000000E+00  0.00000000E+00  0.00000000E+00
  0.00000000E+00  0.00000000E+00  0.00000000E+00
  0.00000000E+00  0.00000000E+00  0.00000000E+00
  0.00000000E+00  0.00000000E+00  0.00000000E+00
  0.00000000E+00  0.00000000E+00  0.00000000E+00
  0.00000000E+00  0.00000000E+00  0.00000000E+00
  0.00000000E+00  0.00000000E+00  0.00000000E+00
  0.00000000E+00  0.00000000E+00  0.00000000E+00
  0.00000000E+00  0.00000000E+00  0.00000000E+00
  0.00000000E+00  0.00000000E+00  0.00000000E+00
  0.00000000E+00  0.00000000E+00  0.00000000E+00
  0.00000000E+00  0.00000000E+00  0.00000000E+00
  0.00000000E+00  0.00000000E+00  0.00000000E+00
  0.00000000E+00  0.00000000E+00  0.00000000E+00
  0.00000000E+00  0.00000000E+00  0.00000000E+00
  0.00000000E+00  0.00000000E+00  0.00000000E+00
  0.00000000E+00  0.00000000E+00  0.00000000E+00
  0.00000000E+00  0.00000000E+00  0.00000000E+00
  0.00000000E+00  0.00000000E+00  0.00000000E+00
  0.00000000E+00  0.00000000E+00  0.00000000E+00
  0.00000000E+00  0.00000000E+00  0.00000000E+00
  0.00000000E+00  0.00000000E+00  0.00000000E+00
  0.00000000E+00  0.00000000E+00  0.00000000E+00
  0.00000000E+00  0.00000000E+00  0.00000000E+00
  0.00000000E+00  0.00000000E+00  0.00000000E+00
  0.00000000E+00  0.00000000E+00  0.00000000E+00
  0.00000000E+00  0.00000000E+00  0.00000000E+00
  0.00000000E+00  0.00000000E+00  0.00000000E+00
  0.00000000E+00  0.00000000E+00  0.00000000E+00
  0.00000000E+00  0.00000000E+00  0.00000000E+00
  0.00000000E+00  0.00000000E+00  0.00000000E+00
  0.00000000E+00  0.00000000E+00  0.00000000E+00
  0.00000000E+00  0.00000000E+00  0.00000000E+00
  0.00000000E+00  0.00000000E+00  0.00000000E+00
  0.00000000E+00  0.00000000E+00  0.00000000E+00
  0.00000000E+00  0.00000000E+00  0.00000000E+00
  0.00000000E+00  0.00000000E+00  0.00000000E+00
  0.00000000E+00  0.00000000E+00  0.00000000E+00
  0.00000000E+00  0.00000000E+00  0.00000000E+00
  0.00000000E+00  0.00000000E+00  0.00000000E+00
  0.00000000E+00  0.00000000E+00  0.00000000E+00
  0.00000000E+00  0.00000000E+00  0.00000000E+00
  0.00000000E+00  0.00000000E+00  0.00000000E+00
  0.00000000E+00  0.00000000E+00  0.00000000E+00
  0.00000000E+00  0.00000000E+00  0.00000000E+00
  0.00000000E+00  0.00000000E+00  0.00000000E+00
  0.00000000E+00  0.00000000E+00  0.00000000E+00
  0.00000000E+00  0.00000000E+00  0.00000000E+00
  0.00000000E+00  0.00000000E+00  0.00000000E+00
  0.00000000E+00  0.00000000E+00  0.00000000E+00
  0.00000000E+00  0.00000000E+00  0.00000000E+00
  0.00000000E+00  0.00000000E+00  0.00000000E+00
  0.00000000E+00  0.00000000E+00  0.00000000E+00
  0.00000000E+00  0.00000000E+00  0.00000000E+00
  0.00000000E+00  0.00000000E+00  0.00000000E+00
  0.00000000E+00  0.00000000E+00  0.00000000E+00
  0.00000000E+00  0.00000000E+00  0.00000000E+00
  0.00000000E+00  0.00000000E+00  0.00000000E+00
  0.00000000E+00  0.00000000E+00  0.00000000E+00
  0.00000000E+00  0.00000000E+00  0.00000000E+00
  0.00000000E+00  0.00000000E+00  0.00000000E+00
  0.00000000E+00  0.00000000E+00  0.00000000E+00
  0.00000000E+00  0.00000000E+00  0.00000000E+00
  0.00000000E+00  0.00000000E+00  0.00000000E+00
  0.00000000E+00  0.00000000E+00  0.00000000E+00
  0.00000000E+00  0.00000000E+00  0.00000000E+00
  0.00000000E+00  0.00000000E+00  0.00000000E+00
  0.00000000E+00  0.00000000E+00  0.00000000E+00
  0.00000000E+00  0.00000000E+00  0.00000000E+00
  0.00000000E+00  0.00000000E+00  0.00000000E+00
  0.00000000E+00  0.00000000E+00  0.00000000E+00
  0.00000000E+00  0.00000000E+00  0.00000000E+00
  0.00000000E+00  0.00000000E+00  0.00000000E+00
  0.00000000E+00  0.00000000E+00  0.00000000E+00
  0.00000000E+00  0.00000000E+00  0.00000000E+00
  0.00000000E+00  0.00000000E+00  0.00000000E+00
  0.00000000E+00  0.00000000E+00  0.00000000E+00
  0.00000000E+00  0.00000000E+00  0.00000000E+00
  0.00000000E+00  0.00000000E+00  0.00000000E+00
  0.00000000E+00  0.00000000E+00  0.00000000E+00
  0.00000000E+00  0.00000000E+00  0.00000000E+00
  0.00000000E+00  0.00000000E+00  0.00000000E+00
  0.00000000E+00  0.00000000E+00  0.00000000E+00
  0.00000000E+00  0.00000000E+00  0.00000000E+00
  0.00000000E+00  0.00000000E+00  0.00000000E+00
  0.00000000E+00  0.00000000E+00  0.00000000E+00
  0.00000000E+00  0.00000000E+00  0.00000000E+00
  0.00000000E+00  0.00000000E+00  0.00000000E+00
  0.00000000E+00  0.00000000E+00  0.00000000E+00
  0.00000000E+00  0.00000000E+00  0.00000000E+00
  0.00000000E+00  0.00000000E+00  0.00000000E+00
  0.00000000E+00  0.00000000E+00  0.00000000E+00
  0.00000000E+00  0.00000000E+00  0.00000000E+00
  0.00000000E+00  0.00000000E+00  0.00000000E+00
  0.00000000E+00  0.00000000E+00  0.00000000E+00
  0.00000000E+00  0.00000000E+00  0.00000000E+00
  0.00000000E+00  0.00000000E+00  0.00000000E+00
  0.00000000E+00  0.00000000E+00  0.00000000E+00
