SrTiFeO                                 
   1.00000000000000     
    11.1989999999999998    0.0000000000000000    0.0000000000000000
     0.0000000000000000   11.1989999999999998    0.0000000000000000
     0.0000000000000000    0.0000000000000000   15.9830000000000005
   Sr   Ti   Fe   O 
    32    30     2    94
Direct
  0.0010220263881868  0.2494293054919625  0.1248628942395055
  0.9976580004371067  0.2501526273964135  0.6265653185879086
  0.9990759653948830  0.7505312703449816  0.1248334036928806
  0.9953572582708374  0.7519658075462399  0.6249448331829542
  0.5003393030401962  0.2487149054284741  0.1227936672963083
  0.5024068529820374  0.2395382496888275  0.6294464053444842
  0.5011842016046199  0.7503017335052127  0.1247856291319688
  0.5034271101447274  0.7548701207649295  0.6249333090857268
  0.9971535976250182  0.2516499094125214  0.3743105379158245
  0.0010819358757794  0.2492056202896478  0.8736495627664962
  0.9940022184777949  0.7507911864120227  0.3766176038794227
  0.9999038058639318  0.7501665229360689  0.8742338254778580
  0.5022472590314014  0.2448840130843886  0.3709536735300688
  0.4995640181827219  0.2495040588941184  0.8750574686072533
  0.5013874579418233  0.7571669519264848  0.3728090858836427
  0.5017135790692502  0.7503250962814326  0.8747074932741290
  0.2495235998315597  0.0003596626795323  0.1243245598106867
  0.2488819388168888  0.9955182366076011  0.6281255987296803
  0.2497121181761317  0.4990757025753589  0.1235485270621760
  0.2381630713272277  0.5043046113915058  0.6283435565458170
  0.7506960965149048  0.9995736761179589  0.1250646115147757
  0.7510236592609421  0.9957790989533382  0.6254849740438179
  0.7496257062451226  0.5001388359672639  0.1240746115468669
  0.7609462245761132  0.5020833092195902  0.6284077538783572
  0.2497385487952717  0.9939722301977179  0.3731619008252723
  0.2501857100638729  0.0010114245172456  0.8743557307593167
  0.2404402525730666  0.5051321491912979  0.3700147534921417
  0.2507062822767855  0.5001312692143837  0.8750227599436269
  0.7491014139140656  0.9958057732392618  0.3755146695999774
  0.7513388400526834  0.9994657036440345  0.8740541265523833
  0.7583005211641117  0.5038134755862734  0.3736354198562855
  0.7498144532671128  0.5003767551319021  0.8750222058513217
  0.0004496116551560  0.0006705405177236  0.9994678479543206
  0.9938327430115051  0.9966384685491174  0.4993167747098450
  0.0002790998431316  0.4999881057148324  0.9997840405343020
  0.9982172956753053  0.5025102031142729  0.4998233508314202
  0.4999675850727058  0.9997230573370991  0.9996920795748047
  0.5018395667865059  0.9983103315530332  0.4998289505769331
  0.5003395589116675  0.5002414313211665  0.0009298038663906
  0.2501288621466156  0.2499008296279435  0.9997952297382806
  0.2437311418928614  0.2379591300562226  0.4994780106531914
  0.2502205449155002  0.7497551022290466  0.9997476251828901
  0.2477903214841429  0.7497790092470730  0.5009571112664952
  0.7500348620989711  0.2503565704380671  0.9997462725969650
  0.7492287904190467  0.2489293577356252  0.5006870619217727
  0.7499105108918287  0.7497028644526167  0.9998730610372186
  0.2511912672829956  0.2507222111053534  0.2498366918114250
  0.2531276340169339  0.2530235340822920  0.7489019870803385
  0.2499516781856467  0.7493575335110648  0.2492488902359648
  0.2519805409345915  0.7482653129979983  0.7496147441571472
  0.7496117781708634  0.2506654664730031  0.2499354600161618
  0.7486164565112543  0.2515142063378911  0.7496266544671831
  0.7490802488334525  0.7494882512369624  0.2508958628600054
  0.7484425453186297  0.7489554638259855  0.7491386659828356
  0.9999630647045081  0.0004751103568249  0.2506835867435608
  0.0004263362341182  0.9999914299529126  0.7503960727165861
  0.9993873311352788  0.4999479532091387  0.2483571064713478
  1.0000811197128299  0.5001874496484947  0.7518376051841483
  0.4995751400894127  0.0003910525540790  0.2488786376539056
  0.5002124728749135  0.9991762453750601  0.7509546104856683
  0.4987598459823431  0.4989976603989726  0.2474596605329774
  0.5076391835541015  0.5039752849342765  0.4926430120693857
  0.5006163501733916  0.5002722106521771  0.7598197849985016
  0.7483698464029697  0.7493316548773197  0.5016997087621760
  0.1110326136903006  0.1419556325440914  0.2543363173964060
  0.1137353799770783  0.1410402659321970  0.7468669111158299
  0.1092368812578124  0.6402995051520104  0.2525797917450309
  0.1119051653810736  0.6383732230906015  0.7488553434469164
  0.6094536125094467  0.1404937370747856  0.2485452885529436
  0.6117875820369317  0.1381108002806305  0.7519416983611749
  0.6054303257909319  0.6386033980415168  0.2512799144849552
  0.3914257036127989  0.3575222748194390  0.2434251124703715
  0.3912322341899715  0.3635996820196119  0.7437631578099352
  0.3901915379984385  0.8591339017940758  0.2493310195595646
  0.3890572018236588  0.8613471323445904  0.7499800898684128
  0.8903211963608409  0.3593781882650284  0.2496859119696083
  0.8890527946572725  0.3615780606586522  0.7503297736133721
  0.8901593021672980  0.8608435459749814  0.2484500611703436
  0.8907540173194700  0.8633755474637369  0.7556683330270076
  0.3584670184619062  0.1091275624635364  0.2511933417968139
  0.3617728585835431  0.1121061309834877  0.7486595230589337
  0.3576972343950470  0.6078016677870778  0.2473377163743510
  0.3632419172404205  0.6102867748311160  0.7407577141815122
  0.8594965568363457  0.1106301043485902  0.2514380752967941
  0.8622219829472276  0.1125936036686840  0.7510564380370197
  0.8597527930462538  0.6081287531416419  0.2467827735353311
  0.8630269347507799  0.6105965094953423  0.7534177631690934
  0.1407507012136988  0.3905867393868172  0.2487318790717450
  0.1395100470249334  0.3895752749684129  0.7512797077717676
  0.1407684706706244  0.8896629080608853  0.2505240734621144
  0.1401541783498259  0.8894834649249798  0.7529413848503701
  0.6406921414303793  0.3918614359875033  0.2516404253415994
  0.6384310331947435  0.8905023093234498  0.2489053297700660
  0.6375390075901326  0.8897324764389766  0.7526640380086076
  0.3591672300712411  0.3906834748337729  0.0015780856183162
  0.3586228675815236  0.8906170896222964  0.9997487428859632
  0.3585525688102837  0.8899506252390270  0.5003721781933567
  0.8592616712835300  0.3912518053935050  0.9999512499910534
  0.8596925661996034  0.3890646299217865  0.4999566724007123
  0.8601932916205185  0.8911886844184942  0.9998986385593134
  0.8616378804885749  0.8976937683367451  0.4974757798643653
  0.1416207732483591  0.1097475830086862  0.9987023674311851
  0.1445240285050877  0.1068317135228619  0.4981153142155072
  0.1412846623175626  0.6089912104160727  0.9997303758268097
  0.1377447237710654  0.6118686997561046  0.4987879431627930
  0.6408069483591600  0.1094841998439298  0.9996572668595016
  0.6434526159541927  0.1076098692294177  0.4996472454905005
  0.6407443740711155  0.6084484969247631  0.0004864919922513
  0.1096163384970741  0.3588831631994511  0.9994378410341592
  0.1227546392958427  0.3654367244552565  0.4990743446649074
  0.1095425295313021  0.8592348131585781  0.9988991531628864
  0.1094830383922753  0.8588685096869484  0.4976011374835489
  0.6091367905946922  0.3591014411652734  0.0008268485467624
  0.6084513398034049  0.8599262987220880  0.0000576293795249
  0.6030559048151691  0.8620158921393770  0.4986888862535739
  0.3907822972776616  0.1411091928137253  0.9996501225095615
  0.3949327778947194  0.1500792011255698  0.4994301271628317
  0.3911811293370316  0.6409224833517818  0.0015110126740977
  0.3810835923471306  0.6226621920976330  0.5121903403589160
  0.8903809786093166  0.1415550557282725  0.9993698973399651
  0.8944523915398530  0.1446521610468807  0.4985304850324448
  0.8914224256886599  0.6405218414955356  0.9999883480146808
  0.0024814176730763  0.0034417654266404  0.1251755419812881
  0.0014276164820592  0.9994602960419880  0.6250283205510476
  0.0019254470917434  0.4996633562016384  0.1244520914828765
  0.0009995559457834  0.4977367500433701  0.6257123275343288
  0.4980624458855788  0.0012096637962793  0.1245689139409057
  0.4997949464259387  0.0012152269659805  0.6254142628028978
  0.5020593998878702  0.5002249693007040  0.1248344371449178
  0.0017822852704258  0.0004627958471478  0.3740585199077537
  0.0025805258290193  0.0049514790616696  0.8757119372846821
  0.9985633859568068  0.4971990002481165  0.3738080224421157
  0.0017459855585140  0.4995647416922404  0.8756196363338780
  0.4982404442698205  0.0009137944395382  0.3740413534167579
  0.4975442722991805  0.0008998139284466  0.8754351800561977
  0.4995096363642014  0.4996375155581180  0.8777805361430491
  0.2621600809315753  0.2638727275927823  0.3772326307330171
  0.2540229874094922  0.2524965434112854  0.8738528934671009
  0.2576534207867481  0.7467003360277320  0.3756910954158704
  0.2536488850366704  0.7447795610666457  0.8743491036008053
  0.7468654451001988  0.2529582481208048  0.3756478010067837
  0.7471218040204474  0.2547581063950515  0.8744581644422098
  0.7474185651006349  0.7440592414988527  0.3693349129547457
  0.7464337243616757  0.7478301675329482  0.8766492893322612
  0.2473523771367845  0.2466694406404143  0.1248104478871121
  0.2563174945382952  0.2585195334812255  0.6214278378833059
  0.2478903458337186  0.7501937033409307  0.1249403868273343
  0.2446638369388666  0.7558492654947047  0.6249591238227161
  0.7502112142969615  0.2505252348757245  0.1251323062925753
  0.7537165534886602  0.2457010292345511  0.6246745800507099
  0.7480229693905428  0.7494332358131330  0.1239779645206093
  0.6371108927570811  0.3896189409041935  0.7406817116853051
  0.6098066142669126  0.6364840997899708  0.7438909111144992
  0.4829476366131239  0.4882569837386425  0.3749605264339028
  0.5990886975733164  0.3551187683583752  0.5068317466985760
  0.7579454994163332  0.7578261401291192  0.6322834226720070
  0.8925350666407893  0.6353061127887293  0.4997890115310023
  0.6307413608966227  0.6037876522303551  0.5233331815942887
 
  0.00000000E+00  0.00000000E+00  0.00000000E+00
  0.00000000E+00  0.00000000E+00  0.00000000E+00
  0.00000000E+00  0.00000000E+00  0.00000000E+00
  0.00000000E+00  0.00000000E+00  0.00000000E+00
  0.00000000E+00  0.00000000E+00  0.00000000E+00
  0.00000000E+00  0.00000000E+00  0.00000000E+00
  0.00000000E+00  0.00000000E+00  0.00000000E+00
  0.00000000E+00  0.00000000E+00  0.00000000E+00
  0.00000000E+00  0.00000000E+00  0.00000000E+00
  0.00000000E+00  0.00000000E+00  0.00000000E+00
  0.00000000E+00  0.00000000E+00  0.00000000E+00
  0.00000000E+00  0.00000000E+00  0.00000000E+00
  0.00000000E+00  0.00000000E+00  0.00000000E+00
  0.00000000E+00  0.00000000E+00  0.00000000E+00
  0.00000000E+00  0.00000000E+00  0.00000000E+00
  0.00000000E+00  0.00000000E+00  0.00000000E+00
  0.00000000E+00  0.00000000E+00  0.00000000E+00
  0.00000000E+00  0.00000000E+00  0.00000000E+00
  0.00000000E+00  0.00000000E+00  0.00000000E+00
  0.00000000E+00  0.00000000E+00  0.00000000E+00
  0.00000000E+00  0.00000000E+00  0.00000000E+00
  0.00000000E+00  0.00000000E+00  0.00000000E+00
  0.00000000E+00  0.00000000E+00  0.00000000E+00
  0.00000000E+00  0.00000000E+00  0.00000000E+00
  0.00000000E+00  0.00000000E+00  0.00000000E+00
  0.00000000E+00  0.00000000E+00  0.00000000E+00
  0.00000000E+00  0.00000000E+00  0.00000000E+00
  0.00000000E+00  0.00000000E+00  0.00000000E+00
  0.00000000E+00  0.00000000E+00  0.00000000E+00
  0.00000000E+00  0.00000000E+00  0.00000000E+00
  0.00000000E+00  0.00000000E+00  0.00000000E+00
  0.00000000E+00  0.00000000E+00  0.00000000E+00
  0.00000000E+00  0.00000000E+00  0.00000000E+00
  0.00000000E+00  0.00000000E+00  0.00000000E+00
  0.00000000E+00  0.00000000E+00  0.00000000E+00
  0.00000000E+00  0.00000000E+00  0.00000000E+00
  0.00000000E+00  0.00000000E+00  0.00000000E+00
  0.00000000E+00  0.00000000E+00  0.00000000E+00
  0.00000000E+00  0.00000000E+00  0.00000000E+00
  0.00000000E+00  0.00000000E+00  0.00000000E+00
  0.00000000E+00  0.00000000E+00  0.00000000E+00
  0.00000000E+00  0.00000000E+00  0.00000000E+00
  0.00000000E+00  0.00000000E+00  0.00000000E+00
  0.00000000E+00  0.00000000E+00  0.00000000E+00
  0.00000000E+00  0.00000000E+00  0.00000000E+00
  0.00000000E+00  0.00000000E+00  0.00000000E+00
  0.00000000E+00  0.00000000E+00  0.00000000E+00
  0.00000000E+00  0.00000000E+00  0.00000000E+00
  0.00000000E+00  0.00000000E+00  0.00000000E+00
  0.00000000E+00  0.00000000E+00  0.00000000E+00
  0.00000000E+00  0.00000000E+00  0.00000000E+00
  0.00000000E+00  0.00000000E+00  0.00000000E+00
  0.00000000E+00  0.00000000E+00  0.00000000E+00
  0.00000000E+00  0.00000000E+00  0.00000000E+00
  0.00000000E+00  0.00000000E+00  0.00000000E+00
  0.00000000E+00  0.00000000E+00  0.00000000E+00
  0.00000000E+00  0.00000000E+00  0.00000000E+00
  0.00000000E+00  0.00000000E+00  0.00000000E+00
  0.00000000E+00  0.00000000E+00  0.00000000E+00
  0.00000000E+00  0.00000000E+00  0.00000000E+00
  0.00000000E+00  0.00000000E+00  0.00000000E+00
  0.00000000E+00  0.00000000E+00  0.00000000E+00
  0.00000000E+00  0.00000000E+00  0.00000000E+00
  0.00000000E+00  0.00000000E+00  0.00000000E+00
  0.00000000E+00  0.00000000E+00  0.00000000E+00
  0.00000000E+00  0.00000000E+00  0.00000000E+00
  0.00000000E+00  0.00000000E+00  0.00000000E+00
  0.00000000E+00  0.00000000E+00  0.00000000E+00
  0.00000000E+00  0.00000000E+00  0.00000000E+00
  0.00000000E+00  0.00000000E+00  0.00000000E+00
  0.00000000E+00  0.00000000E+00  0.00000000E+00
  0.00000000E+00  0.00000000E+00  0.00000000E+00
  0.00000000E+00  0.00000000E+00  0.00000000E+00
  0.00000000E+00  0.00000000E+00  0.00000000E+00
  0.00000000E+00  0.00000000E+00  0.00000000E+00
  0.00000000E+00  0.00000000E+00  0.00000000E+00
  0.00000000E+00  0.00000000E+00  0.00000000E+00
  0.00000000E+00  0.00000000E+00  0.00000000E+00
  0.00000000E+00  0.00000000E+00  0.00000000E+00
  0.00000000E+00  0.00000000E+00  0.00000000E+00
  0.00000000E+00  0.00000000E+00  0.00000000E+00
  0.00000000E+00  0.00000000E+00  0.00000000E+00
  0.00000000E+00  0.00000000E+00  0.00000000E+00
  0.00000000E+00  0.00000000E+00  0.00000000E+00
  0.00000000E+00  0.00000000E+00  0.00000000E+00
  0.00000000E+00  0.00000000E+00  0.00000000E+00
  0.00000000E+00  0.00000000E+00  0.00000000E+00
  0.00000000E+00  0.00000000E+00  0.00000000E+00
  0.00000000E+00  0.00000000E+00  0.00000000E+00
  0.00000000E+00  0.00000000E+00  0.00000000E+00
  0.00000000E+00  0.00000000E+00  0.00000000E+00
  0.00000000E+00  0.00000000E+00  0.00000000E+00
  0.00000000E+00  0.00000000E+00  0.00000000E+00
  0.00000000E+00  0.00000000E+00  0.00000000E+00
  0.00000000E+00  0.00000000E+00  0.00000000E+00
  0.00000000E+00  0.00000000E+00  0.00000000E+00
  0.00000000E+00  0.00000000E+00  0.00000000E+00
  0.00000000E+00  0.00000000E+00  0.00000000E+00
  0.00000000E+00  0.00000000E+00  0.00000000E+00
  0.00000000E+00  0.00000000E+00  0.00000000E+00
  0.00000000E+00  0.00000000E+00  0.00000000E+00
  0.00000000E+00  0.00000000E+00  0.00000000E+00
  0.00000000E+00  0.00000000E+00  0.00000000E+00
  0.00000000E+00  0.00000000E+00  0.00000000E+00
  0.00000000E+00  0.00000000E+00  0.00000000E+00
  0.00000000E+00  0.00000000E+00  0.00000000E+00
  0.00000000E+00  0.00000000E+00  0.00000000E+00
  0.00000000E+00  0.00000000E+00  0.00000000E+00
  0.00000000E+00  0.00000000E+00  0.00000000E+00
  0.00000000E+00  0.00000000E+00  0.00000000E+00
  0.00000000E+00  0.00000000E+00  0.00000000E+00
  0.00000000E+00  0.00000000E+00  0.00000000E+00
  0.00000000E+00  0.00000000E+00  0.00000000E+00
  0.00000000E+00  0.00000000E+00  0.00000000E+00
  0.00000000E+00  0.00000000E+00  0.00000000E+00
  0.00000000E+00  0.00000000E+00  0.00000000E+00
  0.00000000E+00  0.00000000E+00  0.00000000E+00
  0.00000000E+00  0.00000000E+00  0.00000000E+00
  0.00000000E+00  0.00000000E+00  0.00000000E+00
  0.00000000E+00  0.00000000E+00  0.00000000E+00
  0.00000000E+00  0.00000000E+00  0.00000000E+00
  0.00000000E+00  0.00000000E+00  0.00000000E+00
  0.00000000E+00  0.00000000E+00  0.00000000E+00
  0.00000000E+00  0.00000000E+00  0.00000000E+00
  0.00000000E+00  0.00000000E+00  0.00000000E+00
  0.00000000E+00  0.00000000E+00  0.00000000E+00
  0.00000000E+00  0.00000000E+00  0.00000000E+00
  0.00000000E+00  0.00000000E+00  0.00000000E+00
  0.00000000E+00  0.00000000E+00  0.00000000E+00
  0.00000000E+00  0.00000000E+00  0.00000000E+00
  0.00000000E+00  0.00000000E+00  0.00000000E+00
  0.00000000E+00  0.00000000E+00  0.00000000E+00
  0.00000000E+00  0.00000000E+00  0.00000000E+00
  0.00000000E+00  0.00000000E+00  0.00000000E+00
  0.00000000E+00  0.00000000E+00  0.00000000E+00
  0.00000000E+00  0.00000000E+00  0.00000000E+00
  0.00000000E+00  0.00000000E+00  0.00000000E+00
  0.00000000E+00  0.00000000E+00  0.00000000E+00
  0.00000000E+00  0.00000000E+00  0.00000000E+00
  0.00000000E+00  0.00000000E+00  0.00000000E+00
  0.00000000E+00  0.00000000E+00  0.00000000E+00
  0.00000000E+00  0.00000000E+00  0.00000000E+00
  0.00000000E+00  0.00000000E+00  0.00000000E+00
  0.00000000E+00  0.00000000E+00  0.00000000E+00
  0.00000000E+00  0.00000000E+00  0.00000000E+00
  0.00000000E+00  0.00000000E+00  0.00000000E+00
  0.00000000E+00  0.00000000E+00  0.00000000E+00
  0.00000000E+00  0.00000000E+00  0.00000000E+00
  0.00000000E+00  0.00000000E+00  0.00000000E+00
  0.00000000E+00  0.00000000E+00  0.00000000E+00
  0.00000000E+00  0.00000000E+00  0.00000000E+00
  0.00000000E+00  0.00000000E+00  0.00000000E+00
  0.00000000E+00  0.00000000E+00  0.00000000E+00
  0.00000000E+00  0.00000000E+00  0.00000000E+00
  0.00000000E+00  0.00000000E+00  0.00000000E+00
  0.00000000E+00  0.00000000E+00  0.00000000E+00
  0.00000000E+00  0.00000000E+00  0.00000000E+00
  0.00000000E+00  0.00000000E+00  0.00000000E+00
