SrTiFeO                                 
   1.00000000000000     
    11.1989999999999998    0.0000000000000000    0.0000000000000000
     0.0000000000000000   11.1989999999999998    0.0000000000000000
     0.0000000000000000    0.0000000000000000   15.9830000000000005
   Sr   Ti   Fe   O 
    32    30     2    94
Direct
  0.9982808130426154  0.2510079990739119  0.1244666141047004
  0.9998291195887415  0.2435351034242999  0.6269983363467370
  0.9988098925194232  0.7492832448694492  0.1244370653517535
  0.0037182339067146  0.7569598389208617  0.6293598298155286
  0.5011900968189004  0.2507167478450539  0.1244370730654855
  0.4962817789704654  0.2430401582620985  0.6293598313539047
  0.5017191956072483  0.7489920070888402  0.1244666143648070
  0.5001708954413521  0.7564649259054685  0.6269983478046491
  0.9998291195887415  0.2435351034242999  0.3730016636532633
  0.9982808130426154  0.2510079990739119  0.8755333858952998
  0.0037182339067146  0.7569598389208617  0.3706401701844713
  0.9988098925194232  0.7492832448694492  0.8755629346482464
  0.4962817789704654  0.2430401582620985  0.3706401686460951
  0.5011900968189004  0.2507167478450539  0.8755629269345144
  0.5001708954413521  0.7564649259054685  0.3730016521953509
  0.5017191956072483  0.7489920070888402  0.8755333856351930
  0.2499999944172667 -0.0000000025839903  0.1248301113777034
  0.2500000069469542  0.0000000118738809  0.6256496264044057
  0.2500000001596167  0.5000000033836222  0.1252772041433285
  0.2500000146711271  0.4999999849671208  0.6264733403800689
  0.7499999966787435 -0.0000000032603067  0.1263649462313657
  0.7500000010575765  0.0000000039937958  0.6199066916428748
  0.7499999939261555  0.5000000003157178  0.1227007871592030
  0.7500000010740926  0.4999999991112805  0.6311758669145707
  0.2500000069469542  0.0000000118738809  0.3743503735955942
  0.2499999944172667 -0.0000000025839903  0.8751698886222963
  0.2500000146711271  0.4999999849671208  0.3735266596199310
  0.2500000001596167  0.5000000033836222  0.8747227958566713
  0.7500000010575765  0.0000000039937958  0.3800933083571251
  0.7499999966787435 -0.0000000032603067  0.8736350537686340
  0.7500000010740926  0.4999999991112805  0.3688241330854294
  0.7499999939261555  0.5000000003157178  0.8772992128407970
  0.9999131806763768  0.0003490728233638 -0.0000000000000000
  0.9970896362352752  0.0006781344419626  0.5000000000000000
  0.0008196515335386  0.4994309247281317 -0.0000000000000000
  0.0077244741595808  0.4881023991484270  0.5000000000000000
  0.5000868175699351  0.9996509288003369 -0.0000000000000000
  0.5029103628147163  0.9993218605824681  0.5000000000000000
  0.4991803462599509  0.5005690777201620 -0.0000000000000000
  0.2495869558450090  0.2500824724822894 -0.0000000000000000
  0.2548704585045848  0.2427223056772996  0.5000000000000000
  0.2504130441197726  0.7499175307804227 -0.0000000000000000
  0.2451295479265849  0.7572776952478999  0.5000000000000000
  0.7504981398367873  0.2490333350327886 -0.0000000000000000
  0.7495018626634939  0.7509666654375357 -0.0000000000000000
  0.2492287939048604  0.2502784630418666  0.2494703029922498
  0.2492287939048604  0.2502784630418666  0.7505296970077503
  0.2507712039586560  0.7497215396930514  0.2494703034117429
  0.2507712039586560  0.7497215396930514  0.7505296965882570
  0.7487991776356668  0.2508439473205595  0.2521829884909393
  0.7487991776356668  0.2508439473205595  0.7478170115090608
  0.7512008255869798  0.7491560521569092  0.2521829925249362
  0.7512008255869798  0.7491560521569092  0.7478170074750639
  0.9995746984962489  0.0005306693996360  0.2496269384250658
  0.9995746984962489  0.0005306693996360  0.7503730615749342
  0.9995300684745193  0.5010186757675688  0.2498918833598017
  0.9995300684745193  0.5010186757675688  0.7501081166401982
  0.5004252999968547  0.9994693330508830  0.2496269383958025
  0.5004252999968547  0.9994693330508830  0.7503730616041977
  0.5004699322827247  0.4989813279590045  0.2498918842250483
  0.5004699322827247  0.4989813279590045  0.7501081157749517
  0.4922755280303249  0.5118976119810170  0.5000000000000000
  0.7564070922175780  0.2519524586689776  0.5000000000000000
  0.7435929076087504  0.7480475404588909  0.5000000000000000
  0.1090654980010681  0.1414811725171540  0.2485849003732175
  0.1090654980010681  0.1414811725171540  0.7514150996267824
  0.1101290509499752  0.6409702581593187  0.2487684279370752
  0.1101290509499752  0.6409702581593187  0.7512315720629250
  0.6086340320223409  0.1399466360152541  0.2481965054321529
  0.6086340320223409  0.1399466360152541  0.7518034945678472
  0.6085704152346152  0.6400229661451974  0.2522442527916255
  0.6085704152346152  0.6400229661451974  0.7477557472083745
  0.3898709460597613  0.3590297395319940  0.2487684347161780
  0.3898709460597613  0.3590297395319940  0.7512315652838221
  0.3909345020643439  0.8585188297866196  0.2485848944714044
  0.3909345020643439  0.8585188297866196  0.7514151055285956
  0.8914295918133240  0.3599770218869526  0.2522442507260937
  0.8914295918133240  0.3599770218869526  0.7477557492739063
  0.8913659664284128  0.8600533608523413  0.2481965097438386
  0.8913659664284128  0.8600533608523413  0.7518034902561611
  0.3592465056719487  0.1102327381463409  0.2496109824016618
  0.3592465056719487  0.1102327381463409  0.7503890175983382
  0.3600644373671759  0.6080459263716221  0.2539748628454953
  0.3600644373671759  0.6080459263716221  0.7460251371545047
  0.8588480540429227  0.1102597433437732  0.2547593705905066
  0.8588480540429227  0.1102597433437732  0.7452406294094934
  0.8603540283098760  0.6088261104479492  0.2433528807303123
  0.8603540283098760  0.6088261104479492  0.7566471192696879
  0.1399355612548040  0.3919540727858983  0.2539748623290919
  0.1399355612548040  0.3919540727858983  0.7460251376709079
  0.1407534944668644  0.8897672645839251  0.2496109874975856
  0.1407534944668644  0.8897672645839251  0.7503890125024144
  0.6396459574409106  0.3911738714770703  0.2433528704662994
  0.6396459574409106  0.3911738714770703  0.7566471295337004
  0.6411519349372957  0.8897402422078198  0.2547593820140215
  0.6411519349372957  0.8897402422078198  0.7452406179859784
  0.3590826201760753  0.3908643479956713 -0.0000000000000000
  0.3585892088216887  0.8911546020909263 -0.0000000000000000
  0.3541147884894021  0.8916381813844935  0.5000000000000000
  0.8600801219969872  0.3904928000833369 -0.0000000000000000
  0.8595799508312184  0.8908138369264627 -0.0000000000000000
  0.8679376172430864  0.8890052418476080  0.5000000000000000
  0.1414107928542323  0.1088453987310111 -0.0000000000000000
  0.1458852154535499  0.1083618132533144  0.5000000000000000
  0.1409173795014739  0.6091356508214238 -0.0000000000000000
  0.1298264405588875  0.6162367502281995  0.5000000000000000
  0.6404200487124337  0.1091861597497590 -0.0000000000000000
  0.6320623786228540  0.1109947551857404  0.5000000000000000
  0.6399198726989775  0.6095072056239551 -0.0000000000000000
  0.1091743683901280  0.3584457700319767 -0.0000000000000000
  0.1091451145397773  0.3572288968318768  0.5000000000000000
  0.1094581924996302  0.8591963826999043 -0.0000000000000000
  0.1102590807071621  0.8597416570615697  0.5000000000000000
  0.6096246443271992  0.3601505686447983 -0.0000000000000000
  0.6084384990523104  0.8596040609886236 -0.0000000000000000
  0.6001678460368223  0.8598470383957760  0.5000000000000000
  0.3905418034766405  0.1408036155520659 -0.0000000000000000
  0.3897409083264147  0.1402583346061511  0.5000000000000000
  0.3908256281938881  0.6415542303562446 -0.0000000000000000
  0.8915614967771847  0.1403959339413231 -0.0000000000000000
  0.8998321364788481  0.1401529516960754  0.5000000000000000
  0.8903753510556551  0.6398494302899368 -0.0000000000000000
  0.9994084445494253  0.0016032557815226  0.1250323010173063
  0.0046677938028300  0.0000947136392885  0.6264247001242614
  0.0030098465746400  0.4973680128881514  0.1249569921944459
  0.9946152356257681  0.5140909293477948  0.6230670652208254
  0.5005915629723388  0.9983967409478803  0.1250323004334515
  0.4953322060971306  0.9999052926472594  0.6264247000620394
  0.4969901469094825  0.5026319931673499  0.1249569916211811
  0.5053847653560769  0.4859090704596952  0.6230670663800841
  0.0046677938028300  0.0000947136392885  0.3735752998757388
  0.9994084445494253  0.0016032557815226  0.8749676989826938
  0.9946152356257681  0.5140909293477948  0.3769329347791743
  0.0030098465746400  0.4973680128881514  0.8750430078055539
  0.4953322060971306  0.9999052926472594  0.3735752999379604
  0.5005915629723388  0.9983967409478803  0.8749676995665484
  0.4969901469094825  0.5026319931673499  0.8750430083788189
  0.2498145691873344  0.2504431879957874  0.3749312500588611
  0.2484136375912082  0.2518565157433254  0.8749357744839661
  0.2501854293870699  0.7495568190460569  0.3749312491608974
  0.2515863611090878  0.7481434884843257  0.8749357743564641
  0.7528392797885842  0.2482696593367051  0.8752338004703707
  0.7471607322107787  0.7517303398390763  0.8752337989056624
  0.2484136375912082  0.2518565157433254  0.1250642255160337
  0.2498145691873344  0.2504431879957874  0.6250687499411388
  0.2515863611090878  0.7481434884843257  0.1250642256435360
  0.2501854293870699  0.7495568190460569  0.6250687508391026
  0.7528392797885842  0.2482696593367051  0.1247661995296293
  0.7370421731263898  0.2613921423702400  0.6259278417340585
  0.7471607322107787  0.7517303398390763  0.1247662010943375
  0.7629578235996528  0.7386078576770483  0.6259278412106407
  0.7370421731263898  0.2613921423702400  0.3740721582659415
  0.8548021319996780  0.4165757661815108  0.5000000000000000
  0.3908548886758909  0.6427711072228277  0.5000000000000000
  0.5053847653560769  0.4859090704596952  0.3769329336199162
  0.3701735596283111  0.3837632508437461  0.5000000000000000
  0.7629578235996528  0.7386078576770483  0.3740721587893594
  0.6451978696374542  0.5834242362990898  0.5000000000000000
 
  0.00000000E+00  0.00000000E+00  0.00000000E+00
  0.00000000E+00  0.00000000E+00  0.00000000E+00
  0.00000000E+00  0.00000000E+00  0.00000000E+00
  0.00000000E+00  0.00000000E+00  0.00000000E+00
  0.00000000E+00  0.00000000E+00  0.00000000E+00
  0.00000000E+00  0.00000000E+00  0.00000000E+00
  0.00000000E+00  0.00000000E+00  0.00000000E+00
  0.00000000E+00  0.00000000E+00  0.00000000E+00
  0.00000000E+00  0.00000000E+00  0.00000000E+00
  0.00000000E+00  0.00000000E+00  0.00000000E+00
  0.00000000E+00  0.00000000E+00  0.00000000E+00
  0.00000000E+00  0.00000000E+00  0.00000000E+00
  0.00000000E+00  0.00000000E+00  0.00000000E+00
  0.00000000E+00  0.00000000E+00  0.00000000E+00
  0.00000000E+00  0.00000000E+00  0.00000000E+00
  0.00000000E+00  0.00000000E+00  0.00000000E+00
  0.00000000E+00  0.00000000E+00  0.00000000E+00
  0.00000000E+00  0.00000000E+00  0.00000000E+00
  0.00000000E+00  0.00000000E+00  0.00000000E+00
  0.00000000E+00  0.00000000E+00  0.00000000E+00
  0.00000000E+00  0.00000000E+00  0.00000000E+00
  0.00000000E+00  0.00000000E+00  0.00000000E+00
  0.00000000E+00  0.00000000E+00  0.00000000E+00
  0.00000000E+00  0.00000000E+00  0.00000000E+00
  0.00000000E+00  0.00000000E+00  0.00000000E+00
  0.00000000E+00  0.00000000E+00  0.00000000E+00
  0.00000000E+00  0.00000000E+00  0.00000000E+00
  0.00000000E+00  0.00000000E+00  0.00000000E+00
  0.00000000E+00  0.00000000E+00  0.00000000E+00
  0.00000000E+00  0.00000000E+00  0.00000000E+00
  0.00000000E+00  0.00000000E+00  0.00000000E+00
  0.00000000E+00  0.00000000E+00  0.00000000E+00
  0.00000000E+00  0.00000000E+00  0.00000000E+00
  0.00000000E+00  0.00000000E+00  0.00000000E+00
  0.00000000E+00  0.00000000E+00  0.00000000E+00
  0.00000000E+00  0.00000000E+00  0.00000000E+00
  0.00000000E+00  0.00000000E+00  0.00000000E+00
  0.00000000E+00  0.00000000E+00  0.00000000E+00
  0.00000000E+00  0.00000000E+00  0.00000000E+00
  0.00000000E+00  0.00000000E+00  0.00000000E+00
  0.00000000E+00  0.00000000E+00  0.00000000E+00
  0.00000000E+00  0.00000000E+00  0.00000000E+00
  0.00000000E+00  0.00000000E+00  0.00000000E+00
  0.00000000E+00  0.00000000E+00  0.00000000E+00
  0.00000000E+00  0.00000000E+00  0.00000000E+00
  0.00000000E+00  0.00000000E+00  0.00000000E+00
  0.00000000E+00  0.00000000E+00  0.00000000E+00
  0.00000000E+00  0.00000000E+00  0.00000000E+00
  0.00000000E+00  0.00000000E+00  0.00000000E+00
  0.00000000E+00  0.00000000E+00  0.00000000E+00
  0.00000000E+00  0.00000000E+00  0.00000000E+00
  0.00000000E+00  0.00000000E+00  0.00000000E+00
  0.00000000E+00  0.00000000E+00  0.00000000E+00
  0.00000000E+00  0.00000000E+00  0.00000000E+00
  0.00000000E+00  0.00000000E+00  0.00000000E+00
  0.00000000E+00  0.00000000E+00  0.00000000E+00
  0.00000000E+00  0.00000000E+00  0.00000000E+00
  0.00000000E+00  0.00000000E+00  0.00000000E+00
  0.00000000E+00  0.00000000E+00  0.00000000E+00
  0.00000000E+00  0.00000000E+00  0.00000000E+00
  0.00000000E+00  0.00000000E+00  0.00000000E+00
  0.00000000E+00  0.00000000E+00  0.00000000E+00
  0.00000000E+00  0.00000000E+00  0.00000000E+00
  0.00000000E+00  0.00000000E+00  0.00000000E+00
  0.00000000E+00  0.00000000E+00  0.00000000E+00
  0.00000000E+00  0.00000000E+00  0.00000000E+00
  0.00000000E+00  0.00000000E+00  0.00000000E+00
  0.00000000E+00  0.00000000E+00  0.00000000E+00
  0.00000000E+00  0.00000000E+00  0.00000000E+00
  0.00000000E+00  0.00000000E+00  0.00000000E+00
  0.00000000E+00  0.00000000E+00  0.00000000E+00
  0.00000000E+00  0.00000000E+00  0.00000000E+00
  0.00000000E+00  0.00000000E+00  0.00000000E+00
  0.00000000E+00  0.00000000E+00  0.00000000E+00
  0.00000000E+00  0.00000000E+00  0.00000000E+00
  0.00000000E+00  0.00000000E+00  0.00000000E+00
  0.00000000E+00  0.00000000E+00  0.00000000E+00
  0.00000000E+00  0.00000000E+00  0.00000000E+00
  0.00000000E+00  0.00000000E+00  0.00000000E+00
  0.00000000E+00  0.00000000E+00  0.00000000E+00
  0.00000000E+00  0.00000000E+00  0.00000000E+00
  0.00000000E+00  0.00000000E+00  0.00000000E+00
  0.00000000E+00  0.00000000E+00  0.00000000E+00
  0.00000000E+00  0.00000000E+00  0.00000000E+00
  0.00000000E+00  0.00000000E+00  0.00000000E+00
  0.00000000E+00  0.00000000E+00  0.00000000E+00
  0.00000000E+00  0.00000000E+00  0.00000000E+00
  0.00000000E+00  0.00000000E+00  0.00000000E+00
  0.00000000E+00  0.00000000E+00  0.00000000E+00
  0.00000000E+00  0.00000000E+00  0.00000000E+00
  0.00000000E+00  0.00000000E+00  0.00000000E+00
  0.00000000E+00  0.00000000E+00  0.00000000E+00
  0.00000000E+00  0.00000000E+00  0.00000000E+00
  0.00000000E+00  0.00000000E+00  0.00000000E+00
  0.00000000E+00  0.00000000E+00  0.00000000E+00
  0.00000000E+00  0.00000000E+00  0.00000000E+00
  0.00000000E+00  0.00000000E+00  0.00000000E+00
  0.00000000E+00  0.00000000E+00  0.00000000E+00
  0.00000000E+00  0.00000000E+00  0.00000000E+00
  0.00000000E+00  0.00000000E+00  0.00000000E+00
  0.00000000E+00  0.00000000E+00  0.00000000E+00
  0.00000000E+00  0.00000000E+00  0.00000000E+00
  0.00000000E+00  0.00000000E+00  0.00000000E+00
  0.00000000E+00  0.00000000E+00  0.00000000E+00
  0.00000000E+00  0.00000000E+00  0.00000000E+00
  0.00000000E+00  0.00000000E+00  0.00000000E+00
  0.00000000E+00  0.00000000E+00  0.00000000E+00
  0.00000000E+00  0.00000000E+00  0.00000000E+00
  0.00000000E+00  0.00000000E+00  0.00000000E+00
  0.00000000E+00  0.00000000E+00  0.00000000E+00
  0.00000000E+00  0.00000000E+00  0.00000000E+00
  0.00000000E+00  0.00000000E+00  0.00000000E+00
  0.00000000E+00  0.00000000E+00  0.00000000E+00
  0.00000000E+00  0.00000000E+00  0.00000000E+00
  0.00000000E+00  0.00000000E+00  0.00000000E+00
  0.00000000E+00  0.00000000E+00  0.00000000E+00
  0.00000000E+00  0.00000000E+00  0.00000000E+00
  0.00000000E+00  0.00000000E+00  0.00000000E+00
  0.00000000E+00  0.00000000E+00  0.00000000E+00
  0.00000000E+00  0.00000000E+00  0.00000000E+00
  0.00000000E+00  0.00000000E+00  0.00000000E+00
  0.00000000E+00  0.00000000E+00  0.00000000E+00
  0.00000000E+00  0.00000000E+00  0.00000000E+00
  0.00000000E+00  0.00000000E+00  0.00000000E+00
  0.00000000E+00  0.00000000E+00  0.00000000E+00
  0.00000000E+00  0.00000000E+00  0.00000000E+00
  0.00000000E+00  0.00000000E+00  0.00000000E+00
  0.00000000E+00  0.00000000E+00  0.00000000E+00
  0.00000000E+00  0.00000000E+00  0.00000000E+00
  0.00000000E+00  0.00000000E+00  0.00000000E+00
  0.00000000E+00  0.00000000E+00  0.00000000E+00
  0.00000000E+00  0.00000000E+00  0.00000000E+00
  0.00000000E+00  0.00000000E+00  0.00000000E+00
  0.00000000E+00  0.00000000E+00  0.00000000E+00
  0.00000000E+00  0.00000000E+00  0.00000000E+00
  0.00000000E+00  0.00000000E+00  0.00000000E+00
  0.00000000E+00  0.00000000E+00  0.00000000E+00
  0.00000000E+00  0.00000000E+00  0.00000000E+00
  0.00000000E+00  0.00000000E+00  0.00000000E+00
  0.00000000E+00  0.00000000E+00  0.00000000E+00
  0.00000000E+00  0.00000000E+00  0.00000000E+00
  0.00000000E+00  0.00000000E+00  0.00000000E+00
  0.00000000E+00  0.00000000E+00  0.00000000E+00
  0.00000000E+00  0.00000000E+00  0.00000000E+00
  0.00000000E+00  0.00000000E+00  0.00000000E+00
  0.00000000E+00  0.00000000E+00  0.00000000E+00
  0.00000000E+00  0.00000000E+00  0.00000000E+00
  0.00000000E+00  0.00000000E+00  0.00000000E+00
  0.00000000E+00  0.00000000E+00  0.00000000E+00
  0.00000000E+00  0.00000000E+00  0.00000000E+00
  0.00000000E+00  0.00000000E+00  0.00000000E+00
  0.00000000E+00  0.00000000E+00  0.00000000E+00
  0.00000000E+00  0.00000000E+00  0.00000000E+00
  0.00000000E+00  0.00000000E+00  0.00000000E+00
  0.00000000E+00  0.00000000E+00  0.00000000E+00
  0.00000000E+00  0.00000000E+00  0.00000000E+00
  0.00000000E+00  0.00000000E+00  0.00000000E+00
  0.00000000E+00  0.00000000E+00  0.00000000E+00
