Sr   Ti   Fe   O                        
   1.00000000000000     
    11.1989999999999998    0.0000000000000000    0.0000000000000000
     0.0000000000000000   11.1989999999999998    0.0000000000000000
     0.0000000000000000    0.0000000000000000   15.9830000000000005
   Sr   Ti   Fe   O 
    32    30     2    94
Direct
  0.9982061513882052  0.2504368681706958  0.1245787938571983
  0.9972480283709985  0.2444224374168209  0.6259417535888232
  0.9976275000159948  0.7502244630269201  0.1248204699818028
  0.0056642156256694  0.7559672399294156  0.6288667215747102
  0.5001973887872541  0.2512675111191208  0.1243058949922156
  0.4991605864748103  0.2437006945121275  0.6296562107778256
  0.5006352374913845  0.7486887346981074  0.1238844397540250
  0.4984375051830281  0.7561114984275009  0.6294686778446074
  0.9972480283709985  0.2444224374168209  0.3740582464111777
  0.9982061513882052  0.2504368681706958  0.8754212061428009
  0.0056642156256694  0.7559672399294156  0.3711332784252904
  0.9976275000159948  0.7502244630269201  0.8751795300181983
  0.4991605864748103  0.2437006945121275  0.3703437892221751
  0.5001973887872541  0.2512675111191208  0.8756941050077841
  0.4984375051830281  0.7561114984275009  0.3705313221553920
  0.5006352374913845  0.7486887346981074  0.8761155602459740
  0.2494205031828697  0.9997222807790672  0.1246955817586277
  0.2501098102119015  0.9994240988785769  0.6264748183006456
  0.2493690381375853  0.4993649566307369  0.1241726651446969
  0.2507593818946848  0.5016395776227699  0.6294786596197232
  0.7491852391771203  0.9991071503014107  0.1260020118172988
  0.7512884679017009  0.0071132897018161  0.6213468053175699
  0.7487583545721574  0.5001208282636604  0.1229673586715685
  0.7538514432368897  0.4927322452847798  0.6323254580783629
  0.2501098102119015  0.9994240988785769  0.3735251816993556
  0.2494205031828697  0.9997222807790672  0.8753044182413714
  0.2507593818946848  0.5016395776227699  0.3705213403802763
  0.2493690381375853  0.4993649566307369  0.8758273348553023
  0.7512884679017009  0.0071132897018161  0.3786531946824294
  0.7491852391771203  0.9991071503014107  0.8739979881827014
  0.7538514432368897  0.4927322452847798  0.3676745419216373
  0.7487583545721574  0.5001208282636604  0.8770326413284318
  0.9992014167915357  0.9997550633023823 -0.0000000000000000
  0.9990547346348128  0.0005638820796577  0.5000000000000000
  0.0002565292954966  0.4995066388992662 -0.0000000000000000
  0.0135226539844877  0.4862910080183742  0.5000000000000000
  0.5001055122281913  0.9994211665905335 -0.0000000000000000
  0.5025115290987173  0.9997004654246191  0.5000000000000000
  0.4989179325727400  0.5001096165374765 -0.0000000000000000
  0.2491851632023429  0.2497671838262963 -0.0000000000000000
  0.2544709975702648  0.2403637990261042  0.5000000000000000
  0.2492323874939425  0.7505076186744530 -0.0000000000000000
  0.2504018333499632  0.7558064068511264  0.5000000000000000
  0.7502266173734978  0.2492977549540376 -0.0000000000000000
  0.7492273596561303  0.7509693327815730 -0.0000000000000000
  0.2490836381013529  0.2496493124162266  0.2498379187677955
  0.2490836381013529  0.2496493124162266  0.7501620812322054
  0.2501441816519282  0.7500863177548797  0.2481234779936406
  0.2501441816519282  0.7500863177548797  0.7518765220063588
  0.7486988201373679  0.2501788617650535  0.2505696003887579
  0.7486988201373679  0.2501788617650535  0.7494303996112410
  0.7501616802259152  0.7478824502601520  0.2531493410638476
  0.7501616802259152  0.7478824502601520  0.7468506589361524
  0.9991472950322017  0.0003303930047147  0.2499412634612169
  0.9991472950322017  0.0003303930047147  0.7500587365387827
  0.9996664959153404  0.5013072251825339  0.2493463799437573
  0.9996664959153404  0.5013072251825339  0.7506536200562444
  0.5005196228445247  0.9995184547191085  0.2493948072848724
  0.5005196228445247  0.9995184547191085  0.7506051927151275
  0.4989575861289223  0.5003583948311467  0.2494466603136850
  0.4989575861289223  0.5003583948311467  0.7505533396863151
  0.4861315488904671  0.5036283973800141  0.5000000000000000
  0.7542657961836392  0.2553591499100951  0.5000000000000000
  0.7475279856147740  0.7595232987398129  0.5000000000000000
  0.1088718823447983  0.1409925620497224  0.2483913544853192
  0.1088718823447983  0.1409925620497224  0.7516086455146815
  0.1096735869474226  0.6410322269969182  0.2488984382670626
  0.1096735869474226  0.6410322269969182  0.7511015617329373
  0.6086714307375259  0.1391550614115874  0.2464506828155767
  0.6086714307375259  0.1391550614115874  0.7535493171844229
  0.6084043042948587  0.6402459564205459  0.2489805747816642
  0.6084043042948587  0.6402459564205459  0.7510194252183366
  0.3887586178003811  0.3594975389121922  0.2491540012368098
  0.3887586178003811  0.3594975389121922  0.7508459987631922
  0.3899345425031771  0.8598763163222219  0.2482308060728990
  0.3899345425031771  0.8598763163222219  0.7517691939271007
  0.8906264594845321  0.3615506685312423  0.2522611792743677
  0.8906264594845321  0.3615506685312423  0.7477388207256322
  0.8892884475271023  0.8592225035156433  0.2532721263127084
  0.8892884475271023  0.8592225035156433  0.7467278736872909
  0.3596269225112271  0.1103041226773777  0.2486717249442213
  0.3596269225112271  0.1103041226773777  0.7513282750557785
  0.3578176056929920  0.6100048361722717  0.2468134366827637
  0.3578176056929920  0.6100048361722717  0.7531865633172351
  0.8596239941214291  0.1097804394149087  0.2516699854089568
  0.8596239941214291  0.1097804394149087  0.7483300145910431
  0.8605803126426712  0.6096207032061854  0.2432911585187794
  0.8605803126426712  0.6096207032061854  0.7567088414812219
  0.1389176338581223  0.3915067070429608  0.2543715013042254
  0.1389176338581223  0.3915067070429608  0.7456284986957740
  0.1394062785265517  0.8894456500884619  0.2499164947826561
  0.1394062785265517  0.8894456500884619  0.7500835052173446
  0.6375204009312694  0.3910090630458400  0.2453388364826530
  0.6375204009312694  0.3910090630458400  0.7546611635173474
  0.6409437512437747  0.8888316448082016  0.2569342060527289
  0.6409437512437747  0.8888316448082016  0.7430657939472718
  0.3587594066184245  0.3899821024024577 -0.0000000000000000
  0.3584771747638188  0.8912856699963227 -0.0000000000000000
  0.3532532046539295  0.8965634837673173  0.5000000000000000
  0.8600948756937388  0.3910435196621115 -0.0000000000000000
  0.8586142611978304  0.8908929441045289 -0.0000000000000000
  0.8705341308095325  0.8879665004513154  0.5000000000000000
  0.1406030680247461  0.1084130364429727 -0.0000000000000000
  0.1465721796612104  0.1069870009114620  0.5000000000000000
  0.1402029861597182  0.6092038386055911 -0.0000000000000000
  0.1395740958286909  0.6120964023797344  0.5000000000000000
  0.6405191619511140  0.1089608053415499 -0.0000000000000000
  0.6329044109179265  0.1155526332575667  0.5000000000000000
  0.6398286711254911  0.6101403395640188 -0.0000000000000000
  0.1089883366629571  0.3585228461156111 -0.0000000000000000
  0.1159096189285752  0.3571705492831861  0.5000000000000000
  0.1080411363674673  0.8592643059932439 -0.0000000000000000
  0.1120128749481690  0.8573021576336483  0.5000000000000000
  0.6096192620367765  0.3600502696868358 -0.0000000000000000
  0.6083700242119117  0.8590106928934955 -0.0000000000000000
  0.5984169423248487  0.8586828395552033  0.5000000000000000
  0.3904340559843487  0.1403565778944383 -0.0000000000000000
  0.3921940447399091  0.1423904191969059  0.5000000000000000
  0.3894895621584814  0.6412816179164730 -0.0000000000000000
  0.8915991146646275  0.1404427017280709 -0.0000000000000000
  0.8980590064875171  0.1367043583041603  0.5000000000000000
  0.8898469924427749  0.6399814569344899 -0.0000000000000000
  0.9980751867181724  0.9984300790272295  0.1253071729705407
  0.0053502462740832  0.0013640550167985  0.6262262164996882
  0.0031027986327479  0.4974532618474897  0.1250647303906751
  0.9943110788979125  0.5163822535681505  0.6219925590110451
  0.5016998187938203  0.9967950236118587  0.1249225317337570
  0.4961660045955200  0.0026336599988387  0.6262860599219683
  0.4974246653830979  0.5009723106965922  0.1239440917319015
  0.4913743344724661  0.5028800384881298  0.6265276509745754
  0.0053502462740832  0.0013640550167985  0.3737737835003126
  0.9980751867181724  0.9984300790272295  0.8746928270294604
  0.9943110788979125  0.5163822535681505  0.3780074409889541
  0.0031027986327479  0.4974532618474897  0.8749352696093251
  0.4961660045955200  0.0026336599988387  0.3737139400780314
  0.5016998187938203  0.9967950236118587  0.8750774682662422
  0.4974246653830979  0.5009723106965922  0.8760559082680984
  0.2508994148090269  0.2483332153499007  0.3749303027896508
  0.2478223320535564  0.2516373559633661  0.8749408330018229
  0.2524571367711717  0.7486780201533996  0.3742483127644711
  0.2485360464034842  0.7515693423106981  0.8757733435683424
  0.7525034165341045  0.2499553392027745  0.8759672994205646
  0.7481343438073200  0.7535335985399657  0.8743850579590651
  0.2478223320535564  0.2516373559633661  0.1250591669981710
  0.2508994148090269  0.2483332153499007  0.6250696972103494
  0.2485360464034842  0.7515693423106981  0.1242266564316563
  0.2524571367711717  0.7486780201533996  0.6257516872355218
  0.7525034165341045  0.2499553392027745  0.1240327005794353
  0.7406202884217264  0.2543601115734077  0.6300718766069691
  0.7481343438073200  0.7535335985399657  0.1256149420409345
  0.7553500789156717  0.7269671579034352  0.6216417785100169
  0.7406202884217264  0.2543601115734077  0.3699281233930310
  0.8711690432939775  0.3972339254432659  0.5000000000000000
  0.4041643663980345  0.6532403741953074  0.5000000000000000
  0.4913743344724661  0.5028800384881298  0.3734723490254235
  0.3680813767259068  0.3835303954140294  0.5000000000000000
  0.7553500789156717  0.7269671579034352  0.3783582214899816
  0.6471640313771650  0.4737395143579553  0.5000000000000000
 
  0.00000000E+00  0.00000000E+00  0.00000000E+00
  0.00000000E+00  0.00000000E+00  0.00000000E+00
  0.00000000E+00  0.00000000E+00  0.00000000E+00
  0.00000000E+00  0.00000000E+00  0.00000000E+00
  0.00000000E+00  0.00000000E+00  0.00000000E+00
  0.00000000E+00  0.00000000E+00  0.00000000E+00
  0.00000000E+00  0.00000000E+00  0.00000000E+00
  0.00000000E+00  0.00000000E+00  0.00000000E+00
  0.00000000E+00  0.00000000E+00  0.00000000E+00
  0.00000000E+00  0.00000000E+00  0.00000000E+00
  0.00000000E+00  0.00000000E+00  0.00000000E+00
  0.00000000E+00  0.00000000E+00  0.00000000E+00
  0.00000000E+00  0.00000000E+00  0.00000000E+00
  0.00000000E+00  0.00000000E+00  0.00000000E+00
  0.00000000E+00  0.00000000E+00  0.00000000E+00
  0.00000000E+00  0.00000000E+00  0.00000000E+00
  0.00000000E+00  0.00000000E+00  0.00000000E+00
  0.00000000E+00  0.00000000E+00  0.00000000E+00
  0.00000000E+00  0.00000000E+00  0.00000000E+00
  0.00000000E+00  0.00000000E+00  0.00000000E+00
  0.00000000E+00  0.00000000E+00  0.00000000E+00
  0.00000000E+00  0.00000000E+00  0.00000000E+00
  0.00000000E+00  0.00000000E+00  0.00000000E+00
  0.00000000E+00  0.00000000E+00  0.00000000E+00
  0.00000000E+00  0.00000000E+00  0.00000000E+00
  0.00000000E+00  0.00000000E+00  0.00000000E+00
  0.00000000E+00  0.00000000E+00  0.00000000E+00
  0.00000000E+00  0.00000000E+00  0.00000000E+00
  0.00000000E+00  0.00000000E+00  0.00000000E+00
  0.00000000E+00  0.00000000E+00  0.00000000E+00
  0.00000000E+00  0.00000000E+00  0.00000000E+00
  0.00000000E+00  0.00000000E+00  0.00000000E+00
  0.00000000E+00  0.00000000E+00  0.00000000E+00
  0.00000000E+00  0.00000000E+00  0.00000000E+00
  0.00000000E+00  0.00000000E+00  0.00000000E+00
  0.00000000E+00  0.00000000E+00  0.00000000E+00
  0.00000000E+00  0.00000000E+00  0.00000000E+00
  0.00000000E+00  0.00000000E+00  0.00000000E+00
  0.00000000E+00  0.00000000E+00  0.00000000E+00
  0.00000000E+00  0.00000000E+00  0.00000000E+00
  0.00000000E+00  0.00000000E+00  0.00000000E+00
  0.00000000E+00  0.00000000E+00  0.00000000E+00
  0.00000000E+00  0.00000000E+00  0.00000000E+00
  0.00000000E+00  0.00000000E+00  0.00000000E+00
  0.00000000E+00  0.00000000E+00  0.00000000E+00
  0.00000000E+00  0.00000000E+00  0.00000000E+00
  0.00000000E+00  0.00000000E+00  0.00000000E+00
  0.00000000E+00  0.00000000E+00  0.00000000E+00
  0.00000000E+00  0.00000000E+00  0.00000000E+00
  0.00000000E+00  0.00000000E+00  0.00000000E+00
  0.00000000E+00  0.00000000E+00  0.00000000E+00
  0.00000000E+00  0.00000000E+00  0.00000000E+00
  0.00000000E+00  0.00000000E+00  0.00000000E+00
  0.00000000E+00  0.00000000E+00  0.00000000E+00
  0.00000000E+00  0.00000000E+00  0.00000000E+00
  0.00000000E+00  0.00000000E+00  0.00000000E+00
  0.00000000E+00  0.00000000E+00  0.00000000E+00
  0.00000000E+00  0.00000000E+00  0.00000000E+00
  0.00000000E+00  0.00000000E+00  0.00000000E+00
  0.00000000E+00  0.00000000E+00  0.00000000E+00
  0.00000000E+00  0.00000000E+00  0.00000000E+00
  0.00000000E+00  0.00000000E+00  0.00000000E+00
  0.00000000E+00  0.00000000E+00  0.00000000E+00
  0.00000000E+00  0.00000000E+00  0.00000000E+00
  0.00000000E+00  0.00000000E+00  0.00000000E+00
  0.00000000E+00  0.00000000E+00  0.00000000E+00
  0.00000000E+00  0.00000000E+00  0.00000000E+00
  0.00000000E+00  0.00000000E+00  0.00000000E+00
  0.00000000E+00  0.00000000E+00  0.00000000E+00
  0.00000000E+00  0.00000000E+00  0.00000000E+00
  0.00000000E+00  0.00000000E+00  0.00000000E+00
  0.00000000E+00  0.00000000E+00  0.00000000E+00
  0.00000000E+00  0.00000000E+00  0.00000000E+00
  0.00000000E+00  0.00000000E+00  0.00000000E+00
  0.00000000E+00  0.00000000E+00  0.00000000E+00
  0.00000000E+00  0.00000000E+00  0.00000000E+00
  0.00000000E+00  0.00000000E+00  0.00000000E+00
  0.00000000E+00  0.00000000E+00  0.00000000E+00
  0.00000000E+00  0.00000000E+00  0.00000000E+00
  0.00000000E+00  0.00000000E+00  0.00000000E+00
  0.00000000E+00  0.00000000E+00  0.00000000E+00
  0.00000000E+00  0.00000000E+00  0.00000000E+00
  0.00000000E+00  0.00000000E+00  0.00000000E+00
  0.00000000E+00  0.00000000E+00  0.00000000E+00
  0.00000000E+00  0.00000000E+00  0.00000000E+00
  0.00000000E+00  0.00000000E+00  0.00000000E+00
  0.00000000E+00  0.00000000E+00  0.00000000E+00
  0.00000000E+00  0.00000000E+00  0.00000000E+00
  0.00000000E+00  0.00000000E+00  0.00000000E+00
  0.00000000E+00  0.00000000E+00  0.00000000E+00
  0.00000000E+00  0.00000000E+00  0.00000000E+00
  0.00000000E+00  0.00000000E+00  0.00000000E+00
  0.00000000E+00  0.00000000E+00  0.00000000E+00
  0.00000000E+00  0.00000000E+00  0.00000000E+00
  0.00000000E+00  0.00000000E+00  0.00000000E+00
  0.00000000E+00  0.00000000E+00  0.00000000E+00
  0.00000000E+00  0.00000000E+00  0.00000000E+00
  0.00000000E+00  0.00000000E+00  0.00000000E+00
  0.00000000E+00  0.00000000E+00  0.00000000E+00
  0.00000000E+00  0.00000000E+00  0.00000000E+00
  0.00000000E+00  0.00000000E+00  0.00000000E+00
  0.00000000E+00  0.00000000E+00  0.00000000E+00
  0.00000000E+00  0.00000000E+00  0.00000000E+00
  0.00000000E+00  0.00000000E+00  0.00000000E+00
  0.00000000E+00  0.00000000E+00  0.00000000E+00
  0.00000000E+00  0.00000000E+00  0.00000000E+00
  0.00000000E+00  0.00000000E+00  0.00000000E+00
  0.00000000E+00  0.00000000E+00  0.00000000E+00
  0.00000000E+00  0.00000000E+00  0.00000000E+00
  0.00000000E+00  0.00000000E+00  0.00000000E+00
  0.00000000E+00  0.00000000E+00  0.00000000E+00
  0.00000000E+00  0.00000000E+00  0.00000000E+00
  0.00000000E+00  0.00000000E+00  0.00000000E+00
  0.00000000E+00  0.00000000E+00  0.00000000E+00
  0.00000000E+00  0.00000000E+00  0.00000000E+00
  0.00000000E+00  0.00000000E+00  0.00000000E+00
  0.00000000E+00  0.00000000E+00  0.00000000E+00
  0.00000000E+00  0.00000000E+00  0.00000000E+00
  0.00000000E+00  0.00000000E+00  0.00000000E+00
  0.00000000E+00  0.00000000E+00  0.00000000E+00
  0.00000000E+00  0.00000000E+00  0.00000000E+00
  0.00000000E+00  0.00000000E+00  0.00000000E+00
  0.00000000E+00  0.00000000E+00  0.00000000E+00
  0.00000000E+00  0.00000000E+00  0.00000000E+00
  0.00000000E+00  0.00000000E+00  0.00000000E+00
  0.00000000E+00  0.00000000E+00  0.00000000E+00
  0.00000000E+00  0.00000000E+00  0.00000000E+00
  0.00000000E+00  0.00000000E+00  0.00000000E+00
  0.00000000E+00  0.00000000E+00  0.00000000E+00
  0.00000000E+00  0.00000000E+00  0.00000000E+00
  0.00000000E+00  0.00000000E+00  0.00000000E+00
  0.00000000E+00  0.00000000E+00  0.00000000E+00
  0.00000000E+00  0.00000000E+00  0.00000000E+00
  0.00000000E+00  0.00000000E+00  0.00000000E+00
  0.00000000E+00  0.00000000E+00  0.00000000E+00
  0.00000000E+00  0.00000000E+00  0.00000000E+00
  0.00000000E+00  0.00000000E+00  0.00000000E+00
  0.00000000E+00  0.00000000E+00  0.00000000E+00
  0.00000000E+00  0.00000000E+00  0.00000000E+00
  0.00000000E+00  0.00000000E+00  0.00000000E+00
  0.00000000E+00  0.00000000E+00  0.00000000E+00
  0.00000000E+00  0.00000000E+00  0.00000000E+00
  0.00000000E+00  0.00000000E+00  0.00000000E+00
  0.00000000E+00  0.00000000E+00  0.00000000E+00
  0.00000000E+00  0.00000000E+00  0.00000000E+00
  0.00000000E+00  0.00000000E+00  0.00000000E+00
  0.00000000E+00  0.00000000E+00  0.00000000E+00
  0.00000000E+00  0.00000000E+00  0.00000000E+00
  0.00000000E+00  0.00000000E+00  0.00000000E+00
  0.00000000E+00  0.00000000E+00  0.00000000E+00
  0.00000000E+00  0.00000000E+00  0.00000000E+00
  0.00000000E+00  0.00000000E+00  0.00000000E+00
  0.00000000E+00  0.00000000E+00  0.00000000E+00
  0.00000000E+00  0.00000000E+00  0.00000000E+00
  0.00000000E+00  0.00000000E+00  0.00000000E+00
  0.00000000E+00  0.00000000E+00  0.00000000E+00
  0.00000000E+00  0.00000000E+00  0.00000000E+00
  0.00000000E+00  0.00000000E+00  0.00000000E+00
