SrTiFeO                                 
   1.00000000000000     
    11.1989999999999998    0.0000000000000000    0.0000000000000000
     0.0000000000000000   11.1989999999999998    0.0000000000000000
     0.0000000000000000    0.0000000000000000   15.9830000000000005
   Sr   Ti   Fe   O 
    32    30     2    94
Direct
  0.9996373452423616  0.2504388865364705  0.1243087887132214
  0.0012557601979489  0.2431235823777704  0.6280873381140243
  0.9981159671669261  0.7497195240933933  0.1250996648247915
  0.0066966439927229  0.7548082964273092  0.6272609646680316
  0.4999408026828388  0.2512520402211963  0.1256051177476352
  0.5024919724841141  0.2509741619858284  0.6237837445870072
  0.5006608675567477  0.7493739941015481  0.1238565053417887
  0.4966432973502776  0.7495842966874134  0.6278197000538298
  0.0012557601979489  0.2431235823777704  0.3719126618859760
  0.9996373452423616  0.2504388865364705  0.8756912112867788
  0.0066966439927229  0.7548082964273092  0.3727390353319683
  0.9981159671669261  0.7497195240933933  0.8749003351752082
  0.5024919724841141  0.2509741619858284  0.3762162554129921
  0.4999408026828388  0.2512520402211963  0.8743948822523653
  0.4966432973502776  0.7495842966874134  0.3721802999461704
  0.5006608675567477  0.7493739941015481  0.8761434946582116
  0.2500852200197963  0.0002464970984800  0.1249330624563609
  0.2498425902848920  0.0009896963210029  0.6251615931858899
  0.2505164341425162  0.4998734932691851  0.1251907882562632
  0.2546684249312826  0.5029794755474187  0.6247459864797688
  0.7493417704167379  0.9977089743681621  0.1253656386284945
  0.7533074758979544  0.0024914458460903  0.6242060524495912
  0.7486284044518924  0.5005109221108500  0.1232220649431016
  0.7512231047942460  0.4919640801453810  0.6334921611735375
  0.2498425902848920  0.0009896963210029  0.3748384068141104
  0.2500852200197963  0.0002464970984800  0.8750669375436391
  0.2546684249312826  0.5029794755474187  0.3752540135202315
  0.2505164341425162  0.4998734932691851  0.8748092117437370
  0.7533074758979544  0.0024914458460903  0.3757939475504085
  0.7493417704167379  0.9977089743681621  0.8746343613715053
  0.7512231047942460  0.4919640801453810  0.3665078388264625
  0.7486284044518924  0.5005109221108500  0.8767779350568984
  0.9995579850711246  0.9993965092370413  0.0000000000000000
  0.0016033555742690  0.0010694936388099  0.5000000000000000
  0.0006490023601350  0.4993648848684326  0.0000000000000000
  0.0065848275999543  0.4867145704294305  0.5000000000000000
  0.5004035933776869  0.9999225101036762  0.0000000000000000
  0.5000048835986675  0.9968935344093086  0.5000000000000000
  0.4990539590909168  0.4996126555889687  0.0000000000000000
  0.2500813980437103  0.2505867836594583  0.0000000000000000
  0.2552058579227465  0.2461067258995873  0.5000000000000000
  0.2495891553316490  0.7501314720968293  0.0000000000000000
  0.2519331946380369  0.7523332548845918  0.5000000000000000
  0.7502426867100056  0.2491933615755970  0.0000000000000000
  0.7480222025511781  0.2517050315083926  0.5000000000000000
  0.7499693091273061  0.7509196635046275  0.0000000000000000
  0.2508311035003963  0.2501466977088189  0.2506273330520142
  0.2508311035003963  0.2501466977088189  0.7493726669479860
  0.2505243161305907  0.7503552118171953  0.2492242588011017
  0.2505243161305907  0.7503552118171953  0.7507757411988980
  0.7503220804979136  0.2485121589438054  0.2490419901161762
  0.7503220804979136  0.2485121589438054  0.7509580098838240
  0.7502831006671333  0.7474983588731728  0.2527959739167359
  0.7502831006671333  0.7474983588731728  0.7472040260832641
  0.0004030549142276  0.9997277263295835  0.2493896771416964
  0.0004030549142276  0.9997277263295835  0.7506103228583039
  0.0003379589206991  0.5009251819531588  0.2498853396385674
  0.0003379589206991  0.5009251819531588  0.7501146603614322
  0.5006175690921090 -0.0000015300689209  0.2506738566215842
  0.5006175690921090 -0.0000015300689209  0.7493261433784156
  0.5009984054385809  0.5007612196214152  0.2512922205839645
  0.5009984054385809  0.5007612196214152  0.7487077794160349
  0.4930697605123448  0.4946030159788558  0.5000000000000000
  0.7461025636577070  0.7636568993579280  0.5000000000000000
  0.1094915200410137  0.1405069949890827  0.2463753985232391
  0.1094915200410137  0.1405069949890827  0.7536246014767609
  0.1092052393591666  0.6410125807548169  0.2491721901811180
  0.1092052393591666  0.6410125807548169  0.7508278098188816
  0.6102260545935710  0.1399341852812723  0.2499955269595250
  0.6102260545935710  0.1399341852812723  0.7500044730404750
  0.6100904760146099  0.6407189520889542  0.2447827114898511
  0.3903772277232082  0.3606559670482569  0.2535966811715049
  0.3903772277232082  0.3606559670482569  0.7464033188284948
  0.3905228366873602  0.8598652161617596  0.2491572153890963
  0.3905228366873602  0.8598652161617596  0.7508427846109035
  0.8905169970682626  0.3600499209589822  0.2520436140781220
  0.8905169970682626  0.3600499209589822  0.7479563859218783
  0.8897330528407144  0.8584297198322238  0.2547477555781038
  0.8897330528407144  0.8584297198322238  0.7452522444218962
  0.3599942398559695  0.1100369556897015  0.2478018994793054
  0.3599942398559695  0.1100369556897015  0.7521981005206945
  0.3594443936475556  0.6101412667286608  0.2499308481477109
  0.3594443936475556  0.6101412667286608  0.7500691518522895
  0.8596319413054910  0.1086448977083423  0.2492090498577350
  0.8596319413054910  0.1086448977083423  0.7507909501422654
  0.8597953768849412  0.6082474544012095  0.2441160208767117
  0.8597953768849412  0.6082474544012095  0.7558839791232884
  0.1395674297580904  0.3917510290194430  0.2549667548240684
  0.1395674297580904  0.3917510290194430  0.7450332451759319
  0.1397286312059564  0.8901190277662719  0.2499188427746143
  0.1397286312059564  0.8901190277662719  0.7500811572253855
  0.6403865449445719  0.3885369275528990  0.2471195155876809
  0.6413662041074162  0.8886547923937050  0.2564903168091123
  0.6413662041074162  0.8886547923937050  0.7435096831908878
  0.3587465691753425  0.3906239889864881  0.0000000000000000
  0.3593792278046164  0.8911870877448387  0.0000000000000000
  0.3519739937099488  0.8982403631477813  0.5000000000000000
  0.8597989143511587  0.3904026372622814  0.0000000000000000
  0.8505533745540153  0.4095957234394525  0.5000000000000000
  0.8591058567319140  0.8911216066130061  0.0000000000000000
  0.8683222439043283  0.8915219308131516  0.5000000000000000
  0.1409189860650934  0.1091022006677479  0.0000000000000000
  0.1430808047413160  0.1081846901473124  0.5000000000000000
  0.1406808413405795  0.6089002597090909  0.0000000000000000
  0.1261654324727482  0.6158896092272502  0.5000000000000000
  0.6413313777150011  0.1089687950211999  0.0000000000000000
  0.6441079113318863  0.1057730302230826  0.5000000000000000
  0.6401323263034545  0.6103196436856176  0.0000000000000000
  0.1090771242171069  0.3583543199398955  0.0000000000000000
  0.1002351268681944  0.3526238130966137  0.5000000000000000
  0.1089123447121644  0.8588670553104296  0.0000000000000000
  0.1094728263368446  0.8616504308474723  0.5000000000000000
  0.6100498216543325  0.3590016753126679  0.0000000000000000
  0.6090672596885396  0.8593309035945502  0.0000000000000000
  0.5925474978021952  0.8524227308249482  0.5000000000000000
  0.3908836803752646  0.1405156773748484  0.0000000000000000
  0.3948070046242481  0.1451731588798196  0.5000000000000000
  0.3901386150448149  0.6409381700184404  0.0000000000000000
  0.3857922830540001  0.6484111805322575  0.5000000000000000
  0.8917375603065818  0.1405702711197481  0.0000000000000000
  0.8939884377955476  0.1461785938105563  0.5000000000000000
  0.8903415087802592  0.6396503912569131  0.0000000000000000
  0.9983030329094716  0.9968256594961302  0.1249505259274594
  0.0022584040287420  0.0043183952060998  0.6263236311252660
  0.0027759418815998  0.4969162406319870  0.1252097038378752
  0.9901668694470410  0.5129638629747965  0.6221397130863746
  0.5032355131297912  0.9982375435297273  0.1254456046715776
  0.4971274798497493  0.0030506637124416  0.6252003479279702
  0.4980027707148054  0.4982805399838102  0.1243564195163257
  0.0022584040287420  0.0043183952060998  0.3736763688747337
  0.9983030329094716  0.9968256594961302  0.8750494740725407
  0.9901668694470410  0.5129638629747965  0.3778602869136255
  0.0027759418815998  0.4969162406319870  0.8747902961621251
  0.4971274798497493  0.0030506637124416  0.3747996520720300
  0.5032355131297912  0.9982375435297273  0.8745543953284223
  0.4980027707148054  0.4982805399838102  0.8756435804836742
  0.2477087646484578  0.2454207133870538  0.3743619581685527
  0.2505041629554417  0.2538700297700362  0.8746562759618357
  0.2481906344338313  0.7508968429251222  0.3738729073792296
  0.2497984730397334  0.7506902416501059  0.8752865621673270
  0.7520807769062808  0.2488021683354764  0.3742668354137896
  0.7520638620560189  0.2490571770370408  0.8752833038377440
  0.7521398505846095  0.7247177449859796  0.3792295330979343
  0.7509485432415034  0.7545976375688243  0.8746369942301174
  0.2505041629554417  0.2538700297700362  0.1253437240381641
  0.2477087646484578  0.2454207133870538  0.6256380418314474
  0.2497984730397334  0.7506902416501059  0.1247134378326731
  0.2481906344338313  0.7508968429251222  0.6261270926207702
  0.7520638620560189  0.2490571770370408  0.1247166961622558
  0.7520807769062808  0.2488021683354764  0.6257331645862104
  0.7509485432415034  0.7545976375688243  0.1253630057698826
  0.6403865449445719  0.3885369275528990  0.7528804844123190
  0.6100904760146099  0.6407189520889542  0.7552172885101489
  0.5109696074964361  0.5088737573439515  0.3734602777349638
  0.6138324947684806  0.3557134335183806  0.5000000000000000
  0.3432917703299305  0.3909772626728656  0.5000000000000000
  0.7521398505846095  0.7247177449859796  0.6207704669020651
  0.5109696074964361  0.5088737573439515  0.6265397222650361
 
  0.00000000E+00  0.00000000E+00  0.00000000E+00
  0.00000000E+00  0.00000000E+00  0.00000000E+00
  0.00000000E+00  0.00000000E+00  0.00000000E+00
  0.00000000E+00  0.00000000E+00  0.00000000E+00
  0.00000000E+00  0.00000000E+00  0.00000000E+00
  0.00000000E+00  0.00000000E+00  0.00000000E+00
  0.00000000E+00  0.00000000E+00  0.00000000E+00
  0.00000000E+00  0.00000000E+00  0.00000000E+00
  0.00000000E+00  0.00000000E+00  0.00000000E+00
  0.00000000E+00  0.00000000E+00  0.00000000E+00
  0.00000000E+00  0.00000000E+00  0.00000000E+00
  0.00000000E+00  0.00000000E+00  0.00000000E+00
  0.00000000E+00  0.00000000E+00  0.00000000E+00
  0.00000000E+00  0.00000000E+00  0.00000000E+00
  0.00000000E+00  0.00000000E+00  0.00000000E+00
  0.00000000E+00  0.00000000E+00  0.00000000E+00
  0.00000000E+00  0.00000000E+00  0.00000000E+00
  0.00000000E+00  0.00000000E+00  0.00000000E+00
  0.00000000E+00  0.00000000E+00  0.00000000E+00
  0.00000000E+00  0.00000000E+00  0.00000000E+00
  0.00000000E+00  0.00000000E+00  0.00000000E+00
  0.00000000E+00  0.00000000E+00  0.00000000E+00
  0.00000000E+00  0.00000000E+00  0.00000000E+00
  0.00000000E+00  0.00000000E+00  0.00000000E+00
  0.00000000E+00  0.00000000E+00  0.00000000E+00
  0.00000000E+00  0.00000000E+00  0.00000000E+00
  0.00000000E+00  0.00000000E+00  0.00000000E+00
  0.00000000E+00  0.00000000E+00  0.00000000E+00
  0.00000000E+00  0.00000000E+00  0.00000000E+00
  0.00000000E+00  0.00000000E+00  0.00000000E+00
  0.00000000E+00  0.00000000E+00  0.00000000E+00
  0.00000000E+00  0.00000000E+00  0.00000000E+00
  0.00000000E+00  0.00000000E+00  0.00000000E+00
  0.00000000E+00  0.00000000E+00  0.00000000E+00
  0.00000000E+00  0.00000000E+00  0.00000000E+00
  0.00000000E+00  0.00000000E+00  0.00000000E+00
  0.00000000E+00  0.00000000E+00  0.00000000E+00
  0.00000000E+00  0.00000000E+00  0.00000000E+00
  0.00000000E+00  0.00000000E+00  0.00000000E+00
  0.00000000E+00  0.00000000E+00  0.00000000E+00
  0.00000000E+00  0.00000000E+00  0.00000000E+00
  0.00000000E+00  0.00000000E+00  0.00000000E+00
  0.00000000E+00  0.00000000E+00  0.00000000E+00
  0.00000000E+00  0.00000000E+00  0.00000000E+00
  0.00000000E+00  0.00000000E+00  0.00000000E+00
  0.00000000E+00  0.00000000E+00  0.00000000E+00
  0.00000000E+00  0.00000000E+00  0.00000000E+00
  0.00000000E+00  0.00000000E+00  0.00000000E+00
  0.00000000E+00  0.00000000E+00  0.00000000E+00
  0.00000000E+00  0.00000000E+00  0.00000000E+00
  0.00000000E+00  0.00000000E+00  0.00000000E+00
  0.00000000E+00  0.00000000E+00  0.00000000E+00
  0.00000000E+00  0.00000000E+00  0.00000000E+00
  0.00000000E+00  0.00000000E+00  0.00000000E+00
  0.00000000E+00  0.00000000E+00  0.00000000E+00
  0.00000000E+00  0.00000000E+00  0.00000000E+00
  0.00000000E+00  0.00000000E+00  0.00000000E+00
  0.00000000E+00  0.00000000E+00  0.00000000E+00
  0.00000000E+00  0.00000000E+00  0.00000000E+00
  0.00000000E+00  0.00000000E+00  0.00000000E+00
  0.00000000E+00  0.00000000E+00  0.00000000E+00
  0.00000000E+00  0.00000000E+00  0.00000000E+00
  0.00000000E+00  0.00000000E+00  0.00000000E+00
  0.00000000E+00  0.00000000E+00  0.00000000E+00
  0.00000000E+00  0.00000000E+00  0.00000000E+00
  0.00000000E+00  0.00000000E+00  0.00000000E+00
  0.00000000E+00  0.00000000E+00  0.00000000E+00
  0.00000000E+00  0.00000000E+00  0.00000000E+00
  0.00000000E+00  0.00000000E+00  0.00000000E+00
  0.00000000E+00  0.00000000E+00  0.00000000E+00
  0.00000000E+00  0.00000000E+00  0.00000000E+00
  0.00000000E+00  0.00000000E+00  0.00000000E+00
  0.00000000E+00  0.00000000E+00  0.00000000E+00
  0.00000000E+00  0.00000000E+00  0.00000000E+00
  0.00000000E+00  0.00000000E+00  0.00000000E+00
  0.00000000E+00  0.00000000E+00  0.00000000E+00
  0.00000000E+00  0.00000000E+00  0.00000000E+00
  0.00000000E+00  0.00000000E+00  0.00000000E+00
  0.00000000E+00  0.00000000E+00  0.00000000E+00
  0.00000000E+00  0.00000000E+00  0.00000000E+00
  0.00000000E+00  0.00000000E+00  0.00000000E+00
  0.00000000E+00  0.00000000E+00  0.00000000E+00
  0.00000000E+00  0.00000000E+00  0.00000000E+00
  0.00000000E+00  0.00000000E+00  0.00000000E+00
  0.00000000E+00  0.00000000E+00  0.00000000E+00
  0.00000000E+00  0.00000000E+00  0.00000000E+00
  0.00000000E+00  0.00000000E+00  0.00000000E+00
  0.00000000E+00  0.00000000E+00  0.00000000E+00
  0.00000000E+00  0.00000000E+00  0.00000000E+00
  0.00000000E+00  0.00000000E+00  0.00000000E+00
  0.00000000E+00  0.00000000E+00  0.00000000E+00
  0.00000000E+00  0.00000000E+00  0.00000000E+00
  0.00000000E+00  0.00000000E+00  0.00000000E+00
  0.00000000E+00  0.00000000E+00  0.00000000E+00
  0.00000000E+00  0.00000000E+00  0.00000000E+00
  0.00000000E+00  0.00000000E+00  0.00000000E+00
  0.00000000E+00  0.00000000E+00  0.00000000E+00
  0.00000000E+00  0.00000000E+00  0.00000000E+00
  0.00000000E+00  0.00000000E+00  0.00000000E+00
  0.00000000E+00  0.00000000E+00  0.00000000E+00
  0.00000000E+00  0.00000000E+00  0.00000000E+00
  0.00000000E+00  0.00000000E+00  0.00000000E+00
  0.00000000E+00  0.00000000E+00  0.00000000E+00
  0.00000000E+00  0.00000000E+00  0.00000000E+00
  0.00000000E+00  0.00000000E+00  0.00000000E+00
  0.00000000E+00  0.00000000E+00  0.00000000E+00
  0.00000000E+00  0.00000000E+00  0.00000000E+00
  0.00000000E+00  0.00000000E+00  0.00000000E+00
  0.00000000E+00  0.00000000E+00  0.00000000E+00
  0.00000000E+00  0.00000000E+00  0.00000000E+00
  0.00000000E+00  0.00000000E+00  0.00000000E+00
  0.00000000E+00  0.00000000E+00  0.00000000E+00
  0.00000000E+00  0.00000000E+00  0.00000000E+00
  0.00000000E+00  0.00000000E+00  0.00000000E+00
  0.00000000E+00  0.00000000E+00  0.00000000E+00
  0.00000000E+00  0.00000000E+00  0.00000000E+00
  0.00000000E+00  0.00000000E+00  0.00000000E+00
  0.00000000E+00  0.00000000E+00  0.00000000E+00
  0.00000000E+00  0.00000000E+00  0.00000000E+00
  0.00000000E+00  0.00000000E+00  0.00000000E+00
  0.00000000E+00  0.00000000E+00  0.00000000E+00
  0.00000000E+00  0.00000000E+00  0.00000000E+00
  0.00000000E+00  0.00000000E+00  0.00000000E+00
  0.00000000E+00  0.00000000E+00  0.00000000E+00
  0.00000000E+00  0.00000000E+00  0.00000000E+00
  0.00000000E+00  0.00000000E+00  0.00000000E+00
  0.00000000E+00  0.00000000E+00  0.00000000E+00
  0.00000000E+00  0.00000000E+00  0.00000000E+00
  0.00000000E+00  0.00000000E+00  0.00000000E+00
  0.00000000E+00  0.00000000E+00  0.00000000E+00
  0.00000000E+00  0.00000000E+00  0.00000000E+00
  0.00000000E+00  0.00000000E+00  0.00000000E+00
  0.00000000E+00  0.00000000E+00  0.00000000E+00
  0.00000000E+00  0.00000000E+00  0.00000000E+00
  0.00000000E+00  0.00000000E+00  0.00000000E+00
  0.00000000E+00  0.00000000E+00  0.00000000E+00
  0.00000000E+00  0.00000000E+00  0.00000000E+00
  0.00000000E+00  0.00000000E+00  0.00000000E+00
  0.00000000E+00  0.00000000E+00  0.00000000E+00
  0.00000000E+00  0.00000000E+00  0.00000000E+00
  0.00000000E+00  0.00000000E+00  0.00000000E+00
  0.00000000E+00  0.00000000E+00  0.00000000E+00
  0.00000000E+00  0.00000000E+00  0.00000000E+00
  0.00000000E+00  0.00000000E+00  0.00000000E+00
  0.00000000E+00  0.00000000E+00  0.00000000E+00
  0.00000000E+00  0.00000000E+00  0.00000000E+00
  0.00000000E+00  0.00000000E+00  0.00000000E+00
  0.00000000E+00  0.00000000E+00  0.00000000E+00
  0.00000000E+00  0.00000000E+00  0.00000000E+00
  0.00000000E+00  0.00000000E+00  0.00000000E+00
  0.00000000E+00  0.00000000E+00  0.00000000E+00
  0.00000000E+00  0.00000000E+00  0.00000000E+00
  0.00000000E+00  0.00000000E+00  0.00000000E+00
  0.00000000E+00  0.00000000E+00  0.00000000E+00
  0.00000000E+00  0.00000000E+00  0.00000000E+00
  0.00000000E+00  0.00000000E+00  0.00000000E+00
  0.00000000E+00  0.00000000E+00  0.00000000E+00
  0.00000000E+00  0.00000000E+00  0.00000000E+00
