SrTiFeO                                 
   1.00000000000000     
    11.1989999999999998    0.0000000000000000    0.0000000000000000
     0.0000000000000000   11.1989999999999998    0.0000000000000000
     0.0000000000000000    0.0000000000000000   15.9830000000000005
   Sr   Ti   Fe   O 
    32    31     1    94
Direct
 -0.0003742287520617  0.2498701767044077  0.1249345848795966
  0.0022552267906297  0.2500888507119964  0.6238629231001892
 -0.0005571769134866  0.7501789072671908  0.1253917323015262
 -0.0007402632987257  0.7516263585213592  0.6230631817821549
  0.4996203102336488  0.2492456919078701  0.1254079306505854
  0.4986644842714373  0.2391895917108207  0.6205170825141501
  0.5004136894691864  0.7498784327891399  0.1248330411172143
  0.5037335743439962  0.7569028674517847  0.6228373898623972
 -0.0005579206308633  0.2495567037475228  0.3760252704753914
  0.0019380457440097  0.2510690641114579  0.8757771259376474
 -0.0021961384685141  0.7504155340625571  0.3764098589425454
  0.0010243669856771  0.7503699697181341  0.8751799835827080
  0.5001734264151252  0.2485703050245864  0.3741330632779153
  0.4990447892067143  0.2480180092405467  0.8778414177459621
  0.5013434352686310  0.7515455945617547  0.3752204031770509
  0.5015165804944330  0.7499512342836141  0.8748136371826815
  0.2494615335327137 -0.0000891837730861  0.1250220181980186
  0.2489427774761199 -0.0008931784085200  0.6235123837240626
  0.2504526617275326  0.5001695606695181  0.1248868113199681
  0.2424776175182596  0.5004094086571149  0.6235606399362068
  0.7502926003431870 -0.0001704384068103  0.1255599162845568
  0.7513947377964829 -0.0054061331794160  0.6220653518073923
  0.7498856205762824  0.4999422201991519  0.1253049253252945
  0.7615556746569971  0.5063500450252011  0.6211402325681711
  0.2495822948370806  0.0005044532314238  0.3758166515255019
  0.2504677986714979 -0.0011260255659047  0.8755653243659529
  0.2487076373867273  0.4994787031980956  0.3745376692761268
  0.2490439461522016  0.5012901702826322  0.8759450406972988
  0.7497714428555244 -0.0019126990958728  0.3761959806086504
  0.7500234772188877 -0.0040096001129895  0.8758425453205982
  0.7517481555472694  0.5025057912241274  0.3752283108455557
  0.7549283198145434  0.5034212555305400  0.8782774533962794
  0.0000436955435061  0.0002114852016319 -0.0004015295670192
 -0.0010745803349995 -0.0007482579890288  0.4996091252405059
  0.0006332559003942  0.5000688227148005  0.0004570580694543
 -0.0004477913556328  0.5013101095785401  0.4989679309607556
  0.5001302349450990 -0.0002847950954326  0.0002170135526265
  0.5011888620414013 -0.0017668094864730  0.4990136632208555
  0.5006627183777905  0.4995623842458843 -0.0009170280010030
  0.2504718351157874  0.2503732729453261  0.0001551653218295
  0.2499526464443719  0.2502965035007612  0.5001618789499822
  0.2504908943886269  0.7499824980694969 -0.0001515350479488
  0.2503459095886663  0.7499727187542249  0.5003421257648327
  0.7493325402627700  0.2505188751291140 -0.0000763854850484
  0.7492973461106925  0.2510810651418511  0.5005358742915020
  0.7498530555265076  0.7498262815712139  0.0004201682772796
  0.2501124394265338  0.2504030408546109  0.2499896963699056
  0.2506224669258419  0.2489555208220388  0.7493075837249573
  0.2501240533814498  0.7497515623907232  0.2501303061655395
  0.2512595557436104  0.7485047433329858  0.7492921312957768
  0.7499978453745085  0.2500351886358156  0.2501480299393344
  0.7543825644307521  0.2425964656030808  0.7497064974994039
  0.7498844203031791  0.7498808585444372  0.2516199634724955
  0.7519184800974501  0.7499737919275540  0.7476177855487742
 -0.0001020169627264  0.0005705989388728  0.2505929928597014
  0.0035924171042014 -0.0019694534766495  0.7504343851655221
  0.0000968608290173  0.5000742227975229  0.2498995201460372
  0.0006000920419294  0.5011185056102879  0.7503987872389565
  0.4999626255769089 -0.0000877688427918  0.2498132273458454
  0.4990456015799920  0.0001995562017825  0.7502289100214687
  0.4997731838181967  0.5003147369210319  0.2473632747575638
  0.4980068880900111  0.4991117389806366  0.7497174452574614
  0.5011176320027381  0.5007928120574129  0.4954530869744193
  0.7503827928939507  0.7503300849945225  0.4999646977249035
  0.1091476378735048  0.1418041922504877  0.2505819994245033
  0.1068453493686100  0.1429404644939901  0.7520222331022275
  0.1086994296471007  0.6414430711743513  0.2507774975844106
  0.1079252066611751  0.6414199662564143  0.7498406974848899
  0.6087197201820764  0.1414047456957970  0.2496778966996724
  0.6055543155142188  0.1453439330544790  0.7505171581674930
  0.6080647521241015  0.6408148255602433  0.2491907257945477
  0.3914578685869020  0.3585049092327507  0.2490951555982476
  0.3978043048038813  0.3541490375691081  0.7413927094431065
  0.3914662198294563  0.8589538564398584  0.2499216789995751
  0.3921057439070499  0.8577465683715721  0.7503195837306624
  0.8911784820335874  0.3587977985277439  0.2505040046806783
  0.8832708730672536  0.3636028727162449  0.7504215796073972
  0.8910013078008251  0.8593747938733328  0.2507627765018407
  0.8916264727755455  0.8594678547149939  0.7522938720355866
  0.3587278572261561  0.1089289815586896  0.2500757974125344
  0.3560133449884086  0.1060082075751806  0.7500997683560185
  0.3582531301153583  0.6085183648536656  0.2495355784398263
  0.3546611469549693  0.6094714210321224  0.7461596770335898
  0.8584856270467942  0.1093316066158431  0.2515821897554236
  0.8572283168745318  0.1061993794677656  0.7510955469272540
  0.8591076230539237  0.6084451376246006  0.2491238617157340
  0.8620196776709267  0.6105034361448463  0.7510797900442913
  0.1414847519535890  0.3915973098325261  0.2493086904800533
  0.1412701587728772  0.3907899071140942  0.7505671712746156
  0.1409087863938474  0.8912809118192870  0.2510892169286827
  0.1417135637030848  0.8925790189108256  0.7515602308638540
  0.6410221875472812  0.3914962525453611  0.2499367918247465
  0.6409097042658991  0.8913709828815491  0.2499822377860010
  0.6391234673049528  0.8891234414256236  0.7501303228390032
  0.3590850587918869  0.3908997851553645  0.0003118282130038
  0.3594976012437747  0.8908033572856247  0.0001125986079339
  0.3605543990076302  0.8895272919986458  0.4998168196215165
  0.8595229512010658  0.3907975194427080  0.0004239216688850
  0.8601180586446041  0.3894951575995406  0.4993406580724171
  0.8592435665122653  0.8903325360970573 -0.0009582188966494
  0.8626291686897271  0.8911821658792638  0.4980657989705522
  0.1407090995130376  0.1102233402250723 -0.0012723521381977
  0.1392047246505718  0.1110822820442782  0.4987317072917236
  0.1407354582114179  0.6092722677287620  0.0002144757066585
  0.1400316680077578  0.6101001250773203  0.4993564309920079
  0.6408095246595564  0.1091584322209551 -0.0009847974161548
  0.6391068919295514  0.1114807622003614  0.5013716562817773
  0.6411366834803708  0.6089079324590233  0.0015273741593435
  0.1094504661793348  0.3591492580180884 -0.0003462728038497
  0.1103503790611411  0.3603415201568503  0.4999491872174594
  0.1093138246905134  0.8599145981357564  0.0006921330613250
  0.1108506403303330  0.8609668198119714  0.4980122542868282
  0.6090077826880389  0.3580715415284880  0.0044534315050838
  0.6090491186340796  0.8592523155137342 -0.0004510123128394
  0.6095850437289728  0.8623298390951446  0.4995691115427578
  0.3906696025469141  0.1405202839059355  0.0003084751809084
  0.3888659098610147  0.1391439923542752  0.4988048694420208
  0.3908359614061670  0.6409570671839906 -0.0008269720535638
  0.3899848840987212  0.6382762177150411  0.5080153656187124
  0.8896170792700083  0.1413075734685688 -0.0029084641340808
  0.8882954358597599  0.1411638060408658  0.5027533428059429
  0.8905633072492580  0.6402507632009916 -0.0011826774376867
 -0.0011020382475723  0.0020414754768631  0.1249512720530375
  0.0012407260670266 -0.0001969905695931  0.6256654183698503
  0.0004120774526114  0.5002170225261849  0.1247791813686856
  0.0008671156143179  0.4983803250986301  0.6252696003529745
  0.5004105390884280  0.0002240971006927  0.1247381365005576
  0.4994854724477606  0.0002934794944167  0.6252632805960257
  0.4982662487920152  0.5009914130278021  0.1251824113772698
 -0.0003928595823748  0.0029484089111404  0.3747901072774915
  0.0003947571579213 -0.0001511663170555  0.8754314573778718
  0.0003269774163760  0.4995111638541439  0.3744925316665373
  0.0009755370804176  0.4990192416537424  0.8753379988549478
  0.5003838290224418  0.0008709043793092  0.3745279890398880
  0.4996888279262880  0.0001122573658579  0.8750747640716616
  0.5060709258081908  0.4959430044172503  0.8769196897133705
  0.2522115932876626  0.2537847346648436  0.3751634302511994
  0.2542142476343407  0.2533352703941777  0.8741280813227124
  0.2539406350733714  0.7476905978511166  0.3756768193734172
  0.2495248452485429  0.7496283039698830  0.8753346933181568
  0.7471680918970873  0.2514626471532725  0.3761242985314813
  0.7424595119543788  0.2592428321804778  0.8736455609768365
  0.7476108808225393  0.7460147074442308  0.3739674477505164
  0.7449131128215594  0.7469272985368282  0.8743475736044113
  0.2494405724730394  0.2493420705925292  0.1246687951479420
  0.2450915949471730  0.2453477934965788  0.6254142931046538
  0.2497521664160958  0.7503260479235605  0.1252598116138519
  0.2445044392384685  0.7549397328854118  0.6246387800214004
  0.7522579644349779  0.2480679278086988  0.1253295746551831
  0.7450609892336172  0.2569193660504028  0.6273251271227620
  0.7508094132869517  0.7508358541794619  0.1246614321326273
  0.6162529008191338  0.6286372087737572  0.7389849124763977
  0.4966352972618135  0.5000968826061111  0.3746338272176991
  0.6078108337957341  0.3614795915174826  0.5042084115393044
  0.3610041884063384  0.3901964720688225  0.5078605713265643
  0.7555007334378105  0.7554707712997492  0.6260035555064758
  0.8900220754110861  0.6368189780999156  0.5006963417683586
  0.6354674353753963  0.6080064713405448  0.5082339802415544
 
  0.00000000E+00  0.00000000E+00  0.00000000E+00
  0.00000000E+00  0.00000000E+00  0.00000000E+00
  0.00000000E+00  0.00000000E+00  0.00000000E+00
  0.00000000E+00  0.00000000E+00  0.00000000E+00
  0.00000000E+00  0.00000000E+00  0.00000000E+00
  0.00000000E+00  0.00000000E+00  0.00000000E+00
  0.00000000E+00  0.00000000E+00  0.00000000E+00
  0.00000000E+00  0.00000000E+00  0.00000000E+00
  0.00000000E+00  0.00000000E+00  0.00000000E+00
  0.00000000E+00  0.00000000E+00  0.00000000E+00
  0.00000000E+00  0.00000000E+00  0.00000000E+00
  0.00000000E+00  0.00000000E+00  0.00000000E+00
  0.00000000E+00  0.00000000E+00  0.00000000E+00
  0.00000000E+00  0.00000000E+00  0.00000000E+00
  0.00000000E+00  0.00000000E+00  0.00000000E+00
  0.00000000E+00  0.00000000E+00  0.00000000E+00
  0.00000000E+00  0.00000000E+00  0.00000000E+00
  0.00000000E+00  0.00000000E+00  0.00000000E+00
  0.00000000E+00  0.00000000E+00  0.00000000E+00
  0.00000000E+00  0.00000000E+00  0.00000000E+00
  0.00000000E+00  0.00000000E+00  0.00000000E+00
  0.00000000E+00  0.00000000E+00  0.00000000E+00
  0.00000000E+00  0.00000000E+00  0.00000000E+00
  0.00000000E+00  0.00000000E+00  0.00000000E+00
  0.00000000E+00  0.00000000E+00  0.00000000E+00
  0.00000000E+00  0.00000000E+00  0.00000000E+00
  0.00000000E+00  0.00000000E+00  0.00000000E+00
  0.00000000E+00  0.00000000E+00  0.00000000E+00
  0.00000000E+00  0.00000000E+00  0.00000000E+00
  0.00000000E+00  0.00000000E+00  0.00000000E+00
  0.00000000E+00  0.00000000E+00  0.00000000E+00
  0.00000000E+00  0.00000000E+00  0.00000000E+00
  0.00000000E+00  0.00000000E+00  0.00000000E+00
  0.00000000E+00  0.00000000E+00  0.00000000E+00
  0.00000000E+00  0.00000000E+00  0.00000000E+00
  0.00000000E+00  0.00000000E+00  0.00000000E+00
  0.00000000E+00  0.00000000E+00  0.00000000E+00
  0.00000000E+00  0.00000000E+00  0.00000000E+00
  0.00000000E+00  0.00000000E+00  0.00000000E+00
  0.00000000E+00  0.00000000E+00  0.00000000E+00
  0.00000000E+00  0.00000000E+00  0.00000000E+00
  0.00000000E+00  0.00000000E+00  0.00000000E+00
  0.00000000E+00  0.00000000E+00  0.00000000E+00
  0.00000000E+00  0.00000000E+00  0.00000000E+00
  0.00000000E+00  0.00000000E+00  0.00000000E+00
  0.00000000E+00  0.00000000E+00  0.00000000E+00
  0.00000000E+00  0.00000000E+00  0.00000000E+00
  0.00000000E+00  0.00000000E+00  0.00000000E+00
  0.00000000E+00  0.00000000E+00  0.00000000E+00
  0.00000000E+00  0.00000000E+00  0.00000000E+00
  0.00000000E+00  0.00000000E+00  0.00000000E+00
  0.00000000E+00  0.00000000E+00  0.00000000E+00
  0.00000000E+00  0.00000000E+00  0.00000000E+00
  0.00000000E+00  0.00000000E+00  0.00000000E+00
  0.00000000E+00  0.00000000E+00  0.00000000E+00
  0.00000000E+00  0.00000000E+00  0.00000000E+00
  0.00000000E+00  0.00000000E+00  0.00000000E+00
  0.00000000E+00  0.00000000E+00  0.00000000E+00
  0.00000000E+00  0.00000000E+00  0.00000000E+00
  0.00000000E+00  0.00000000E+00  0.00000000E+00
  0.00000000E+00  0.00000000E+00  0.00000000E+00
  0.00000000E+00  0.00000000E+00  0.00000000E+00
  0.00000000E+00  0.00000000E+00  0.00000000E+00
  0.00000000E+00  0.00000000E+00  0.00000000E+00
  0.00000000E+00  0.00000000E+00  0.00000000E+00
  0.00000000E+00  0.00000000E+00  0.00000000E+00
  0.00000000E+00  0.00000000E+00  0.00000000E+00
  0.00000000E+00  0.00000000E+00  0.00000000E+00
  0.00000000E+00  0.00000000E+00  0.00000000E+00
  0.00000000E+00  0.00000000E+00  0.00000000E+00
  0.00000000E+00  0.00000000E+00  0.00000000E+00
  0.00000000E+00  0.00000000E+00  0.00000000E+00
  0.00000000E+00  0.00000000E+00  0.00000000E+00
  0.00000000E+00  0.00000000E+00  0.00000000E+00
  0.00000000E+00  0.00000000E+00  0.00000000E+00
  0.00000000E+00  0.00000000E+00  0.00000000E+00
  0.00000000E+00  0.00000000E+00  0.00000000E+00
  0.00000000E+00  0.00000000E+00  0.00000000E+00
  0.00000000E+00  0.00000000E+00  0.00000000E+00
  0.00000000E+00  0.00000000E+00  0.00000000E+00
  0.00000000E+00  0.00000000E+00  0.00000000E+00
  0.00000000E+00  0.00000000E+00  0.00000000E+00
  0.00000000E+00  0.00000000E+00  0.00000000E+00
  0.00000000E+00  0.00000000E+00  0.00000000E+00
  0.00000000E+00  0.00000000E+00  0.00000000E+00
  0.00000000E+00  0.00000000E+00  0.00000000E+00
  0.00000000E+00  0.00000000E+00  0.00000000E+00
  0.00000000E+00  0.00000000E+00  0.00000000E+00
  0.00000000E+00  0.00000000E+00  0.00000000E+00
  0.00000000E+00  0.00000000E+00  0.00000000E+00
  0.00000000E+00  0.00000000E+00  0.00000000E+00
  0.00000000E+00  0.00000000E+00  0.00000000E+00
  0.00000000E+00  0.00000000E+00  0.00000000E+00
  0.00000000E+00  0.00000000E+00  0.00000000E+00
  0.00000000E+00  0.00000000E+00  0.00000000E+00
  0.00000000E+00  0.00000000E+00  0.00000000E+00
  0.00000000E+00  0.00000000E+00  0.00000000E+00
  0.00000000E+00  0.00000000E+00  0.00000000E+00
  0.00000000E+00  0.00000000E+00  0.00000000E+00
  0.00000000E+00  0.00000000E+00  0.00000000E+00
  0.00000000E+00  0.00000000E+00  0.00000000E+00
  0.00000000E+00  0.00000000E+00  0.00000000E+00
  0.00000000E+00  0.00000000E+00  0.00000000E+00
  0.00000000E+00  0.00000000E+00  0.00000000E+00
  0.00000000E+00  0.00000000E+00  0.00000000E+00
  0.00000000E+00  0.00000000E+00  0.00000000E+00
  0.00000000E+00  0.00000000E+00  0.00000000E+00
  0.00000000E+00  0.00000000E+00  0.00000000E+00
  0.00000000E+00  0.00000000E+00  0.00000000E+00
  0.00000000E+00  0.00000000E+00  0.00000000E+00
  0.00000000E+00  0.00000000E+00  0.00000000E+00
  0.00000000E+00  0.00000000E+00  0.00000000E+00
  0.00000000E+00  0.00000000E+00  0.00000000E+00
  0.00000000E+00  0.00000000E+00  0.00000000E+00
  0.00000000E+00  0.00000000E+00  0.00000000E+00
  0.00000000E+00  0.00000000E+00  0.00000000E+00
  0.00000000E+00  0.00000000E+00  0.00000000E+00
  0.00000000E+00  0.00000000E+00  0.00000000E+00
  0.00000000E+00  0.00000000E+00  0.00000000E+00
  0.00000000E+00  0.00000000E+00  0.00000000E+00
  0.00000000E+00  0.00000000E+00  0.00000000E+00
  0.00000000E+00  0.00000000E+00  0.00000000E+00
  0.00000000E+00  0.00000000E+00  0.00000000E+00
  0.00000000E+00  0.00000000E+00  0.00000000E+00
  0.00000000E+00  0.00000000E+00  0.00000000E+00
  0.00000000E+00  0.00000000E+00  0.00000000E+00
  0.00000000E+00  0.00000000E+00  0.00000000E+00
  0.00000000E+00  0.00000000E+00  0.00000000E+00
  0.00000000E+00  0.00000000E+00  0.00000000E+00
  0.00000000E+00  0.00000000E+00  0.00000000E+00
  0.00000000E+00  0.00000000E+00  0.00000000E+00
  0.00000000E+00  0.00000000E+00  0.00000000E+00
  0.00000000E+00  0.00000000E+00  0.00000000E+00
  0.00000000E+00  0.00000000E+00  0.00000000E+00
  0.00000000E+00  0.00000000E+00  0.00000000E+00
  0.00000000E+00  0.00000000E+00  0.00000000E+00
  0.00000000E+00  0.00000000E+00  0.00000000E+00
  0.00000000E+00  0.00000000E+00  0.00000000E+00
  0.00000000E+00  0.00000000E+00  0.00000000E+00
  0.00000000E+00  0.00000000E+00  0.00000000E+00
  0.00000000E+00  0.00000000E+00  0.00000000E+00
  0.00000000E+00  0.00000000E+00  0.00000000E+00
  0.00000000E+00  0.00000000E+00  0.00000000E+00
  0.00000000E+00  0.00000000E+00  0.00000000E+00
  0.00000000E+00  0.00000000E+00  0.00000000E+00
  0.00000000E+00  0.00000000E+00  0.00000000E+00
  0.00000000E+00  0.00000000E+00  0.00000000E+00
  0.00000000E+00  0.00000000E+00  0.00000000E+00
  0.00000000E+00  0.00000000E+00  0.00000000E+00
  0.00000000E+00  0.00000000E+00  0.00000000E+00
  0.00000000E+00  0.00000000E+00  0.00000000E+00
  0.00000000E+00  0.00000000E+00  0.00000000E+00
  0.00000000E+00  0.00000000E+00  0.00000000E+00
  0.00000000E+00  0.00000000E+00  0.00000000E+00
  0.00000000E+00  0.00000000E+00  0.00000000E+00
  0.00000000E+00  0.00000000E+00  0.00000000E+00
  0.00000000E+00  0.00000000E+00  0.00000000E+00
  0.00000000E+00  0.00000000E+00  0.00000000E+00
