Sr   Ti   Fe   O                        
   1.00000000000000     
    11.1989999999999998    0.0000000000000000    0.0000000000000000
     0.0000000000000000   11.1989999999999998    0.0000000000000000
     0.0000000000000000    0.0000000000000000   15.9830000000000005
   Sr   Ti   Fe   O 
    32    30     2    94
Direct
  0.9998216864603049  0.2509313514666200  0.1250276477174200
  0.0063673719568513  0.2502627610153242  0.6242472524647269
  0.0033251800398005  0.7505231673145765  0.1236642574510818
  0.0012712597274342  0.7480297926777365  0.6241512554149565
  0.5003273154659196  0.2504525110255800  0.1243746431975550
  0.4945009056521256  0.2497073899155139  0.6272301672878532
  0.4944832732802422  0.7489336006749672  0.1230776916461467
  0.4996032018406384  0.7472451281124186  0.6266562036106974
  0.0078355076467444  0.2505898530179189  0.3760838254079939
  0.9994956964594568  0.2503880237119388  0.8748941516810733
  0.0108320539010501  0.7483221888332807  0.3750585584915186
 -0.0008463772092321  0.7506248113679823  0.8730413244860771
  0.4933367701445012  0.2496261025260982  0.3734890657879263
  0.5005787690946538  0.2506980688297413  0.8757009526555722
  0.4872455377856055  0.7507151678106698  0.3727189521172068
  0.4975316798056126  0.7489689917705979  0.8748890328859308
  0.2485472597007219  0.0000477854645018  0.1252791077649678
  0.2496815521845498 -0.0006393012037137  0.6236412606708293
  0.2519202343061478  0.4999138258592567  0.1248997591974102
  0.2538612668319644  0.4977925771501165  0.6239700623078887
  0.7496773857767079  0.0053567771746153  0.1238978225705517
  0.7500475923315464  0.9957622400538904  0.6234855573149030
  0.7493661269444136  0.4971211185119289  0.1221495894782262
  0.7540417743892915  0.4980428057066322  0.6301890334152108
  0.2501214593465688  0.0017304057761095  0.3760798301507219
  0.2486764576257134 -0.0000488131254007  0.8747822102806853
  0.2532965121966566  0.4965870223597399  0.3762687226044061
  0.2506726696790334  0.4983303343073531  0.8756857774000284
  0.7479132313197446  0.0084517404126153  0.3759533976822186
  0.7500842928185903  0.0008438469734028  0.8731086518023289
  0.7578313007675019  0.4906262091099022  0.3706365533206842
  0.7481012690540572  0.5000799865535369  0.8749358776719017
  0.9982217016008923  0.9997002865220883 -0.0000758976376066
  1.0027222894609993  0.9942731228723426  0.4988477979851486
 -0.0002756341310720  0.5004968574334484 -0.0002972028236671
  1.0013172101498458  0.5020078657926439  0.4989695655465378
  0.4999663416215593  0.9995362651067382  0.9997075185735425
  0.5003630484038457  0.9971875478395940  0.4991629719587931
  0.4999224463276710  0.5005601188891448  0.0002883760640031
  0.2493125996512249  0.2491873959350827  0.0004509440848138
  0.2521476565843117  0.2496870653843767  0.5007578985676449
  0.2489369216280545  0.7506191049238228  0.9993402077825879
  0.2543007649483464  0.7476925801660997  0.5009003474515962
  0.7505471839209942  0.2497155503810239  0.9993465870982570
  0.7496315915235735  0.7510501772304351  0.9945416977437912
  0.2500890106155830  0.2495709337468047  0.2477594003332868
  0.2497840717742749  0.2489357282233964  0.7504939485100443
  0.2494281053102437  0.7498904469356774  0.2488164813408106
  0.2492737675773087  0.7494487031101220  0.7501449811842257
  0.7490561604418547  0.2511264553066544  0.2497421283023642
  0.7485201141948414  0.2504868174369141  0.7494275775855930
  0.7503298370332239  0.7509189769490502  0.2403948670318912
  0.7486683264521871  0.7483893842308597  0.7481903991570655
 -0.0004223042535202  0.0010197638597766  0.2519152415124133
  0.9989505535773051  0.9996222762338726  0.7484942239745849
  0.0019054901910924  0.4999965619984994  0.2500427461084285
  1.0005243525268850  0.5005038749335625  0.7500401631684547
  0.4997577674219467  0.9999782941359824  0.2502583330367448
  0.5002307957792479  0.9986215056518861  0.7498157678687941
  0.5001506144266089  0.4994652210793253  0.2520144422906561
  0.4988045347517976  0.4998099106536983  0.7502712393996622
  0.7612051021711527  0.2486363395249056  0.5007523694504287
  0.4956510519042440  0.5005507049284392  0.5000862995061933
  0.7568285418392194  0.7523373417063035  0.5044810222772051
  0.1090756560775274  0.1398142016087087  0.2457654081857600
  0.1073282399153047  0.1401398998242131  0.7506391492273181
  0.1115859340210271  0.6392849613434254  0.2474555182553717
  0.1082008982815242  0.6414375283744399  0.7509573130179567
  0.6109180424299484  0.1391559591774147  0.2503930916681412
  0.6082927793707648  0.1405080328922526  0.7493581263309658
  0.6182161777597583  0.6422364749207301  0.2632728526089734
  0.6086026284953648  0.6398287299453864  0.7569602142289336
  0.3885939413266680  0.3589024073270940  0.2433148066681156
  0.3881312662230973  0.3567734518363839  0.7549830608817655
  0.3885404633527385  0.8617694494395376  0.2483490068745423
  0.3905199114144647  0.8587354974918123  0.7496188294509426
  0.8886668821262808  0.3618253074637786  0.2523071745601405
  0.8897784353426809  0.3595513891303583  0.7472396165670668
  0.8830925952213368  0.8606175882873013  0.2646925431122316
  0.8890713826375095  0.8596432877850138  0.7474605725018921
  0.3607079884358726  0.1099862906227106  0.2479820283672888
  0.3593839798077341  0.1076526443701733  0.7481438789350703
  0.3615425975883862  0.6141660095813948  0.2465976201334782
  0.3564010501155733  0.6105119705887656  0.7548907771024448
  0.8590072376346375  0.1127306635165028  0.2547648752392693
  0.8567584707315427  0.1104381546250421  0.7440439308421629
  0.8626302790240949  0.6178169214621813  0.2579061674340979
  0.8611307474537671  0.6104390534602568  0.7552233610421016
  0.1401422900124223  0.3896238828767312  0.2464025933582078
  0.1396089865245679  0.3904188514046159  0.7486651446674671
  0.1363885584282949  0.8888582760901018  0.2493168814597188
  0.1390194279946894  0.8914069617148092  0.7504997216584449
  0.6400904236133542  0.3892908679454949  0.2447069867994495
  0.6395116172969055  0.3888584526261875  0.7552644135408445
  0.6407919664830443  0.8857254923646618  0.2604848010896062
  0.6405967123496963  0.8907922996718250  0.7513219464451169
  0.3597449715974296  0.3890472610820943  0.0027025818252871
  0.3590289339908141  0.8910576213119812  0.0011449284044094
  0.3592323589737828  0.8913109800802350  0.4996737951934883
  0.8590432732875722  0.3906338712021090  0.9996365296121175
  0.8566275604109607  0.8918954394626273  1.0004249224940667
  0.8631034339292276  0.8944973211860299  0.4889899769194186
  0.1385101503366448  0.1077091194269762  0.0015709306102884
  0.1363650954431677  0.1124752209867172  0.5019095812232108
  0.1397114596446461  0.6094879836373006  0.0010265810308877
  0.1418573988285348  0.6107669207355492  0.4995568234719635
  0.6407238591400529  0.1094746994733884  0.9994420401329938
  0.6321008296780670  0.1240271793677270  0.4997748065742324
  0.6419105684209346  0.6107551217308640  0.9991615657891244
  0.1090286848534529  0.3598156863400500  0.0015670735346914
  0.1183393434623558  0.3641570743887818  0.5018615883276724
  0.1068945786320748  0.8599304172958443  1.0000968039801381
  0.1106431356866930  0.8597399013295259  0.5000922133204294
  0.6111767355404725  0.3592944831855865  0.0014139404587920
  0.6082159628536672  0.8583656745304542  0.9998884074972370
  0.6106351584906157  0.8540779932297706  0.4886306077027534
  0.3906511571075822  0.1393643601487711  0.0012469604129908
  0.3863247373439887  0.1327831414723861  0.5018279566146059
  0.3885665957363429  0.6414247536306237  0.9999671222194767
  0.8907547913177490  0.1411206865664395  0.0010645800582570
  0.8849730475277431  0.1375540627929575  0.5007175659808921
  0.8905182113389501  0.6419017575829726  0.9997081130220435
  0.9909242011525241  0.9949744604601385  0.1271098409279087
  0.9981914695767470  0.9974799462413616  0.6239467457240313
  0.9936634484161044  0.5021580411893642  0.1257030811795919
  0.9976338672671693  0.5069926834743524  0.6244186587311774
  0.5063597409164716  0.9969559407508551  0.1259704917578955
  0.5060386781542632  0.9936744935431970  0.6238148510894836
  0.5045235683688520  0.5085480917312580  0.1243031012027573
  0.4927853046635957  0.5001715839103196  0.6336755287210364
  0.0094375461173308  0.0083727169221336  0.3745145382842888
  0.9947813256642851  0.0009231276755044  0.8745723207641458
  0.0096170500096286  0.4956140480561763  0.3733373131238231
  0.0013966053190354  0.4972335093427360  0.8754860137472918
  0.4956449319624046  0.0044544277751533  0.3741883054542861
  0.4988363136310385  0.0000572279193241  0.8751217313834323
  0.4974469844202075  0.4983503785234212  0.8787214829699924
  0.2489551135245968  0.2480047857612583  0.3727558802253410
  0.2471260566121894  0.2469881553409138  0.8763152016029631
  0.2493897062891841  0.7511539535342746  0.3736500163688162
  0.2473678450567932  0.7537334044632320  0.8758519736253211
  0.7528024545957156  0.2472484360608588  0.8745095964225467
  0.7516579405724868  0.7535243268983410  0.8755495395268074
  0.2480814124949958  0.2466696173785166  0.1236889039832724
  0.2496457436283922  0.2481816781634570  0.6271206878367368
  0.2479117034411370  0.7527897651981318  0.1240496781586992
  0.2482346024125873  0.7503015000506478  0.6260959078395553
  0.7527106111258483  0.2475495826374202  0.1253455113038309
  0.7370554048824814  0.2618025366524946  0.6217840363767138
  0.7501226649772935  0.7517347556925219  0.1252540022529809
  0.7409121536624662  0.7390994542193323  0.6289648127286505
  0.7378631001000531  0.2595895588198925  0.3780041757313015
  0.8773927520882079  0.3780437954369698  0.4989097612114192
  0.3910274229444607  0.6481682883586322  0.5003157466666162
  0.4883042746062661  0.4924825042372373  0.3677145728078300
  0.3670739247261854  0.3753083206877838  0.5009799474031190
  0.8883597204355863  0.6367350003879462  0.4874237927016206
  0.6614574741614683  0.4877713711625237  0.4994012011273805
 
  0.00000000E+00  0.00000000E+00  0.00000000E+00
  0.00000000E+00  0.00000000E+00  0.00000000E+00
  0.00000000E+00  0.00000000E+00  0.00000000E+00
  0.00000000E+00  0.00000000E+00  0.00000000E+00
  0.00000000E+00  0.00000000E+00  0.00000000E+00
  0.00000000E+00  0.00000000E+00  0.00000000E+00
  0.00000000E+00  0.00000000E+00  0.00000000E+00
  0.00000000E+00  0.00000000E+00  0.00000000E+00
  0.00000000E+00  0.00000000E+00  0.00000000E+00
  0.00000000E+00  0.00000000E+00  0.00000000E+00
  0.00000000E+00  0.00000000E+00  0.00000000E+00
  0.00000000E+00  0.00000000E+00  0.00000000E+00
  0.00000000E+00  0.00000000E+00  0.00000000E+00
  0.00000000E+00  0.00000000E+00  0.00000000E+00
  0.00000000E+00  0.00000000E+00  0.00000000E+00
  0.00000000E+00  0.00000000E+00  0.00000000E+00
  0.00000000E+00  0.00000000E+00  0.00000000E+00
  0.00000000E+00  0.00000000E+00  0.00000000E+00
  0.00000000E+00  0.00000000E+00  0.00000000E+00
  0.00000000E+00  0.00000000E+00  0.00000000E+00
  0.00000000E+00  0.00000000E+00  0.00000000E+00
  0.00000000E+00  0.00000000E+00  0.00000000E+00
  0.00000000E+00  0.00000000E+00  0.00000000E+00
  0.00000000E+00  0.00000000E+00  0.00000000E+00
  0.00000000E+00  0.00000000E+00  0.00000000E+00
  0.00000000E+00  0.00000000E+00  0.00000000E+00
  0.00000000E+00  0.00000000E+00  0.00000000E+00
  0.00000000E+00  0.00000000E+00  0.00000000E+00
  0.00000000E+00  0.00000000E+00  0.00000000E+00
  0.00000000E+00  0.00000000E+00  0.00000000E+00
  0.00000000E+00  0.00000000E+00  0.00000000E+00
  0.00000000E+00  0.00000000E+00  0.00000000E+00
  0.00000000E+00  0.00000000E+00  0.00000000E+00
  0.00000000E+00  0.00000000E+00  0.00000000E+00
  0.00000000E+00  0.00000000E+00  0.00000000E+00
  0.00000000E+00  0.00000000E+00  0.00000000E+00
  0.00000000E+00  0.00000000E+00  0.00000000E+00
  0.00000000E+00  0.00000000E+00  0.00000000E+00
  0.00000000E+00  0.00000000E+00  0.00000000E+00
  0.00000000E+00  0.00000000E+00  0.00000000E+00
  0.00000000E+00  0.00000000E+00  0.00000000E+00
  0.00000000E+00  0.00000000E+00  0.00000000E+00
  0.00000000E+00  0.00000000E+00  0.00000000E+00
  0.00000000E+00  0.00000000E+00  0.00000000E+00
  0.00000000E+00  0.00000000E+00  0.00000000E+00
  0.00000000E+00  0.00000000E+00  0.00000000E+00
  0.00000000E+00  0.00000000E+00  0.00000000E+00
  0.00000000E+00  0.00000000E+00  0.00000000E+00
  0.00000000E+00  0.00000000E+00  0.00000000E+00
  0.00000000E+00  0.00000000E+00  0.00000000E+00
  0.00000000E+00  0.00000000E+00  0.00000000E+00
  0.00000000E+00  0.00000000E+00  0.00000000E+00
  0.00000000E+00  0.00000000E+00  0.00000000E+00
  0.00000000E+00  0.00000000E+00  0.00000000E+00
  0.00000000E+00  0.00000000E+00  0.00000000E+00
  0.00000000E+00  0.00000000E+00  0.00000000E+00
  0.00000000E+00  0.00000000E+00  0.00000000E+00
  0.00000000E+00  0.00000000E+00  0.00000000E+00
  0.00000000E+00  0.00000000E+00  0.00000000E+00
  0.00000000E+00  0.00000000E+00  0.00000000E+00
  0.00000000E+00  0.00000000E+00  0.00000000E+00
  0.00000000E+00  0.00000000E+00  0.00000000E+00
  0.00000000E+00  0.00000000E+00  0.00000000E+00
  0.00000000E+00  0.00000000E+00  0.00000000E+00
  0.00000000E+00  0.00000000E+00  0.00000000E+00
  0.00000000E+00  0.00000000E+00  0.00000000E+00
  0.00000000E+00  0.00000000E+00  0.00000000E+00
  0.00000000E+00  0.00000000E+00  0.00000000E+00
  0.00000000E+00  0.00000000E+00  0.00000000E+00
  0.00000000E+00  0.00000000E+00  0.00000000E+00
  0.00000000E+00  0.00000000E+00  0.00000000E+00
  0.00000000E+00  0.00000000E+00  0.00000000E+00
  0.00000000E+00  0.00000000E+00  0.00000000E+00
  0.00000000E+00  0.00000000E+00  0.00000000E+00
  0.00000000E+00  0.00000000E+00  0.00000000E+00
  0.00000000E+00  0.00000000E+00  0.00000000E+00
  0.00000000E+00  0.00000000E+00  0.00000000E+00
  0.00000000E+00  0.00000000E+00  0.00000000E+00
  0.00000000E+00  0.00000000E+00  0.00000000E+00
  0.00000000E+00  0.00000000E+00  0.00000000E+00
  0.00000000E+00  0.00000000E+00  0.00000000E+00
  0.00000000E+00  0.00000000E+00  0.00000000E+00
  0.00000000E+00  0.00000000E+00  0.00000000E+00
  0.00000000E+00  0.00000000E+00  0.00000000E+00
  0.00000000E+00  0.00000000E+00  0.00000000E+00
  0.00000000E+00  0.00000000E+00  0.00000000E+00
  0.00000000E+00  0.00000000E+00  0.00000000E+00
  0.00000000E+00  0.00000000E+00  0.00000000E+00
  0.00000000E+00  0.00000000E+00  0.00000000E+00
  0.00000000E+00  0.00000000E+00  0.00000000E+00
  0.00000000E+00  0.00000000E+00  0.00000000E+00
  0.00000000E+00  0.00000000E+00  0.00000000E+00
  0.00000000E+00  0.00000000E+00  0.00000000E+00
  0.00000000E+00  0.00000000E+00  0.00000000E+00
  0.00000000E+00  0.00000000E+00  0.00000000E+00
  0.00000000E+00  0.00000000E+00  0.00000000E+00
  0.00000000E+00  0.00000000E+00  0.00000000E+00
  0.00000000E+00  0.00000000E+00  0.00000000E+00
  0.00000000E+00  0.00000000E+00  0.00000000E+00
  0.00000000E+00  0.00000000E+00  0.00000000E+00
  0.00000000E+00  0.00000000E+00  0.00000000E+00
  0.00000000E+00  0.00000000E+00  0.00000000E+00
  0.00000000E+00  0.00000000E+00  0.00000000E+00
  0.00000000E+00  0.00000000E+00  0.00000000E+00
  0.00000000E+00  0.00000000E+00  0.00000000E+00
  0.00000000E+00  0.00000000E+00  0.00000000E+00
  0.00000000E+00  0.00000000E+00  0.00000000E+00
  0.00000000E+00  0.00000000E+00  0.00000000E+00
  0.00000000E+00  0.00000000E+00  0.00000000E+00
  0.00000000E+00  0.00000000E+00  0.00000000E+00
  0.00000000E+00  0.00000000E+00  0.00000000E+00
  0.00000000E+00  0.00000000E+00  0.00000000E+00
  0.00000000E+00  0.00000000E+00  0.00000000E+00
  0.00000000E+00  0.00000000E+00  0.00000000E+00
  0.00000000E+00  0.00000000E+00  0.00000000E+00
  0.00000000E+00  0.00000000E+00  0.00000000E+00
  0.00000000E+00  0.00000000E+00  0.00000000E+00
  0.00000000E+00  0.00000000E+00  0.00000000E+00
  0.00000000E+00  0.00000000E+00  0.00000000E+00
  0.00000000E+00  0.00000000E+00  0.00000000E+00
  0.00000000E+00  0.00000000E+00  0.00000000E+00
  0.00000000E+00  0.00000000E+00  0.00000000E+00
  0.00000000E+00  0.00000000E+00  0.00000000E+00
  0.00000000E+00  0.00000000E+00  0.00000000E+00
  0.00000000E+00  0.00000000E+00  0.00000000E+00
  0.00000000E+00  0.00000000E+00  0.00000000E+00
  0.00000000E+00  0.00000000E+00  0.00000000E+00
  0.00000000E+00  0.00000000E+00  0.00000000E+00
  0.00000000E+00  0.00000000E+00  0.00000000E+00
  0.00000000E+00  0.00000000E+00  0.00000000E+00
  0.00000000E+00  0.00000000E+00  0.00000000E+00
  0.00000000E+00  0.00000000E+00  0.00000000E+00
  0.00000000E+00  0.00000000E+00  0.00000000E+00
  0.00000000E+00  0.00000000E+00  0.00000000E+00
  0.00000000E+00  0.00000000E+00  0.00000000E+00
  0.00000000E+00  0.00000000E+00  0.00000000E+00
  0.00000000E+00  0.00000000E+00  0.00000000E+00
  0.00000000E+00  0.00000000E+00  0.00000000E+00
  0.00000000E+00  0.00000000E+00  0.00000000E+00
  0.00000000E+00  0.00000000E+00  0.00000000E+00
  0.00000000E+00  0.00000000E+00  0.00000000E+00
  0.00000000E+00  0.00000000E+00  0.00000000E+00
  0.00000000E+00  0.00000000E+00  0.00000000E+00
  0.00000000E+00  0.00000000E+00  0.00000000E+00
  0.00000000E+00  0.00000000E+00  0.00000000E+00
  0.00000000E+00  0.00000000E+00  0.00000000E+00
  0.00000000E+00  0.00000000E+00  0.00000000E+00
  0.00000000E+00  0.00000000E+00  0.00000000E+00
  0.00000000E+00  0.00000000E+00  0.00000000E+00
  0.00000000E+00  0.00000000E+00  0.00000000E+00
  0.00000000E+00  0.00000000E+00  0.00000000E+00
  0.00000000E+00  0.00000000E+00  0.00000000E+00
  0.00000000E+00  0.00000000E+00  0.00000000E+00
  0.00000000E+00  0.00000000E+00  0.00000000E+00
  0.00000000E+00  0.00000000E+00  0.00000000E+00
  0.00000000E+00  0.00000000E+00  0.00000000E+00
  0.00000000E+00  0.00000000E+00  0.00000000E+00
  0.00000000E+00  0.00000000E+00  0.00000000E+00
