SrTiFeO                                 
   1.00000000000000     
    11.1989999999999998    0.0000000000000000    0.0000000000000000
     0.0000000000000000   11.1989999999999998    0.0000000000000000
     0.0000000000000000    0.0000000000000000   15.9830000000000005
   Sr   Ti   Fe   O 
    32    30     2    94
Direct
  0.9997721179752884  0.2504535060426108  0.1249716238559516
  0.0040437793112805  0.2497222919318049  0.6251573394827781
  0.0048464589242013  0.7499073458888401  0.1250064251133901
  0.0001385834243330  0.7502159970632147  0.6254565963682067
  0.5009039403022423  0.2505949470197505  0.1251235164439400
  0.4923436172925750  0.2451923698865794  0.6282122693700603
  0.4987372944994963  0.7497737054433351  0.1241391991787411
  0.4990461523163631  0.7514941717161713  0.6245389095807766
  0.0049286257991886  0.2491961132691035  0.3734246688581110
  0.9994184442461641  0.2509744569924781  0.8753828380815802
  0.0101454900622798  0.7504802904310217  0.3757934690733426
  0.0006946418615177  0.7499710297870686  0.8754088330105950
  0.4929415657674430  0.2446740116121550  0.3723632952664628
  0.5006093055162262  0.2512492045793623  0.8757929592440550
  0.4913262509410061  0.7528400801650199  0.3761520510554378
  0.4998780956866773  0.7488699147475609  0.8744999071946070
  0.2509960379276895  0.0004569119869302  0.1254671544782782
  0.2486081188879559  0.9996911608005166  0.6234748861638896
  0.2525868097000263  0.4999815465623365  0.1264062147449565
  0.2489560184119169  0.4980256301818695  0.6227775695841585
  0.7491733687783042  0.0030758910775914  0.1248966594381008
  0.7481938277140651  0.9965789129229380  0.6256534698599214
  0.7514266868042301  0.4971765224894190  0.1234722932160048
  0.7503927348522283  0.5043050420207632  0.6289343220266578
  0.2499692907666274  0.0013650921395731  0.3753266945568900
  0.2497996397243304  0.0006810088392045  0.8750684226230723
  0.2497371096711982  0.4958902268808686  0.3759652604131892
  0.2514342079123659  0.5000577878133151  0.8743373633788470
  0.7477511008024683  0.0090132987657568  0.3758760607206924
  0.7502231477407346  0.0015928267429978  0.8749108927380339
  0.7503259396617622  0.4935842690250604  0.3732126882510745
  0.7503686276057651  0.5004404250371497  0.8770820967207356
  0.9994423185834260  0.9998396518548879  0.0003112297835014
  0.9987230030064956  0.9974906280640427  0.4986849637733148
  0.0005244146121313  0.5008197756626359  0.0003303976321503
  0.9967020948583198  0.5027154425420077  0.4990053268312035
  0.5000010531624434  0.9995285360018104  0.9999578115431427
  0.4996916177481674  0.9988911172165685  0.4994941752458448
  0.5002569235248825  0.5012372085652229  0.0002737325553882
  0.2502011823170787  0.2499654790827978  0.0003195239868512
  0.2503146468351118  0.2501339038285603  0.5005741919017720
  0.2508667990894425  0.7496709198322438  0.9997219398415249
  0.2480998130120264  0.7507120974647133  0.5007224257937685
  0.7507500330133091  0.2494689676998365  0.0003857433156721
  0.7498417323585674  0.7507343836767267  0.9994631891057713
  0.2500356173744503  0.2491969673624405  0.2482094804038198
  0.2488644277218739  0.2500111730010998  0.7500015861700061
  0.2510380272247759  0.7499446402562979  0.2500553660923007
  0.2499104491408957  0.7498273143902985  0.7494957291634611
  0.7494556676942680  0.2507216111361091  0.2512235193870382
  0.7484877226150138  0.2514508940588751  0.7502327893944289
  0.7511856978962974  0.7491070043710631  0.2435962563716493
  0.7497982714655903  0.7504195096296328  0.7525957622054286
  0.9995453904822880  0.9995291886871308  0.2514059949489659
  0.9987953599719970  0.9999175288309581  0.7496155724589910
  0.0004371590232261  0.4995293021718433  0.2507157693579711
  0.9996524700959981  0.5007232421429751  0.7501071403798457
  0.5019068601387985  0.9988105976070881  0.2500359501835854
  0.4997980103865398  0.9992308570956471  0.7506698488673478
  0.5020172465335516  0.4984541823213184  0.2537682543824689
  0.5011644821929273  0.4991844304522641  0.7479746797193314
  0.7575591917832765  0.2457086869116805  0.5032091318728281
  0.4938462445112854  0.5118843375495881  0.4992951441569200
  0.7501320399530824  0.7487965606860153  0.5094007397244026
  0.1100747005780528  0.1393514408721126  0.2463617004339498
  0.1081771113941358  0.1405958481283076  0.7485587470454670
  0.1131747891852913  0.6378859234533962  0.2504383560388090
  0.1093020737719799  0.6411775641794187  0.7504137486224028
  0.6094729934676142  0.1405200390818650  0.2487786062040160
  0.6082411388907427  0.1408919068029990  0.7505233839250794
  0.6148615551806050  0.6404360099352305  0.2652201715422343
  0.6088287085234712  0.6414588215534321  0.7476265598029073
  0.3902341438162955  0.3600884158176745  0.2483233604152842
  0.3902707997343438  0.3594188273325538  0.7505952112109967
  0.3896755185029320  0.8599046053393343  0.2490449971668968
  0.3909706813770051  0.8584450389491448  0.7493457748299585
  0.8905751254501669  0.3597232212402814  0.2497155886711886
  0.8907076809017593  0.3595675555434614  0.7477650346260409
  0.8875338355255838  0.8583543256008496  0.2623241766319241
  0.8904545314074568  0.8596174239657682  0.7528838088587876
  0.3596923574023346  0.1110267861578108  0.2491057537925132
  0.3593364500026660  0.1094234997884921  0.7459877612713930
  0.3638566053330594  0.6100913380621085  0.2567220534292746
  0.3604380756929864  0.6083723389749915  0.7444337596736534
  0.8602860248107678  0.1096546537769056  0.2527741062735135
  0.8576121800258831  0.1105512911644382  0.7453409922357621
  0.8628176449987844  0.6104784691583600  0.2588122273176495
  0.8591726714690174  0.6097973895985569  0.7516321359580675
  0.1409209984080785  0.3888290784594218  0.2478709050009300
  0.1399698456914789  0.3911780455498661  0.7486545172550005
  0.1396386614844446  0.8874547111316013  0.2467760909321615
  0.1405276298504740  0.8909328681182715  0.7500453556024502
  0.6412192887265534  0.3912928656985509  0.2432569979050544
  0.6410843784768980  0.3918754349547792  0.7568324735102950
  0.6388053684969048  0.8920809711277663  0.2571720636362196
  0.6412944669113744  0.8915522725798340  0.7520775129440310
  0.3601427578903637  0.3912840909400163  0.0005485608723672
  0.3580718090801256  0.8910596400367342  0.0004062718487052
  0.3620673485221889  0.8872779844930859  0.5005940100010123
  0.8598972877966865  0.3905758682212643 -0.0000009055661651
  0.8585334514293959  0.8910254766132633  0.9980022192260101
  0.8598105005722272  0.8869948677193031  0.4881960725228596
  0.1402870915002642  0.1086131531713004  0.0017387310805474
  0.1378631943212649  0.1110828401526481  0.5026989879582350
  0.1413995249047807  0.6091196487950564  0.0002069558146859
  0.1391271168790627  0.6108201720654118  0.4989308150868333
  0.6404756902677009  0.1095241755306343  0.9991564925721175
  0.6286199610790653  0.1247439555661768  0.5008558479811565
  0.6413458761946661  0.6092610511008572  0.0001711397899537
  0.1094898001728933  0.3594039687730657  0.0006247274910439
  0.1111909711999082  0.3618429424140497  0.5023589128274419
  0.1095002115952125  0.8585955106595322  0.9999136131771545
  0.1112382859131696  0.8598799070156240  0.5012184864600652
  0.6101223541788051  0.3604972772029262  0.0004028640641212
  0.6072716787886995  0.8598092811951624  0.9968243480022224
  0.6158770473078578  0.8634276875562161  0.4898848797262947
  0.3905041968721821  0.1412408331526644  0.0002044746453022
  0.3837029275688433  0.1338859290404706  0.5030906712768467
  0.3914097275858867  0.6419975393481597  0.9996530245786742
  0.8915020307718972  0.1403848274616302  0.0002588582713781
  0.8920530775277096  0.1368347970986851  0.4937160926538843
  0.8916429183381009  0.6411175082069125  0.9997894964347527
  0.9936423186565911  0.9941720923162415  0.1256625424074412
  0.9942676337468672  0.9951093140573931  0.6242653472481201
  0.9971498318096013  0.5030626011916342  0.1256193319124525
  0.9974372611177356  0.5063063236015358  0.6241631007793603
  0.5020785789765451  0.9978795726290149  0.1245928081467401
  0.5055113717551482  0.9938686487166990  0.6243059879425186
  0.5010488989276024  0.5081509327749848  0.1266161495764427
  0.5143380064774978  0.4882213575350222  0.6221126981744192
  0.0117529359483832  0.0017976072946935  0.3736535651504778
  0.9997903345220061  0.0027260660427048  0.8746459746372073
  0.0057744075993875  0.4917246154355105  0.3754456109678225
  0.0005881009209896  0.4990019046211192  0.8747547942071124
  0.4942801203339394  0.0050394758139261  0.3754846488158960
  0.4959945667843836  0.0018884916668655  0.8741340723856261
  0.4976360310526880  0.5032940226338690  0.8749343180451636
  0.2482693971022397  0.2495510489978608  0.3748048858915865
  0.2489289117891219  0.2486569745082353  0.8747126814960632
  0.2489678244478246  0.7536684996789610  0.3752588070423935
  0.2518233368559591  0.7479679551468088  0.8743654099889391
  0.7530395468030979  0.2477891669669621  0.8750283642936956
  0.7483081053377197  0.7478623885371852  0.8748056446718698
  0.2511072511902565  0.2501340348948310  0.1240644086196556
  0.2482051569652810  0.2517949143620334  0.6260274898631366
  0.2526424816290360  0.7459169372672184  0.1251419404557945
  0.2484739451583256  0.7507127880687505  0.6249391562128311
  0.7523804079410727  0.2473305798392635  0.1239549329980474
  0.7352253838057838  0.2620590953748185  0.6251851553242311
  0.7454564076653193  0.7543068181692651  0.1227736533779097
  0.7526725158767678  0.7537311007390740  0.6273450546888687
  0.7415767979687095  0.2565215956461191  0.3734748481589711
  0.8530481337258897  0.3946841651524568  0.5023588078263972
  0.3867517921928331  0.6408735416058184  0.5000176809249710
  0.5086196252024012  0.4792289128970412  0.3777598792382025
  0.3709180106941381  0.3808326528768775  0.5015659018509920
  0.8889490400607238  0.6421361128637370  0.4892880356300824
  0.6432076559940512  0.6094856444302477  0.4917374128440913
 
  0.00000000E+00  0.00000000E+00  0.00000000E+00
  0.00000000E+00  0.00000000E+00  0.00000000E+00
  0.00000000E+00  0.00000000E+00  0.00000000E+00
  0.00000000E+00  0.00000000E+00  0.00000000E+00
  0.00000000E+00  0.00000000E+00  0.00000000E+00
  0.00000000E+00  0.00000000E+00  0.00000000E+00
  0.00000000E+00  0.00000000E+00  0.00000000E+00
  0.00000000E+00  0.00000000E+00  0.00000000E+00
  0.00000000E+00  0.00000000E+00  0.00000000E+00
  0.00000000E+00  0.00000000E+00  0.00000000E+00
  0.00000000E+00  0.00000000E+00  0.00000000E+00
  0.00000000E+00  0.00000000E+00  0.00000000E+00
  0.00000000E+00  0.00000000E+00  0.00000000E+00
  0.00000000E+00  0.00000000E+00  0.00000000E+00
  0.00000000E+00  0.00000000E+00  0.00000000E+00
  0.00000000E+00  0.00000000E+00  0.00000000E+00
  0.00000000E+00  0.00000000E+00  0.00000000E+00
  0.00000000E+00  0.00000000E+00  0.00000000E+00
  0.00000000E+00  0.00000000E+00  0.00000000E+00
  0.00000000E+00  0.00000000E+00  0.00000000E+00
  0.00000000E+00  0.00000000E+00  0.00000000E+00
  0.00000000E+00  0.00000000E+00  0.00000000E+00
  0.00000000E+00  0.00000000E+00  0.00000000E+00
  0.00000000E+00  0.00000000E+00  0.00000000E+00
  0.00000000E+00  0.00000000E+00  0.00000000E+00
  0.00000000E+00  0.00000000E+00  0.00000000E+00
  0.00000000E+00  0.00000000E+00  0.00000000E+00
  0.00000000E+00  0.00000000E+00  0.00000000E+00
  0.00000000E+00  0.00000000E+00  0.00000000E+00
  0.00000000E+00  0.00000000E+00  0.00000000E+00
  0.00000000E+00  0.00000000E+00  0.00000000E+00
  0.00000000E+00  0.00000000E+00  0.00000000E+00
  0.00000000E+00  0.00000000E+00  0.00000000E+00
  0.00000000E+00  0.00000000E+00  0.00000000E+00
  0.00000000E+00  0.00000000E+00  0.00000000E+00
  0.00000000E+00  0.00000000E+00  0.00000000E+00
  0.00000000E+00  0.00000000E+00  0.00000000E+00
  0.00000000E+00  0.00000000E+00  0.00000000E+00
  0.00000000E+00  0.00000000E+00  0.00000000E+00
  0.00000000E+00  0.00000000E+00  0.00000000E+00
  0.00000000E+00  0.00000000E+00  0.00000000E+00
  0.00000000E+00  0.00000000E+00  0.00000000E+00
  0.00000000E+00  0.00000000E+00  0.00000000E+00
  0.00000000E+00  0.00000000E+00  0.00000000E+00
  0.00000000E+00  0.00000000E+00  0.00000000E+00
  0.00000000E+00  0.00000000E+00  0.00000000E+00
  0.00000000E+00  0.00000000E+00  0.00000000E+00
  0.00000000E+00  0.00000000E+00  0.00000000E+00
  0.00000000E+00  0.00000000E+00  0.00000000E+00
  0.00000000E+00  0.00000000E+00  0.00000000E+00
  0.00000000E+00  0.00000000E+00  0.00000000E+00
  0.00000000E+00  0.00000000E+00  0.00000000E+00
  0.00000000E+00  0.00000000E+00  0.00000000E+00
  0.00000000E+00  0.00000000E+00  0.00000000E+00
  0.00000000E+00  0.00000000E+00  0.00000000E+00
  0.00000000E+00  0.00000000E+00  0.00000000E+00
  0.00000000E+00  0.00000000E+00  0.00000000E+00
  0.00000000E+00  0.00000000E+00  0.00000000E+00
  0.00000000E+00  0.00000000E+00  0.00000000E+00
  0.00000000E+00  0.00000000E+00  0.00000000E+00
  0.00000000E+00  0.00000000E+00  0.00000000E+00
  0.00000000E+00  0.00000000E+00  0.00000000E+00
  0.00000000E+00  0.00000000E+00  0.00000000E+00
  0.00000000E+00  0.00000000E+00  0.00000000E+00
  0.00000000E+00  0.00000000E+00  0.00000000E+00
  0.00000000E+00  0.00000000E+00  0.00000000E+00
  0.00000000E+00  0.00000000E+00  0.00000000E+00
  0.00000000E+00  0.00000000E+00  0.00000000E+00
  0.00000000E+00  0.00000000E+00  0.00000000E+00
  0.00000000E+00  0.00000000E+00  0.00000000E+00
  0.00000000E+00  0.00000000E+00  0.00000000E+00
  0.00000000E+00  0.00000000E+00  0.00000000E+00
  0.00000000E+00  0.00000000E+00  0.00000000E+00
  0.00000000E+00  0.00000000E+00  0.00000000E+00
  0.00000000E+00  0.00000000E+00  0.00000000E+00
  0.00000000E+00  0.00000000E+00  0.00000000E+00
  0.00000000E+00  0.00000000E+00  0.00000000E+00
  0.00000000E+00  0.00000000E+00  0.00000000E+00
  0.00000000E+00  0.00000000E+00  0.00000000E+00
  0.00000000E+00  0.00000000E+00  0.00000000E+00
  0.00000000E+00  0.00000000E+00  0.00000000E+00
  0.00000000E+00  0.00000000E+00  0.00000000E+00
  0.00000000E+00  0.00000000E+00  0.00000000E+00
  0.00000000E+00  0.00000000E+00  0.00000000E+00
  0.00000000E+00  0.00000000E+00  0.00000000E+00
  0.00000000E+00  0.00000000E+00  0.00000000E+00
  0.00000000E+00  0.00000000E+00  0.00000000E+00
  0.00000000E+00  0.00000000E+00  0.00000000E+00
  0.00000000E+00  0.00000000E+00  0.00000000E+00
  0.00000000E+00  0.00000000E+00  0.00000000E+00
  0.00000000E+00  0.00000000E+00  0.00000000E+00
  0.00000000E+00  0.00000000E+00  0.00000000E+00
  0.00000000E+00  0.00000000E+00  0.00000000E+00
  0.00000000E+00  0.00000000E+00  0.00000000E+00
  0.00000000E+00  0.00000000E+00  0.00000000E+00
  0.00000000E+00  0.00000000E+00  0.00000000E+00
  0.00000000E+00  0.00000000E+00  0.00000000E+00
  0.00000000E+00  0.00000000E+00  0.00000000E+00
  0.00000000E+00  0.00000000E+00  0.00000000E+00
  0.00000000E+00  0.00000000E+00  0.00000000E+00
  0.00000000E+00  0.00000000E+00  0.00000000E+00
  0.00000000E+00  0.00000000E+00  0.00000000E+00
  0.00000000E+00  0.00000000E+00  0.00000000E+00
  0.00000000E+00  0.00000000E+00  0.00000000E+00
  0.00000000E+00  0.00000000E+00  0.00000000E+00
  0.00000000E+00  0.00000000E+00  0.00000000E+00
  0.00000000E+00  0.00000000E+00  0.00000000E+00
  0.00000000E+00  0.00000000E+00  0.00000000E+00
  0.00000000E+00  0.00000000E+00  0.00000000E+00
  0.00000000E+00  0.00000000E+00  0.00000000E+00
  0.00000000E+00  0.00000000E+00  0.00000000E+00
  0.00000000E+00  0.00000000E+00  0.00000000E+00
  0.00000000E+00  0.00000000E+00  0.00000000E+00
  0.00000000E+00  0.00000000E+00  0.00000000E+00
  0.00000000E+00  0.00000000E+00  0.00000000E+00
  0.00000000E+00  0.00000000E+00  0.00000000E+00
  0.00000000E+00  0.00000000E+00  0.00000000E+00
  0.00000000E+00  0.00000000E+00  0.00000000E+00
  0.00000000E+00  0.00000000E+00  0.00000000E+00
  0.00000000E+00  0.00000000E+00  0.00000000E+00
  0.00000000E+00  0.00000000E+00  0.00000000E+00
  0.00000000E+00  0.00000000E+00  0.00000000E+00
  0.00000000E+00  0.00000000E+00  0.00000000E+00
  0.00000000E+00  0.00000000E+00  0.00000000E+00
  0.00000000E+00  0.00000000E+00  0.00000000E+00
  0.00000000E+00  0.00000000E+00  0.00000000E+00
  0.00000000E+00  0.00000000E+00  0.00000000E+00
  0.00000000E+00  0.00000000E+00  0.00000000E+00
  0.00000000E+00  0.00000000E+00  0.00000000E+00
  0.00000000E+00  0.00000000E+00  0.00000000E+00
  0.00000000E+00  0.00000000E+00  0.00000000E+00
  0.00000000E+00  0.00000000E+00  0.00000000E+00
  0.00000000E+00  0.00000000E+00  0.00000000E+00
  0.00000000E+00  0.00000000E+00  0.00000000E+00
  0.00000000E+00  0.00000000E+00  0.00000000E+00
  0.00000000E+00  0.00000000E+00  0.00000000E+00
  0.00000000E+00  0.00000000E+00  0.00000000E+00
  0.00000000E+00  0.00000000E+00  0.00000000E+00
  0.00000000E+00  0.00000000E+00  0.00000000E+00
  0.00000000E+00  0.00000000E+00  0.00000000E+00
  0.00000000E+00  0.00000000E+00  0.00000000E+00
  0.00000000E+00  0.00000000E+00  0.00000000E+00
  0.00000000E+00  0.00000000E+00  0.00000000E+00
  0.00000000E+00  0.00000000E+00  0.00000000E+00
  0.00000000E+00  0.00000000E+00  0.00000000E+00
  0.00000000E+00  0.00000000E+00  0.00000000E+00
  0.00000000E+00  0.00000000E+00  0.00000000E+00
  0.00000000E+00  0.00000000E+00  0.00000000E+00
  0.00000000E+00  0.00000000E+00  0.00000000E+00
  0.00000000E+00  0.00000000E+00  0.00000000E+00
  0.00000000E+00  0.00000000E+00  0.00000000E+00
  0.00000000E+00  0.00000000E+00  0.00000000E+00
  0.00000000E+00  0.00000000E+00  0.00000000E+00
  0.00000000E+00  0.00000000E+00  0.00000000E+00
  0.00000000E+00  0.00000000E+00  0.00000000E+00
  0.00000000E+00  0.00000000E+00  0.00000000E+00
  0.00000000E+00  0.00000000E+00  0.00000000E+00
  0.00000000E+00  0.00000000E+00  0.00000000E+00
