SrTiFeO                                 
   1.00000000000000     
    11.1989999999999998    0.0000000000000000    0.0000000000000000
     0.0000000000000000   11.1989999999999998    0.0000000000000000
     0.0000000000000000    0.0000000000000000   15.9830000000000005
   Sr   Ti   O 
    32    32    94
Direct
  0.9996883973450069  0.2503080878448951  0.1248098788511485
  0.0027480212297947  0.2485832339240101  0.6262816674203300
  0.9998698275290544  0.7502662045885934  0.1250134401921375
  0.0011473340979410  0.7509300516760843  0.6255944479130320
  0.5007043165682792  0.2496650807468204  0.1248176764570933
  0.4964333301016071  0.2382156245579410  0.6274159511533361
  0.4997677915185182  0.7500009284615535  0.1250021301252658
  0.4990601246716169  0.7575012137173518  0.6257092058389524
  0.0035985123481648  0.2502511795169705  0.3739765145276204
  0.9994603883446436  0.2506963875176820  0.8751602179120888
  0.0010310943178952  0.7495223993390755  0.3745435055845656
  0.9997712304285299  0.7501572035781714  0.8749753590530986
  0.4969056469423024  0.2444640737357056  0.3712526528038424
  0.4996299993772974  0.2482630228126041  0.8763064419260328
  0.4988052408175499  0.7507645576761344  0.3742416724619996
  0.5003206937799752  0.7517947419040294  0.8762972534029830
  0.2500557077497592  0.0000603787420836  0.1248451609485786
  0.2486887076918449  0.9988741880077708  0.6248885432769874
  0.2499446939970578  0.5002369509341756  0.1254841450261590
  0.2428345350798796  0.4987327480796904  0.6256136024364499
  0.7499359923462856  0.0004665593579713  0.1250216884972488
  0.7496187564049147  0.9978948092629425  0.6251162565745142
  0.7511230785327910  0.5008036013586299  0.1243621298918477
  0.7612869002220487  0.5012260849745023  0.6289274880395370
  0.2498193224079699  0.9984096129588433  0.3746895912092179
  0.2497700217850663  0.0001619892147426  0.8750025682089255
  0.2498136269130983  0.4993607480981884  0.3750452705770024
  0.2483245593550294  0.5007258432079703  0.8762224881286126
  0.7488520269395397  0.9977506520235923  0.3741899261453233
  0.7502367318565520  0.0006446024230674  0.8747109532597427
  0.7526049452753263  0.5009422989428683  0.3719551309026288
  0.7519002250780527  0.4999268888486988  0.8766247223634746
  0.9996078314453768  0.0003678149285151  0.9996505429457743
  0.0018145654923897  0.9969328789023854  0.4992867733534999
  0.0002550531745034  0.5000131970367445  0.0003291502690696
  0.9999134154516809  0.5006865602848218  0.4995846058308428
  0.4997290082651673  0.0000212390961603  0.0002435131452924
  0.4990620934862763  0.9991388944525846  0.4994331866165602
  0.4996377483837747  0.5003930729706220  0.0027410742842904
  0.2501708921324182  0.2502180900799619  0.0000525094249420
  0.2503041249473827  0.2483747907354567  0.5007935414995436
  0.2502246359742494  0.7498704112629873  0.0000373319739576
  0.2512969791312025  0.7487042569283343  0.5003645052084539
  0.7500905004108662  0.2500879543623922  0.0000939587798750
  0.7564402049104328  0.2461574613429477  0.4997843032714954
  0.7497215699492953  0.7500900339033912  0.0000483010471855
  0.2504738608829829  0.2503173687133000  0.2495419148522436
  0.2498364905957727  0.2496437914596840  0.7499687585391396
  0.2500832773523881  0.7491555486370404  0.2500306082959990
  0.2500102802125074  0.7497848430481620  0.7496510338271524
  0.7493993069661012  0.2507320118118130  0.2499191537033343
  0.7488743880113853  0.2505472391311958  0.7493307563892667
  0.7495035584288821  0.7493627954809859  0.2498767286349654
  0.7499861384934872  0.7500816226728299  0.7499050436594779
  0.9998969370092240  0.9999672968628658  0.2502970599908515
  0.9998382668129354  0.0000409080196359  0.7503206739174568
  0.0004892757450565  0.4998290974340917  0.2498496350215098
  0.0007885651029030  0.4999858174360211  0.7509704326023798
  0.4999663458839907  0.9989711589312784  0.2494292188554249
  0.4999635019271500  0.9992144892180040  0.7510443066589597
  0.5006070446912173  0.4991255126661715  0.2508844014341048
  0.5000326043837325  0.5000314135557525  0.7545524298597410
  0.5012180482057575  0.5011042408633609  0.5004141062320715
  0.7510311572165814  0.7489430569753823  0.5007407935610849
  0.1097842239756820  0.1410720281554781  0.2512393343179223
  0.1092879514148285  0.1403189148993731  0.7522441264305472
  0.1093276040318514  0.6405532631349516  0.2497920605642068
  0.1105760695574145  0.6395102545303130  0.7501163788622696
  0.6094284065747151  0.1403812017451687  0.2494560246298085
  0.6097245411264265  0.1401369739515359  0.7509847237048816
  0.6088938046517892  0.6408362858043136  0.2494938798357560
  0.3913635221798598  0.3584900006673380  0.2479343207021477
  0.3910921541549691  0.3617657454557063  0.7421853025753767
  0.3906544221079172  0.8589500076354587  0.2498364902522758
  0.3898195575038483  0.8600136860571522  0.7506958240364524
  0.8907508250938690  0.3591417022202668  0.2513783658549574
  0.8890035077158198  0.3606988826480216  0.7482221397508367
  0.8897401639886018  0.8597931663498795  0.2514012521030864
  0.8895904338619416  0.8609315097807874  0.7515034220626875
  0.3595779250452260  0.1095581059030096  0.2514176460087362
  0.3605965184086259  0.1105647090371938  0.7489133908707548
  0.3589139311553306  0.6087851485753434  0.2513024552745147
  0.3612691959362335  0.6089532507573047  0.7422381469367717
  0.8589166753234493  0.1104657086761442  0.2535846277186655
  0.8588576059876093  0.1113469045018578  0.7468295201263229
  0.8597835926511214  0.6096728875759916  0.2496047255895257
  0.8609060701747951  0.6110018709939383  0.7516025890603401
  0.1413020654312829  0.3909017640931673  0.2504085115725877
  0.1400576963880548  0.3897674107046524  0.7504880006683047
  0.1399544445405164  0.8907954872113143  0.2489549262912815
  0.1393198306654600  0.8905020325554679  0.7520771810454913
  0.6418920683446970  0.3910768692617938  0.2447482023873254
  0.6407942227721404  0.8903193884394059  0.2500157490136422
  0.6396943399069499  0.8897744883612916  0.7500353243940356
  0.3592674021979411  0.3911904522026201  0.0003503716218094
  0.3590014272267341  0.8906942292383396  0.9993684105795096
  0.3592535231847966  0.8909330555350151  0.5000985615216054
  0.8592062453836544  0.3906223374734867  0.9999739697837359
  0.8552531842390652  0.3933874379574622  0.4996775950630165
  0.8590996119878800  0.8906055621302414  0.9991196118596866
  0.8581767246225783  0.8923344523002774  0.4986081038088095
  0.1406005044646236  0.1094975836226607  0.9989845313333199
  0.1402746341004082  0.1094810719596886  0.4982184630796335
  0.1405648716626454  0.6093205565774813  0.0001410544805743
  0.1412698653810107  0.6088632393856750  0.4997952101977793
  0.6405578419888104  0.1097513193116134  0.9992517775313503
  0.6357329781694471  0.1172687178046614  0.4998410078830958
  0.6405394751428096  0.6090632916947817  0.0001592334717781
  0.1096104991289481  0.3591813263656026  0.9993815056790304
  0.1117102633301159  0.3608639735032472  0.5003780507180647
  0.1091500155567396  0.8597423631479306  0.9990460820962924
  0.1083355332495012  0.8593655594126360  0.4990210790952714
  0.6090893146902633  0.3596923863451952  0.0002170369770067
  0.6091492137420943  0.8594238997672056  0.0002945167493603
  0.6100343229117692  0.8592015798680636  0.5001195150851195
  0.3906384909896115  0.1408729467483545  0.0001798932299133
  0.3885060059725534  0.1375882102814839  0.4997021539159161
  0.3910087753147892  0.6412218170074203  0.9998875337250317
  0.3894903580302561  0.6438138210493020  0.5038574701695705
  0.8904340158122118  0.1410918252584171  0.9987473365932025
  0.8925944519874439  0.1418397726334454  0.4989904920799079
  0.8904543407965605  0.6406164155637286  0.9993829090964765
  0.9979014664021014  0.0017637719960012  0.1250675710185723
  0.0010175638333147  0.9998996332156871  0.6247208193743691
  0.9998823048331285  0.4990250763181533  0.1250570945393530
  0.0004521809419135  0.5002578889687690  0.6250183795119760
  0.4993127070510558  0.0001194476687892  0.1249656656124360
  0.5010119507924239  0.9994997676943975  0.6250324672452680
  0.4981402337174989  0.5020354319076433  0.1245753186067036
  0.0008555579572191  0.9996773846705801  0.3749114641132449
  0.9975345042355220  0.0017029249935131  0.8748830190493772
  0.0004711389838732  0.5000258598603695  0.3752108521328375
  0.9999935116127913  0.4989953545022126  0.8750899780778523
  0.5011201629545597  0.9989177647513133  0.3749380804302723
  0.4993747884108307  0.0001063763154764  0.8751337373046150
  0.4982100747927078  0.5014995580627073  0.8751409165028492
  0.2536861562154327  0.2556906367960604  0.3760633625914557
  0.2543570233201812  0.2522439004270980  0.8742697735638418
  0.2499245831590077  0.7505984742669118  0.3748500829893686
  0.2521059928546230  0.7464237722362648  0.8743237765849884
  0.7397943195908934  0.2583631229127278  0.3765529448492982
  0.7488653157809183  0.2528757583983414  0.8737871905890086
  0.7467584816592984  0.7459034502350957  0.3760442895028224
  0.7460863129092749  0.7479057905964035  0.8744343765490445
  0.2491489459666485  0.2490312052581457  0.1249342367985922
  0.2440518451585584  0.2447414926539677  0.6254569244052770
  0.2500593732429719  0.7498057283316407  0.1246859820428965
  0.2453086606157893  0.7552023187714803  0.6254726968735234
  0.7522817160558609  0.2476642523475493  0.1247381732005085
  0.7426325930056669  0.2550131056292249  0.6226796755256994
  0.7507615758063451  0.7502874304578969  0.1249460148776023
  0.6380889354696960  0.3923259098527013  0.7455446270881055
  0.6087977615551986  0.6386312036904622  0.7424627588913687
  0.5044989329399269  0.4931183175679932  0.3731152592132964
  0.3715635085264796  0.3829314539001671  0.5117753674296956
  0.7548323664163255  0.7543858201321924  0.6252490053514712
  0.8930917202423633  0.6428021701847668  0.5002081862545871
  0.6451290189228434  0.6024227733594226  0.5088937764447597
 
  0.00000000E+00  0.00000000E+00  0.00000000E+00
  0.00000000E+00  0.00000000E+00  0.00000000E+00
  0.00000000E+00  0.00000000E+00  0.00000000E+00
  0.00000000E+00  0.00000000E+00  0.00000000E+00
  0.00000000E+00  0.00000000E+00  0.00000000E+00
  0.00000000E+00  0.00000000E+00  0.00000000E+00
  0.00000000E+00  0.00000000E+00  0.00000000E+00
  0.00000000E+00  0.00000000E+00  0.00000000E+00
  0.00000000E+00  0.00000000E+00  0.00000000E+00
  0.00000000E+00  0.00000000E+00  0.00000000E+00
  0.00000000E+00  0.00000000E+00  0.00000000E+00
  0.00000000E+00  0.00000000E+00  0.00000000E+00
  0.00000000E+00  0.00000000E+00  0.00000000E+00
  0.00000000E+00  0.00000000E+00  0.00000000E+00
  0.00000000E+00  0.00000000E+00  0.00000000E+00
  0.00000000E+00  0.00000000E+00  0.00000000E+00
  0.00000000E+00  0.00000000E+00  0.00000000E+00
  0.00000000E+00  0.00000000E+00  0.00000000E+00
  0.00000000E+00  0.00000000E+00  0.00000000E+00
  0.00000000E+00  0.00000000E+00  0.00000000E+00
  0.00000000E+00  0.00000000E+00  0.00000000E+00
  0.00000000E+00  0.00000000E+00  0.00000000E+00
  0.00000000E+00  0.00000000E+00  0.00000000E+00
  0.00000000E+00  0.00000000E+00  0.00000000E+00
  0.00000000E+00  0.00000000E+00  0.00000000E+00
  0.00000000E+00  0.00000000E+00  0.00000000E+00
  0.00000000E+00  0.00000000E+00  0.00000000E+00
  0.00000000E+00  0.00000000E+00  0.00000000E+00
  0.00000000E+00  0.00000000E+00  0.00000000E+00
  0.00000000E+00  0.00000000E+00  0.00000000E+00
  0.00000000E+00  0.00000000E+00  0.00000000E+00
  0.00000000E+00  0.00000000E+00  0.00000000E+00
  0.00000000E+00  0.00000000E+00  0.00000000E+00
  0.00000000E+00  0.00000000E+00  0.00000000E+00
  0.00000000E+00  0.00000000E+00  0.00000000E+00
  0.00000000E+00  0.00000000E+00  0.00000000E+00
  0.00000000E+00  0.00000000E+00  0.00000000E+00
  0.00000000E+00  0.00000000E+00  0.00000000E+00
  0.00000000E+00  0.00000000E+00  0.00000000E+00
  0.00000000E+00  0.00000000E+00  0.00000000E+00
  0.00000000E+00  0.00000000E+00  0.00000000E+00
  0.00000000E+00  0.00000000E+00  0.00000000E+00
  0.00000000E+00  0.00000000E+00  0.00000000E+00
  0.00000000E+00  0.00000000E+00  0.00000000E+00
  0.00000000E+00  0.00000000E+00  0.00000000E+00
  0.00000000E+00  0.00000000E+00  0.00000000E+00
  0.00000000E+00  0.00000000E+00  0.00000000E+00
  0.00000000E+00  0.00000000E+00  0.00000000E+00
  0.00000000E+00  0.00000000E+00  0.00000000E+00
  0.00000000E+00  0.00000000E+00  0.00000000E+00
  0.00000000E+00  0.00000000E+00  0.00000000E+00
  0.00000000E+00  0.00000000E+00  0.00000000E+00
  0.00000000E+00  0.00000000E+00  0.00000000E+00
  0.00000000E+00  0.00000000E+00  0.00000000E+00
  0.00000000E+00  0.00000000E+00  0.00000000E+00
  0.00000000E+00  0.00000000E+00  0.00000000E+00
  0.00000000E+00  0.00000000E+00  0.00000000E+00
  0.00000000E+00  0.00000000E+00  0.00000000E+00
  0.00000000E+00  0.00000000E+00  0.00000000E+00
  0.00000000E+00  0.00000000E+00  0.00000000E+00
  0.00000000E+00  0.00000000E+00  0.00000000E+00
  0.00000000E+00  0.00000000E+00  0.00000000E+00
  0.00000000E+00  0.00000000E+00  0.00000000E+00
  0.00000000E+00  0.00000000E+00  0.00000000E+00
  0.00000000E+00  0.00000000E+00  0.00000000E+00
  0.00000000E+00  0.00000000E+00  0.00000000E+00
  0.00000000E+00  0.00000000E+00  0.00000000E+00
  0.00000000E+00  0.00000000E+00  0.00000000E+00
  0.00000000E+00  0.00000000E+00  0.00000000E+00
  0.00000000E+00  0.00000000E+00  0.00000000E+00
  0.00000000E+00  0.00000000E+00  0.00000000E+00
  0.00000000E+00  0.00000000E+00  0.00000000E+00
  0.00000000E+00  0.00000000E+00  0.00000000E+00
  0.00000000E+00  0.00000000E+00  0.00000000E+00
  0.00000000E+00  0.00000000E+00  0.00000000E+00
  0.00000000E+00  0.00000000E+00  0.00000000E+00
  0.00000000E+00  0.00000000E+00  0.00000000E+00
  0.00000000E+00  0.00000000E+00  0.00000000E+00
  0.00000000E+00  0.00000000E+00  0.00000000E+00
  0.00000000E+00  0.00000000E+00  0.00000000E+00
  0.00000000E+00  0.00000000E+00  0.00000000E+00
  0.00000000E+00  0.00000000E+00  0.00000000E+00
  0.00000000E+00  0.00000000E+00  0.00000000E+00
  0.00000000E+00  0.00000000E+00  0.00000000E+00
  0.00000000E+00  0.00000000E+00  0.00000000E+00
  0.00000000E+00  0.00000000E+00  0.00000000E+00
  0.00000000E+00  0.00000000E+00  0.00000000E+00
  0.00000000E+00  0.00000000E+00  0.00000000E+00
  0.00000000E+00  0.00000000E+00  0.00000000E+00
  0.00000000E+00  0.00000000E+00  0.00000000E+00
  0.00000000E+00  0.00000000E+00  0.00000000E+00
  0.00000000E+00  0.00000000E+00  0.00000000E+00
  0.00000000E+00  0.00000000E+00  0.00000000E+00
  0.00000000E+00  0.00000000E+00  0.00000000E+00
  0.00000000E+00  0.00000000E+00  0.00000000E+00
  0.00000000E+00  0.00000000E+00  0.00000000E+00
  0.00000000E+00  0.00000000E+00  0.00000000E+00
  0.00000000E+00  0.00000000E+00  0.00000000E+00
  0.00000000E+00  0.00000000E+00  0.00000000E+00
  0.00000000E+00  0.00000000E+00  0.00000000E+00
  0.00000000E+00  0.00000000E+00  0.00000000E+00
  0.00000000E+00  0.00000000E+00  0.00000000E+00
  0.00000000E+00  0.00000000E+00  0.00000000E+00
  0.00000000E+00  0.00000000E+00  0.00000000E+00
  0.00000000E+00  0.00000000E+00  0.00000000E+00
  0.00000000E+00  0.00000000E+00  0.00000000E+00
  0.00000000E+00  0.00000000E+00  0.00000000E+00
  0.00000000E+00  0.00000000E+00  0.00000000E+00
  0.00000000E+00  0.00000000E+00  0.00000000E+00
  0.00000000E+00  0.00000000E+00  0.00000000E+00
  0.00000000E+00  0.00000000E+00  0.00000000E+00
  0.00000000E+00  0.00000000E+00  0.00000000E+00
  0.00000000E+00  0.00000000E+00  0.00000000E+00
  0.00000000E+00  0.00000000E+00  0.00000000E+00
  0.00000000E+00  0.00000000E+00  0.00000000E+00
  0.00000000E+00  0.00000000E+00  0.00000000E+00
  0.00000000E+00  0.00000000E+00  0.00000000E+00
  0.00000000E+00  0.00000000E+00  0.00000000E+00
  0.00000000E+00  0.00000000E+00  0.00000000E+00
  0.00000000E+00  0.00000000E+00  0.00000000E+00
  0.00000000E+00  0.00000000E+00  0.00000000E+00
  0.00000000E+00  0.00000000E+00  0.00000000E+00
  0.00000000E+00  0.00000000E+00  0.00000000E+00
  0.00000000E+00  0.00000000E+00  0.00000000E+00
  0.00000000E+00  0.00000000E+00  0.00000000E+00
  0.00000000E+00  0.00000000E+00  0.00000000E+00
  0.00000000E+00  0.00000000E+00  0.00000000E+00
  0.00000000E+00  0.00000000E+00  0.00000000E+00
  0.00000000E+00  0.00000000E+00  0.00000000E+00
  0.00000000E+00  0.00000000E+00  0.00000000E+00
  0.00000000E+00  0.00000000E+00  0.00000000E+00
  0.00000000E+00  0.00000000E+00  0.00000000E+00
  0.00000000E+00  0.00000000E+00  0.00000000E+00
  0.00000000E+00  0.00000000E+00  0.00000000E+00
  0.00000000E+00  0.00000000E+00  0.00000000E+00
  0.00000000E+00  0.00000000E+00  0.00000000E+00
  0.00000000E+00  0.00000000E+00  0.00000000E+00
  0.00000000E+00  0.00000000E+00  0.00000000E+00
  0.00000000E+00  0.00000000E+00  0.00000000E+00
  0.00000000E+00  0.00000000E+00  0.00000000E+00
  0.00000000E+00  0.00000000E+00  0.00000000E+00
  0.00000000E+00  0.00000000E+00  0.00000000E+00
  0.00000000E+00  0.00000000E+00  0.00000000E+00
  0.00000000E+00  0.00000000E+00  0.00000000E+00
  0.00000000E+00  0.00000000E+00  0.00000000E+00
  0.00000000E+00  0.00000000E+00  0.00000000E+00
  0.00000000E+00  0.00000000E+00  0.00000000E+00
  0.00000000E+00  0.00000000E+00  0.00000000E+00
  0.00000000E+00  0.00000000E+00  0.00000000E+00
  0.00000000E+00  0.00000000E+00  0.00000000E+00
  0.00000000E+00  0.00000000E+00  0.00000000E+00
  0.00000000E+00  0.00000000E+00  0.00000000E+00
  0.00000000E+00  0.00000000E+00  0.00000000E+00
  0.00000000E+00  0.00000000E+00  0.00000000E+00
  0.00000000E+00  0.00000000E+00  0.00000000E+00
  0.00000000E+00  0.00000000E+00  0.00000000E+00
  0.00000000E+00  0.00000000E+00  0.00000000E+00
  0.00000000E+00  0.00000000E+00  0.00000000E+00
