SrTiFeO                                 
   1.00000000000000     
    11.1989999999999998    0.0000000000000000    0.0000000000000000
     0.0000000000000000   11.1989999999999998    0.0000000000000000
     0.0000000000000000    0.0000000000000000   15.9830000000000005
   Sr   Ti   Fe   O 
    32    31     1    94
Direct
  0.0008479651947989  0.2493764795284602  0.1250564712110508
  0.9967281907997293  0.2497566100955583  0.6254928797213151
  0.9997891126598426  0.7507259460167229  0.1249825742986488
  0.9988281530616033  0.7518267546523170  0.6252882930408077
  0.5009431648497378  0.2502364685184458  0.1238899473284666
  0.5022433528376042  0.2391222477994782  0.6278652134931836
  0.5005587780983070  0.7483841808496723  0.1254919476010372
  0.4994910666251860  0.7545388784867902  0.6246895213175485
  0.9953222289886181  0.2514057391624808  0.3743649539544870
  0.0011083192100799  0.2493247840769371  0.8740622376731858
  0.9984547119832533  0.7501876566790164  0.3749737004749674
  0.9994677828169988  0.7505273178996371  0.8746749273121461
  0.5016058785795960  0.2502898272217868  0.3721359497170441
  0.4991435701963278  0.2482815013348628  0.8764603091281534
  0.4991650660945895  0.7442121964478519  0.3775512458713332
  0.5017854453214217  0.7499501440551505  0.8757058070194914
  0.2501249139002509  0.0005897666028612  0.1245435514726342
  0.2478386286485914  0.9953294531387585  0.6268029831234189
  0.2508360015850807  0.4986420568453962  0.1243411449547947
  0.2369362898132080  0.5036845939371950  0.6269013576088367
  0.7503149649978799  0.9998406646362784  0.1250790114356961
  0.7513024547422825  0.9989637542191546  0.6255499774396386
  0.7488443802693738  0.5004417339505054  0.1251964542743067
  0.7561723293802090  0.5014705047311543  0.6246005218848891
  0.2502579545877608  0.9933506231252244  0.3734150175912923
  0.2497649488833384  0.0011625985712153  0.8751148877083005
  0.2466333883255808  0.5039228412652484  0.3712440286248875
  0.2482418306436489  0.4995122172406070  0.8756008561241543
  0.7488060284752506  0.9992385502066055  0.3746734748716810
  0.7509979215279705  0.9992150264341517  0.8750543172752434
  0.7453987659830549  0.5014310782180139  0.3761613303678181
  0.7499990139973711  0.5006658349479265  0.8754713750100005
  0.0003720145718616  0.0004851357944945  0.9996481724976440
  0.9948457093451193  0.9966206987293721  0.4991316061077356
  0.9998233637957100  0.5002465341545719  0.0003127646177619
  0.9989409724927983  0.5012337313290266  0.4991455425719381
  0.4999466761553258  0.9995918567178750  0.0002976043589628
  0.5006715876172854  0.9996970753606543  0.4993803983410248
  0.5004900735047360  0.5004936060801651  0.0010495654106746
  0.2498592770114664  0.2499704849640194  0.9992005196614839
  0.2438138944743583  0.2392475907056437  0.4993300650768031
  0.2502700029954823  0.7495652594630454  0.9999733713646974
  0.2501240259542269  0.7475492900148913  0.5011144814416785
  0.7500198339026432  0.2504094109928086  0.9999481142728969
  0.7465002922073505  0.2506510346920671  0.5011116838423848
  0.7500238389827562  0.7495932186637873  0.0000649906743842
  0.2509288936117084  0.2507391665530578  0.2495190398929945
  0.2512574623339456  0.2506875275650164  0.7481025915980690
  0.2503660251943122  0.7492701180526812  0.2493299598891957
  0.2499932669486268  0.7497112538381735  0.7499451301789589
  0.7492202116607269  0.2504602306700541  0.2498535820049962
  0.7494468087901252  0.2497937995606155  0.7498655988430033
  0.7491550383413246  0.7499151723238037  0.2502257158743458
  0.7486466512706758  0.7497212392373277  0.7494487290531144
  0.0000048540542542  0.0002063072771228  0.2506452812538505
  0.9999442347964723  0.0000981099182945  0.7503623408500887
  0.9987324778121581  0.4998909726647735  0.2497731910255280
  0.9988288821712752  0.4998916953405365  0.7508299482539715
  0.4996998333692871  0.9990905469942981  0.2500519813243139
  0.4999230990791151  0.9988841269668338  0.7507112606717996
  0.4989367366838494  0.4992733869907109  0.2509123024380362
  0.4985134006434414  0.4981945454006484  0.7538121034906691
  0.7480585249083749  0.7478331836954585  0.5007348717822045
  0.5006255414873834  0.4985274845743687  0.5021667778115489
  0.1107630588845614  0.1418421499232176  0.2554433764938748
  0.1102085548844098  0.1399479311157974  0.7467708497316571
  0.1092292325109450  0.6405623691491775  0.2517249893874358
  0.1107186505850499  0.6389042551986366  0.7486879367256555
  0.6093056054959289  0.1403928929550882  0.2496752273406528
  0.6097248642691163  0.1397543068310953  0.7513042856355375
  0.6090947080795264  0.6413398461547529  0.2514153433379249
  0.3905742089847076  0.3579286646605419  0.2436395271963228
  0.3901094829724414  0.3585683148926666  0.7469140641208160
  0.3911388709276789  0.8585585236935112  0.2509877608885529
  0.3910525524455444  0.8585411711517628  0.7500586458640858
  0.8909423331274113  0.3586665397036080  0.2495596571031599
  0.8891612040714999  0.3604856402980663  0.7502461177013756
  0.8912256198688492  0.8600178234301715  0.2498567549090268
  0.8915296040003212  0.8612082266381581  0.7524236899645729
  0.3586130545290280  0.1087843552552254  0.2518777181198038
  0.3596377726012254  0.1086213162902234  0.7481208263309042
  0.3578207058314477  0.6093895794666144  0.2464698451413956
  0.3605091381031727  0.6084061651093927  0.7402968499480649
  0.8596239229666490  0.1102332171265951  0.2514793111467711
  0.8601631193901526  0.1105257360449141  0.7517940232174712
  0.8588625848950709  0.6087441149492343  0.2505675622181185
  0.8608658075719193  0.6102253261633295  0.7504112426115561
  0.1405951267119647  0.3910226838015514  0.2500765088310995
  0.1390038608369075  0.3897434938460621  0.7505775975391386
  0.1412980420192246  0.8902898690203410  0.2509144607037840
  0.1409504538651613  0.8901355631172432  0.7527443000528112
  0.6413455572408843  0.3903867537515576  0.2489497700206704
  0.6408935530650767  0.8914615707560209  0.2498234861810698
  0.6405207470099670  0.8916645317699903  0.7503481136761070
  0.3593193412658196  0.3902248603536952  0.0000923646355703
  0.3590270507969075  0.8905673852520635  0.9992236650926191
  0.3607667902428713  0.8891746550014834  0.5004388645264433
  0.8591036761905305  0.3914586439488609  0.0000425365896382
  0.8607406739942979  0.3898136837753147  0.5000605766793933
  0.8601300579653489  0.8914290365888237  0.0004156442502034
  0.8591885447047292  0.8926755850220264  0.4983055968438662
  0.1407601278064098  0.1092171699342686  0.9996037166354321
  0.1427630512205145  0.1073781021806247  0.4982619977175153
  0.1411319214904300  0.6089096280489447  0.9999993554998403
  0.1371741514580128  0.6116636524705789  0.4995396812815158
  0.6405695842823899  0.1094120424789793  0.9993588345885787
  0.6422122859947529  0.1075407830397559  0.5003044876739686
  0.6426149157618243  0.6103310367007571  0.0014619805809067
  0.1092431789574072  0.3595387226806725  0.9995256695945438
  0.1202835143418426  0.3654821939350816  0.4999021040567106
  0.1095813283527772  0.8591724363346921  0.9987297095023031
  0.1098563815263090  0.8599549934357248  0.4982015310961009
  0.6094959338218567  0.3591217229953657  0.0001064923637836
  0.6091909409538788  0.8597868708170650  0.0004066477711197
  0.6087747774906727  0.8602737257729793  0.4997027037603528
  0.3907098112863801  0.1404970224155790  0.0004660028751571
  0.3942175796083159  0.1469546272212580  0.4995204298824418
  0.3905972284083860  0.6411876670470831  0.0009777934060995
  0.3823933449805527  0.6284214700436557  0.5112947470681958
  0.8903689111809319  0.1415412043863677  0.9987802308031674
  0.8925713954168694  0.1417695620797669  0.4984901748759214
  0.8916432881211351  0.6412995956111330  0.9998263851975415
  0.0020185768533083  0.0028294355198948  0.1256943956686262
  0.0000687684356076  0.9989777478192736  0.6243692458327278
  0.0003028017263056  0.5007726655298240  0.1251226482014318
  0.9994329663697048  0.4986250363214777  0.6248773600201234
  0.4987556824790199  0.0000171830237511  0.1252077191776033
  0.4999497044410511  0.9996813394123747  0.6248446259910962
  0.5024139070675107  0.5017260572416440  0.1241666607588089
  0.0003798862192882  0.9991785052010560  0.3749176679690555
  0.0013636608211928  0.0025648680307338  0.8753939131251655
  0.9992869536295497  0.4984591894294499  0.3750104661894498
  0.0003771923954929  0.5007199970290853  0.8751237028421350
  0.4999047421014699  0.0003403417645384  0.3752934633788274
  0.4987657365449844  0.0002880223657535  0.8751048916813805
  0.5049194870625220  0.5056847034647945  0.8768328720445825
  0.2629376311979906  0.2647765623174811  0.3781724889183219
  0.2508814177578850  0.2492020741448864  0.8746829315473083
  0.2555240319503178  0.7465680999042807  0.3757994249400831
  0.2530062659736066  0.7445744377147364  0.8740536483217572
  0.7466696719318872  0.2531947490269496  0.3757572161163343
  0.7466463387646506  0.2547327346363584  0.8741020631989040
  0.7505945423272736  0.7502257056432485  0.3750016255794110
  0.7484948966888070  0.7494947185987809  0.8753223302383619
  0.2465190931216224  0.2471313283362094  0.1254023547205361
  0.2551501285074464  0.2567352607695838  0.6215408440246426
  0.2482209004295511  0.7517871122228980  0.1247720642507435
  0.2441342145312849  0.7565698409188791  0.6255358058095697
  0.7504782234401314  0.2488796563968640  0.1247040323801939
  0.7555320373746524  0.2441509952665892  0.6252478915709576
  0.7508739283930747  0.7507663965100005  0.1256350455202224
  0.6380796016493473  0.3899405722863605  0.7395979934645551
  0.6120098187543791  0.6424778771760005  0.7432273116107174
  0.4918664669177641  0.4951925792721981  0.3707032853001218
  0.6042869741326573  0.3562471146309047  0.5088735794009231
  0.7572811781971845  0.7574594366782803  0.6250056600958693
  0.8923449184428061  0.6411062586346205  0.5001255429315228
  0.6456797587539357  0.6136185587414572  0.5051419047823702
 
  0.00000000E+00  0.00000000E+00  0.00000000E+00
  0.00000000E+00  0.00000000E+00  0.00000000E+00
  0.00000000E+00  0.00000000E+00  0.00000000E+00
  0.00000000E+00  0.00000000E+00  0.00000000E+00
  0.00000000E+00  0.00000000E+00  0.00000000E+00
  0.00000000E+00  0.00000000E+00  0.00000000E+00
  0.00000000E+00  0.00000000E+00  0.00000000E+00
  0.00000000E+00  0.00000000E+00  0.00000000E+00
  0.00000000E+00  0.00000000E+00  0.00000000E+00
  0.00000000E+00  0.00000000E+00  0.00000000E+00
  0.00000000E+00  0.00000000E+00  0.00000000E+00
  0.00000000E+00  0.00000000E+00  0.00000000E+00
  0.00000000E+00  0.00000000E+00  0.00000000E+00
  0.00000000E+00  0.00000000E+00  0.00000000E+00
  0.00000000E+00  0.00000000E+00  0.00000000E+00
  0.00000000E+00  0.00000000E+00  0.00000000E+00
  0.00000000E+00  0.00000000E+00  0.00000000E+00
  0.00000000E+00  0.00000000E+00  0.00000000E+00
  0.00000000E+00  0.00000000E+00  0.00000000E+00
  0.00000000E+00  0.00000000E+00  0.00000000E+00
  0.00000000E+00  0.00000000E+00  0.00000000E+00
  0.00000000E+00  0.00000000E+00  0.00000000E+00
  0.00000000E+00  0.00000000E+00  0.00000000E+00
  0.00000000E+00  0.00000000E+00  0.00000000E+00
  0.00000000E+00  0.00000000E+00  0.00000000E+00
  0.00000000E+00  0.00000000E+00  0.00000000E+00
  0.00000000E+00  0.00000000E+00  0.00000000E+00
  0.00000000E+00  0.00000000E+00  0.00000000E+00
  0.00000000E+00  0.00000000E+00  0.00000000E+00
  0.00000000E+00  0.00000000E+00  0.00000000E+00
  0.00000000E+00  0.00000000E+00  0.00000000E+00
  0.00000000E+00  0.00000000E+00  0.00000000E+00
  0.00000000E+00  0.00000000E+00  0.00000000E+00
  0.00000000E+00  0.00000000E+00  0.00000000E+00
  0.00000000E+00  0.00000000E+00  0.00000000E+00
  0.00000000E+00  0.00000000E+00  0.00000000E+00
  0.00000000E+00  0.00000000E+00  0.00000000E+00
  0.00000000E+00  0.00000000E+00  0.00000000E+00
  0.00000000E+00  0.00000000E+00  0.00000000E+00
  0.00000000E+00  0.00000000E+00  0.00000000E+00
  0.00000000E+00  0.00000000E+00  0.00000000E+00
  0.00000000E+00  0.00000000E+00  0.00000000E+00
  0.00000000E+00  0.00000000E+00  0.00000000E+00
  0.00000000E+00  0.00000000E+00  0.00000000E+00
  0.00000000E+00  0.00000000E+00  0.00000000E+00
  0.00000000E+00  0.00000000E+00  0.00000000E+00
  0.00000000E+00  0.00000000E+00  0.00000000E+00
  0.00000000E+00  0.00000000E+00  0.00000000E+00
  0.00000000E+00  0.00000000E+00  0.00000000E+00
  0.00000000E+00  0.00000000E+00  0.00000000E+00
  0.00000000E+00  0.00000000E+00  0.00000000E+00
  0.00000000E+00  0.00000000E+00  0.00000000E+00
  0.00000000E+00  0.00000000E+00  0.00000000E+00
  0.00000000E+00  0.00000000E+00  0.00000000E+00
  0.00000000E+00  0.00000000E+00  0.00000000E+00
  0.00000000E+00  0.00000000E+00  0.00000000E+00
  0.00000000E+00  0.00000000E+00  0.00000000E+00
  0.00000000E+00  0.00000000E+00  0.00000000E+00
  0.00000000E+00  0.00000000E+00  0.00000000E+00
  0.00000000E+00  0.00000000E+00  0.00000000E+00
  0.00000000E+00  0.00000000E+00  0.00000000E+00
  0.00000000E+00  0.00000000E+00  0.00000000E+00
  0.00000000E+00  0.00000000E+00  0.00000000E+00
  0.00000000E+00  0.00000000E+00  0.00000000E+00
  0.00000000E+00  0.00000000E+00  0.00000000E+00
  0.00000000E+00  0.00000000E+00  0.00000000E+00
  0.00000000E+00  0.00000000E+00  0.00000000E+00
  0.00000000E+00  0.00000000E+00  0.00000000E+00
  0.00000000E+00  0.00000000E+00  0.00000000E+00
  0.00000000E+00  0.00000000E+00  0.00000000E+00
  0.00000000E+00  0.00000000E+00  0.00000000E+00
  0.00000000E+00  0.00000000E+00  0.00000000E+00
  0.00000000E+00  0.00000000E+00  0.00000000E+00
  0.00000000E+00  0.00000000E+00  0.00000000E+00
  0.00000000E+00  0.00000000E+00  0.00000000E+00
  0.00000000E+00  0.00000000E+00  0.00000000E+00
  0.00000000E+00  0.00000000E+00  0.00000000E+00
  0.00000000E+00  0.00000000E+00  0.00000000E+00
  0.00000000E+00  0.00000000E+00  0.00000000E+00
  0.00000000E+00  0.00000000E+00  0.00000000E+00
  0.00000000E+00  0.00000000E+00  0.00000000E+00
  0.00000000E+00  0.00000000E+00  0.00000000E+00
  0.00000000E+00  0.00000000E+00  0.00000000E+00
  0.00000000E+00  0.00000000E+00  0.00000000E+00
  0.00000000E+00  0.00000000E+00  0.00000000E+00
  0.00000000E+00  0.00000000E+00  0.00000000E+00
  0.00000000E+00  0.00000000E+00  0.00000000E+00
  0.00000000E+00  0.00000000E+00  0.00000000E+00
  0.00000000E+00  0.00000000E+00  0.00000000E+00
  0.00000000E+00  0.00000000E+00  0.00000000E+00
  0.00000000E+00  0.00000000E+00  0.00000000E+00
  0.00000000E+00  0.00000000E+00  0.00000000E+00
  0.00000000E+00  0.00000000E+00  0.00000000E+00
  0.00000000E+00  0.00000000E+00  0.00000000E+00
  0.00000000E+00  0.00000000E+00  0.00000000E+00
  0.00000000E+00  0.00000000E+00  0.00000000E+00
  0.00000000E+00  0.00000000E+00  0.00000000E+00
  0.00000000E+00  0.00000000E+00  0.00000000E+00
  0.00000000E+00  0.00000000E+00  0.00000000E+00
  0.00000000E+00  0.00000000E+00  0.00000000E+00
  0.00000000E+00  0.00000000E+00  0.00000000E+00
  0.00000000E+00  0.00000000E+00  0.00000000E+00
  0.00000000E+00  0.00000000E+00  0.00000000E+00
  0.00000000E+00  0.00000000E+00  0.00000000E+00
  0.00000000E+00  0.00000000E+00  0.00000000E+00
  0.00000000E+00  0.00000000E+00  0.00000000E+00
  0.00000000E+00  0.00000000E+00  0.00000000E+00
  0.00000000E+00  0.00000000E+00  0.00000000E+00
  0.00000000E+00  0.00000000E+00  0.00000000E+00
  0.00000000E+00  0.00000000E+00  0.00000000E+00
  0.00000000E+00  0.00000000E+00  0.00000000E+00
  0.00000000E+00  0.00000000E+00  0.00000000E+00
  0.00000000E+00  0.00000000E+00  0.00000000E+00
  0.00000000E+00  0.00000000E+00  0.00000000E+00
  0.00000000E+00  0.00000000E+00  0.00000000E+00
  0.00000000E+00  0.00000000E+00  0.00000000E+00
  0.00000000E+00  0.00000000E+00  0.00000000E+00
  0.00000000E+00  0.00000000E+00  0.00000000E+00
  0.00000000E+00  0.00000000E+00  0.00000000E+00
  0.00000000E+00  0.00000000E+00  0.00000000E+00
  0.00000000E+00  0.00000000E+00  0.00000000E+00
  0.00000000E+00  0.00000000E+00  0.00000000E+00
  0.00000000E+00  0.00000000E+00  0.00000000E+00
  0.00000000E+00  0.00000000E+00  0.00000000E+00
  0.00000000E+00  0.00000000E+00  0.00000000E+00
  0.00000000E+00  0.00000000E+00  0.00000000E+00
  0.00000000E+00  0.00000000E+00  0.00000000E+00
  0.00000000E+00  0.00000000E+00  0.00000000E+00
  0.00000000E+00  0.00000000E+00  0.00000000E+00
  0.00000000E+00  0.00000000E+00  0.00000000E+00
  0.00000000E+00  0.00000000E+00  0.00000000E+00
  0.00000000E+00  0.00000000E+00  0.00000000E+00
  0.00000000E+00  0.00000000E+00  0.00000000E+00
  0.00000000E+00  0.00000000E+00  0.00000000E+00
  0.00000000E+00  0.00000000E+00  0.00000000E+00
  0.00000000E+00  0.00000000E+00  0.00000000E+00
  0.00000000E+00  0.00000000E+00  0.00000000E+00
  0.00000000E+00  0.00000000E+00  0.00000000E+00
  0.00000000E+00  0.00000000E+00  0.00000000E+00
  0.00000000E+00  0.00000000E+00  0.00000000E+00
  0.00000000E+00  0.00000000E+00  0.00000000E+00
  0.00000000E+00  0.00000000E+00  0.00000000E+00
  0.00000000E+00  0.00000000E+00  0.00000000E+00
  0.00000000E+00  0.00000000E+00  0.00000000E+00
  0.00000000E+00  0.00000000E+00  0.00000000E+00
  0.00000000E+00  0.00000000E+00  0.00000000E+00
  0.00000000E+00  0.00000000E+00  0.00000000E+00
  0.00000000E+00  0.00000000E+00  0.00000000E+00
  0.00000000E+00  0.00000000E+00  0.00000000E+00
  0.00000000E+00  0.00000000E+00  0.00000000E+00
  0.00000000E+00  0.00000000E+00  0.00000000E+00
  0.00000000E+00  0.00000000E+00  0.00000000E+00
  0.00000000E+00  0.00000000E+00  0.00000000E+00
  0.00000000E+00  0.00000000E+00  0.00000000E+00
  0.00000000E+00  0.00000000E+00  0.00000000E+00
  0.00000000E+00  0.00000000E+00  0.00000000E+00
  0.00000000E+00  0.00000000E+00  0.00000000E+00
  0.00000000E+00  0.00000000E+00  0.00000000E+00
