Sr   Ti   Fe   O                        
   1.00000000000000     
    11.1989999999999998    0.0000000000000000    0.0000000000000000
     0.0000000000000000   11.1989999999999998    0.0000000000000000
     0.0000000000000000    0.0000000000000000   15.9830000000000005
   Sr   Ti   Fe   O 
    32    30     2    94
Direct
  0.9987386487560805  0.2497193562048625  0.1251641509822657
  0.0004069365082456  0.2475864734036870  0.6227654904450292
  0.9988096286785266  0.7509954580078829  0.1259945034526765
  0.9970987711186889  0.7514424450675037  0.6228303181478930
  0.4990601651959873  0.2451836408866522  0.1241936001773384
  0.5026554951870269  0.2410975360611175  0.6221659125148286
  0.5011096397855724  0.7550160397711349  0.1246778006277685
  0.5001900082517281  0.7564265529724844  0.6262012728145251
 -0.0003164473586234  0.2476463165169889  0.3770146882297360
  1.0002968053258683  0.2498171445756148  0.8745221413131117
  0.9946314817275557  0.7511271296207344  0.3801931366679338
  1.0003076498677828  0.7495321702516429  0.8750788659497849
  0.4999979118229816  0.2400726696840093  0.3760081173356135
  0.4992673042352674  0.2472883700339998  0.8737395867276901
  0.4970823659562610  0.7605007313023758  0.3736329080983589
  0.5014936020608269  0.7559494847258365  0.8762014166539147
  0.2495356792357937  0.0010365698826103  0.1248603150447433
  0.2488918225700364 -0.0002325098875499  0.6225009193718601
  0.2446391155930591  0.5005319970126176  0.1245792002012543
  0.2419118406775722  0.4974327725275061  0.6232859993368245
  0.7495698739446758  0.9979468416253480  0.1253160325524992
  0.7528281422151846  0.9964445868479297  0.6222085947807467
  0.7542449010815492  0.5002922128017138  0.1242913711073015
  0.7649568594031696  0.4983298911163102  0.6281179880992654
  0.2467748391588238  0.0000047957954244  0.3761160203474454
  0.2504103886915632  0.0009141810927449  0.8739906643756160
  0.2407402255646707  0.4991294252423931  0.3773831780184838
  0.2477411385216281  0.5011576603938680  0.8747911711143526
  0.7517636258783514  0.9963412245577932  0.3769966475126254
  0.7520858563417453  0.9992792556319952  0.8752476451075299
  0.7614009864090224  0.4992232564153251  0.3755268232439836
  0.7539147558447022  0.5011126878076539  0.8746339895429945
  1.0002104780362642  1.0002144520785339  0.0002131095137151
  0.9988097196409611  0.9991439624376395  0.4999496418564786
  0.0001689095392960  0.4998026803692399  1.0000296572774587
  0.9981559496820401  0.5002263063931397  0.5003722728769248
  0.4999500909163126  0.0005630915813155  0.9997334986203611
  0.5008826264802185  0.9966188206328078  0.5001098777185137
  0.4993864001653454  0.4996055226167803  0.9980871411949889
  0.2508900954870815  0.2514307267239413  0.9998690964286630
  0.2498678256409712  0.2491392351243708  0.4990666937018983
  0.2509096417108680  0.7493684147513144  0.9998826054178397
  0.2516497712061914  0.7485392986111613  0.4982882008860476
  0.7491752492864497  0.2507745965894672  0.9998852995869350
  0.7478113634356502  0.2508930599591295  0.4986306800749583
  0.7500688498170390  0.7497284031172894  0.0003686730815543
  0.2487439135388319  0.2498786498859486  0.2508563019094854
  0.2512450266141693  0.2509997769676200  0.7478139496651947
  0.2481946462463635  0.7504042855166130  0.2508967181120249
  0.2510526591588632  0.7501499589954737  0.7480996488003596
  0.7498574356605194  0.2486170102396004  0.2510792773557241
  0.7501395364038201  0.2493820203687805  0.7489358626098664
  0.7489049947168781  0.7483584185654449  0.2535969803225655
  0.7513177327741167  0.7514531193752956  0.7500847830567148
  0.9998283250838693  0.9998567083187985  0.2494456169720112
  1.0009693764269914  0.9997005117413138  0.7501243996318188
 -0.0001243252173490  0.5000041080311773  0.2497162068168680
  0.0016136027304747  0.5000068651512301  0.7506740955949046
  0.4992960976970188  0.0001663300628152  0.2495394061466130
  0.5009104376837380  0.0004505260855973  0.7501049289574839
  0.4989057961528727  0.4992144277191370  0.2409820357036380
  0.5037469761479016  0.5032177974353020  0.7553839034863807
  0.4924925158700981  0.4939927509281712  0.5058979411998368
  0.7484979897061338  0.7509196897311473  0.5040466680688651
  0.1097238389972121  0.1408093741169782  0.2451957416736494
  0.1118394984963416  0.1418261611452079  0.7519016786396270
  0.1097250255677435  0.6394241681826220  0.2488236224081123
  0.1128650088647521  0.6395641885434590  0.7501767056039155
  0.6092488956479276  0.1398315238609486  0.2482224935750304
  0.6094033909950174  0.1422461859427128  0.7508170372257374
  0.6039569138965740  0.6349212101982071  0.2563140347963223
  0.3915084495986484  0.3639219107380450  0.2617063930088356
  0.3951265653360930  0.3660149136092035  0.7352275852693293
  0.3889458274820948  0.8601249732749329  0.2485534261276064
  0.3897258500313901  0.8619688066751745  0.7518871977636467
  0.8878910559049529  0.3608042914173102  0.2502219292327945
  0.8906540681747055  0.3603592146896595  0.7494555864664876
  0.8887083533052395  0.8594402707137252  0.2508399826200757
  0.8932486309320320  0.8622747014752394  0.7561767920881559
  0.3602816242753813  0.1112095086316440  0.2488170556181612
  0.3616169712113647  0.1129542590340261  0.7501529281517433
  0.3626015316755448  0.6071778301962898  0.2611552435684421
  0.3658869174910277  0.6090911802133816  0.7390391789890525
  0.8592008628013358  0.1095080958636454  0.2452003455367429
  0.8598370518216553  0.1112088164211684  0.7502397273368028
  0.8596597330642217  0.6080530282209577  0.2473451251895119
  0.8638778899734908  0.6106898547209848  0.7538263157997803
  0.1396157056221714  0.3901609535429402  0.2490349227970379
  0.1425890662584057  0.3913070657521995  0.7514322774791906
  0.1395868868016882  0.8902620972490993  0.2444792194360934
  0.1423089596706030  0.8900908238120763  0.7508900239875083
  0.6351237140700570  0.3922062998525107  0.2622503365645915
  0.6376263531850619  0.8886394326970897  0.2493989456211508
  0.6398344483573627  0.8926785284459714  0.7533830583887131
  0.3584456561096357  0.3938848647524411  0.0008455563940854
  0.3595021661623915  0.8904035001294419 -0.0002721067577885
  0.3587463582031794  0.8899122004955463  0.4993065583295534
  0.8587742316382135  0.3910596681325162  0.9998590071977571
  0.8629270794110193  0.3846621729284551  0.4991268969146681
  0.8601961338218956  0.8902219293822357  0.0017274264488903
  0.8664998358025580  0.8937243601253471  0.4962188598323351
  0.1419202422655876  0.1115572151779636  0.0003388366942263
  0.1395590860520900  0.1104241990998339  0.5007837015446727
  0.1411934151754798  0.6088828781564164  0.9997280464825903
  0.1340579892682361  0.6129461196562253  0.4993268568417883
  0.6407411081474551  0.1099536116292679  0.0006603501973617
  0.6391907365051750  0.1086335100918929  0.4997260396199346
  0.6392980981013083  0.6063776117668902  0.9981656669344848
  0.1096127889970308  0.3589386245370589  0.0001574190218690
  0.1101973757187972  0.3606736755156356  0.4993641432112640
  0.1114089529919537  0.8588198424280242 -0.0002046667775552
  0.1106562202496418  0.8613897753236385  0.5007346768057678
  0.6062573911026496  0.3593603288602956  0.9987190074073417
  0.6090359487219488  0.8601071422997730  0.0006014219853851
  0.6037158847868294  0.8582288365806610  0.5000710799247977
  0.3910649631827614  0.1416814178326267  1.0001155544205755
  0.3888130563792808  0.1378395727681708  0.5001390462306898
  0.3935227373795538  0.6404594001112227 -0.0000886749164244
  0.3831114593267711  0.6372247808417507  0.4843221401066414
  0.8892087517849219  0.1416237097303620  0.0005074088052264
  0.8900616708215043  0.1394168091515679  0.5014835542300894
  0.8908770214944808  0.6395923591498289  0.0011707686607277
  0.9997912257743198  0.9994749508101564  0.1234454386889595
  0.0007920217582212 -0.0001808618320186  0.6271768201713781
  0.0007927656519447  0.4982054361023531  0.1244310272598545
  0.0045437291058424  0.4986103250850575  0.6261563344722807
  0.4990053448388455  0.0002565389660087  0.1243937261127157
  0.4999667451081101  0.0021895330181792  0.6259048408658634
  0.4987496761255171  0.4968812391820005  0.1249670023689643
  0.0036206846149380  0.0039535096793387  0.3721305185071263
  1.0020932212052265  0.0030058364446947  0.8765168195623955
 -0.0008508723010997  0.4999953362891563  0.3740582273280681
  0.0015963929367465  0.4985903762051069  0.8757461584470921
  0.4988656029444219  0.0001540893086485  0.3738990162829215
  0.4991470716495398  0.0021098375556702  0.8758440712151808
  0.4927387315738812  0.4946918377094794  0.8733139120848490
  0.2436314218263977  0.2438082054055881  0.3735320943235164
  0.2576012724532606  0.2560288022199496  0.8739683947982423
  0.2407197222161838  0.7585302825559227  0.3727117182155687
  0.2548683239811170  0.7442678123155669  0.8739847867150097
  0.7565706339076577  0.2402773337586531  0.3732596641319452
  0.7479687936773997  0.2535477000250604  0.8744608099262706
  0.7442172644535833  0.7398662479569769  0.3718704708168423
  0.7514443307236860  0.7514255930859068  0.8783840175704269
  0.2564418560516807  0.2555109408071223  0.1255383504609408
  0.2471826530125813  0.2495852046016819  0.6244685660698737
  0.2546564352602009  0.7434411107322643  0.1250455341129624
  0.2513654663097283  0.7495668852311291  0.6237080451589794
  0.7446427269903435  0.2573542100597511  0.1254364528692102
  0.7462878981333656  0.2506139989877977  0.6242819437522817
  0.7441314766766052  0.7454173800162822  0.1252524505953460
  0.6395840487086230  0.3941141555223885  0.7450919428070207
  0.6104581375862762  0.6411531460103174  0.7579988506149002
  0.6123231366218399  0.3598787482949143  0.4863010013692599
  0.3567665687225009  0.3859361434918555  0.4933392246572205
  0.7570936947248411  0.7576281969755309  0.6334555240048537
  0.8808591325612153  0.6275847207234371  0.5019514662350747
  0.5843919495857933  0.5749722419007467  0.5826650550660543
 
  0.00000000E+00  0.00000000E+00  0.00000000E+00
  0.00000000E+00  0.00000000E+00  0.00000000E+00
  0.00000000E+00  0.00000000E+00  0.00000000E+00
  0.00000000E+00  0.00000000E+00  0.00000000E+00
  0.00000000E+00  0.00000000E+00  0.00000000E+00
  0.00000000E+00  0.00000000E+00  0.00000000E+00
  0.00000000E+00  0.00000000E+00  0.00000000E+00
  0.00000000E+00  0.00000000E+00  0.00000000E+00
  0.00000000E+00  0.00000000E+00  0.00000000E+00
  0.00000000E+00  0.00000000E+00  0.00000000E+00
  0.00000000E+00  0.00000000E+00  0.00000000E+00
  0.00000000E+00  0.00000000E+00  0.00000000E+00
  0.00000000E+00  0.00000000E+00  0.00000000E+00
  0.00000000E+00  0.00000000E+00  0.00000000E+00
  0.00000000E+00  0.00000000E+00  0.00000000E+00
  0.00000000E+00  0.00000000E+00  0.00000000E+00
  0.00000000E+00  0.00000000E+00  0.00000000E+00
  0.00000000E+00  0.00000000E+00  0.00000000E+00
  0.00000000E+00  0.00000000E+00  0.00000000E+00
  0.00000000E+00  0.00000000E+00  0.00000000E+00
  0.00000000E+00  0.00000000E+00  0.00000000E+00
  0.00000000E+00  0.00000000E+00  0.00000000E+00
  0.00000000E+00  0.00000000E+00  0.00000000E+00
  0.00000000E+00  0.00000000E+00  0.00000000E+00
  0.00000000E+00  0.00000000E+00  0.00000000E+00
  0.00000000E+00  0.00000000E+00  0.00000000E+00
  0.00000000E+00  0.00000000E+00  0.00000000E+00
  0.00000000E+00  0.00000000E+00  0.00000000E+00
  0.00000000E+00  0.00000000E+00  0.00000000E+00
  0.00000000E+00  0.00000000E+00  0.00000000E+00
  0.00000000E+00  0.00000000E+00  0.00000000E+00
  0.00000000E+00  0.00000000E+00  0.00000000E+00
  0.00000000E+00  0.00000000E+00  0.00000000E+00
  0.00000000E+00  0.00000000E+00  0.00000000E+00
  0.00000000E+00  0.00000000E+00  0.00000000E+00
  0.00000000E+00  0.00000000E+00  0.00000000E+00
  0.00000000E+00  0.00000000E+00  0.00000000E+00
  0.00000000E+00  0.00000000E+00  0.00000000E+00
  0.00000000E+00  0.00000000E+00  0.00000000E+00
  0.00000000E+00  0.00000000E+00  0.00000000E+00
  0.00000000E+00  0.00000000E+00  0.00000000E+00
  0.00000000E+00  0.00000000E+00  0.00000000E+00
  0.00000000E+00  0.00000000E+00  0.00000000E+00
  0.00000000E+00  0.00000000E+00  0.00000000E+00
  0.00000000E+00  0.00000000E+00  0.00000000E+00
  0.00000000E+00  0.00000000E+00  0.00000000E+00
  0.00000000E+00  0.00000000E+00  0.00000000E+00
  0.00000000E+00  0.00000000E+00  0.00000000E+00
  0.00000000E+00  0.00000000E+00  0.00000000E+00
  0.00000000E+00  0.00000000E+00  0.00000000E+00
  0.00000000E+00  0.00000000E+00  0.00000000E+00
  0.00000000E+00  0.00000000E+00  0.00000000E+00
  0.00000000E+00  0.00000000E+00  0.00000000E+00
  0.00000000E+00  0.00000000E+00  0.00000000E+00
  0.00000000E+00  0.00000000E+00  0.00000000E+00
  0.00000000E+00  0.00000000E+00  0.00000000E+00
  0.00000000E+00  0.00000000E+00  0.00000000E+00
  0.00000000E+00  0.00000000E+00  0.00000000E+00
  0.00000000E+00  0.00000000E+00  0.00000000E+00
  0.00000000E+00  0.00000000E+00  0.00000000E+00
  0.00000000E+00  0.00000000E+00  0.00000000E+00
  0.00000000E+00  0.00000000E+00  0.00000000E+00
  0.00000000E+00  0.00000000E+00  0.00000000E+00
  0.00000000E+00  0.00000000E+00  0.00000000E+00
  0.00000000E+00  0.00000000E+00  0.00000000E+00
  0.00000000E+00  0.00000000E+00  0.00000000E+00
  0.00000000E+00  0.00000000E+00  0.00000000E+00
  0.00000000E+00  0.00000000E+00  0.00000000E+00
  0.00000000E+00  0.00000000E+00  0.00000000E+00
  0.00000000E+00  0.00000000E+00  0.00000000E+00
  0.00000000E+00  0.00000000E+00  0.00000000E+00
  0.00000000E+00  0.00000000E+00  0.00000000E+00
  0.00000000E+00  0.00000000E+00  0.00000000E+00
  0.00000000E+00  0.00000000E+00  0.00000000E+00
  0.00000000E+00  0.00000000E+00  0.00000000E+00
  0.00000000E+00  0.00000000E+00  0.00000000E+00
  0.00000000E+00  0.00000000E+00  0.00000000E+00
  0.00000000E+00  0.00000000E+00  0.00000000E+00
  0.00000000E+00  0.00000000E+00  0.00000000E+00
  0.00000000E+00  0.00000000E+00  0.00000000E+00
  0.00000000E+00  0.00000000E+00  0.00000000E+00
  0.00000000E+00  0.00000000E+00  0.00000000E+00
  0.00000000E+00  0.00000000E+00  0.00000000E+00
  0.00000000E+00  0.00000000E+00  0.00000000E+00
  0.00000000E+00  0.00000000E+00  0.00000000E+00
  0.00000000E+00  0.00000000E+00  0.00000000E+00
  0.00000000E+00  0.00000000E+00  0.00000000E+00
  0.00000000E+00  0.00000000E+00  0.00000000E+00
  0.00000000E+00  0.00000000E+00  0.00000000E+00
  0.00000000E+00  0.00000000E+00  0.00000000E+00
  0.00000000E+00  0.00000000E+00  0.00000000E+00
  0.00000000E+00  0.00000000E+00  0.00000000E+00
  0.00000000E+00  0.00000000E+00  0.00000000E+00
  0.00000000E+00  0.00000000E+00  0.00000000E+00
  0.00000000E+00  0.00000000E+00  0.00000000E+00
  0.00000000E+00  0.00000000E+00  0.00000000E+00
  0.00000000E+00  0.00000000E+00  0.00000000E+00
  0.00000000E+00  0.00000000E+00  0.00000000E+00
  0.00000000E+00  0.00000000E+00  0.00000000E+00
  0.00000000E+00  0.00000000E+00  0.00000000E+00
  0.00000000E+00  0.00000000E+00  0.00000000E+00
  0.00000000E+00  0.00000000E+00  0.00000000E+00
  0.00000000E+00  0.00000000E+00  0.00000000E+00
  0.00000000E+00  0.00000000E+00  0.00000000E+00
  0.00000000E+00  0.00000000E+00  0.00000000E+00
  0.00000000E+00  0.00000000E+00  0.00000000E+00
  0.00000000E+00  0.00000000E+00  0.00000000E+00
  0.00000000E+00  0.00000000E+00  0.00000000E+00
  0.00000000E+00  0.00000000E+00  0.00000000E+00
  0.00000000E+00  0.00000000E+00  0.00000000E+00
  0.00000000E+00  0.00000000E+00  0.00000000E+00
  0.00000000E+00  0.00000000E+00  0.00000000E+00
  0.00000000E+00  0.00000000E+00  0.00000000E+00
  0.00000000E+00  0.00000000E+00  0.00000000E+00
  0.00000000E+00  0.00000000E+00  0.00000000E+00
  0.00000000E+00  0.00000000E+00  0.00000000E+00
  0.00000000E+00  0.00000000E+00  0.00000000E+00
  0.00000000E+00  0.00000000E+00  0.00000000E+00
  0.00000000E+00  0.00000000E+00  0.00000000E+00
  0.00000000E+00  0.00000000E+00  0.00000000E+00
  0.00000000E+00  0.00000000E+00  0.00000000E+00
  0.00000000E+00  0.00000000E+00  0.00000000E+00
  0.00000000E+00  0.00000000E+00  0.00000000E+00
  0.00000000E+00  0.00000000E+00  0.00000000E+00
  0.00000000E+00  0.00000000E+00  0.00000000E+00
  0.00000000E+00  0.00000000E+00  0.00000000E+00
  0.00000000E+00  0.00000000E+00  0.00000000E+00
  0.00000000E+00  0.00000000E+00  0.00000000E+00
  0.00000000E+00  0.00000000E+00  0.00000000E+00
  0.00000000E+00  0.00000000E+00  0.00000000E+00
  0.00000000E+00  0.00000000E+00  0.00000000E+00
  0.00000000E+00  0.00000000E+00  0.00000000E+00
  0.00000000E+00  0.00000000E+00  0.00000000E+00
  0.00000000E+00  0.00000000E+00  0.00000000E+00
  0.00000000E+00  0.00000000E+00  0.00000000E+00
  0.00000000E+00  0.00000000E+00  0.00000000E+00
  0.00000000E+00  0.00000000E+00  0.00000000E+00
  0.00000000E+00  0.00000000E+00  0.00000000E+00
  0.00000000E+00  0.00000000E+00  0.00000000E+00
  0.00000000E+00  0.00000000E+00  0.00000000E+00
  0.00000000E+00  0.00000000E+00  0.00000000E+00
  0.00000000E+00  0.00000000E+00  0.00000000E+00
  0.00000000E+00  0.00000000E+00  0.00000000E+00
  0.00000000E+00  0.00000000E+00  0.00000000E+00
  0.00000000E+00  0.00000000E+00  0.00000000E+00
  0.00000000E+00  0.00000000E+00  0.00000000E+00
  0.00000000E+00  0.00000000E+00  0.00000000E+00
  0.00000000E+00  0.00000000E+00  0.00000000E+00
  0.00000000E+00  0.00000000E+00  0.00000000E+00
  0.00000000E+00  0.00000000E+00  0.00000000E+00
  0.00000000E+00  0.00000000E+00  0.00000000E+00
  0.00000000E+00  0.00000000E+00  0.00000000E+00
  0.00000000E+00  0.00000000E+00  0.00000000E+00
  0.00000000E+00  0.00000000E+00  0.00000000E+00
  0.00000000E+00  0.00000000E+00  0.00000000E+00
  0.00000000E+00  0.00000000E+00  0.00000000E+00
  0.00000000E+00  0.00000000E+00  0.00000000E+00
  0.00000000E+00  0.00000000E+00  0.00000000E+00
