SrTiFeO                                 
   1.00000000000000     
    11.1989999999999998    0.0000000000000000    0.0000000000000000
     0.0000000000000000   11.1989999999999998    0.0000000000000000
     0.0000000000000000    0.0000000000000000   15.9830000000000005
   Sr   Ti   Fe   O 
    32    30     2    94
Direct
  0.9991961252476886  0.2497967359886048  0.1249654690695823
  0.0015495387270267  0.2487931916156212  0.6236824387410013
  0.9982823074558241  0.7506253188296446  0.1259151833178947
  0.9976838547440439  0.7495663975441852  0.6223846122695830
  0.4992907220776518  0.2458155387639514  0.1232668297130484
  0.5007852771534328  0.2474657902918393  0.6241304142290323
  0.5011030497389251  0.7540970510992424  0.1235801599413364
  0.4994643827481154  0.7525050631258490  0.6277317797663199
  0.0006134168045737  0.2475833479196889  0.3763055454732550
  1.0000804119030580  0.2494909867549906  0.8748720407232067
  0.9983926769100399  0.7505436172610044  0.3778624747822212
  0.9985322467101641  0.7502219889244092  0.8743543452619060
  0.5015503713503654  0.2423039730617415  0.3773602921553126
  0.4998599025626367  0.2501326950445937  0.8733477710193936
  0.4991844399531403  0.7635553872641678  0.3724959657650048
  0.4992192639433080  0.7524307926842400  0.8759942810785483
  0.2491383883439145  0.0002075698928361  0.1251410782673211
  0.2490657659826422  0.0006655634004263  0.6238572128386402
  0.2457586422016241  0.5001091326529090  0.1230602882827411
  0.2477122690337905  0.4981080815482288  0.6247075665587479
  0.7497635184138005  0.9979620241890856  0.1253904411832427
  0.7506935396510437  0.9998615060485651  0.6231968979564138
  0.7535091400439035  0.5004413881286877  0.1231456655749843
  0.7563865027436434  0.4972372772659857  0.6286391306722187
  0.2478989977387743  0.0007610539703441  0.3761078520131114
  0.2492866673499367  0.0001338062476851  0.8745907520543320
  0.2399494668187609  0.4982859976863928  0.3746507180047063
  0.2499600795268078  0.5000148705918371  0.8741674559153866
  0.7517741482840143  0.9985428904077572  0.3774114468463943
  0.7506628826746226  0.9987170294401195  0.8749788793349340
  0.7646677754212328  0.4966819481630208  0.3727657723084105
  0.7504718891349764  0.5017822566340969  0.8747715336987874
  0.9995054516858779  0.9995122229242156  0.0005005554577936
  0.0002000119044688 -0.0000790962549173  0.5004529234629767
  0.0000459151335775  0.4997668622934579  0.9994381352772432
  0.9995839370759592  0.5004832431074542  0.5006084464821816
  0.4999591820834569  0.0003441032233181  0.9995568374345684
  0.4999971311601427  0.9979965770056276  0.5009326981275448
  0.4992465061761804  0.4994336040826428  0.9944435386185874
  0.2504945467230908  0.2506477316127482  0.9998846469760984
  0.2499974634976836  0.2499604383375167  0.4988446215703604
  0.2500186502380701  0.7496074871798327  0.9999727071611383
  0.2536666840205470  0.7488984713814179  0.4990353555810912
  0.7496097164523781  0.2500603786136926  0.9997762691918289
  0.7499392313331256  0.2529917630656142  0.4989966454748627
  0.7498033492681715  0.7498601525528028  1.0000109461301165
  0.2494788727131140  0.2493295865132651  0.2507157360252839
  0.2509198236981545  0.2503562478863561  0.7494086225040669
  0.2494247212601209  0.7501377202991807  0.2506637646981935
  0.2502877665392911  0.7493313327263146  0.7496260038208452
  0.7498091302887809  0.2488943722533990  0.2505654917575578
  0.7498166017777594  0.2500320501891467  0.7500561025776000
  0.7492992688515918  0.7484761894170802  0.2531937603531648
  0.7485203565094283  0.7490725720384702  0.7486999203760913
 -0.0000911296615795  0.9999220585907086  0.2497664715508569
 -0.0000101374740863  0.9993125929060055  0.7490253407501657
  0.0007116336209965  0.4999283427815469  0.2488478387058102
  0.0011077011602768  0.5000621327062800  0.7501812825743854
  0.4999093168249051  0.0010323417212996  0.2494609121792183
  0.5002161534685500  0.0004528704756391  0.7501033124445143
  0.4991096117798214  0.4992056751741262  0.2395525823195136
  0.5022954831822116  0.5018625158486361  0.7478395680524211
  0.4904537122103595  0.4948291770537613  0.5067107846777713
  0.7533558136156470  0.7557386651719531  0.5011873675888752
  0.1092853713804070  0.1402133135004846  0.2448751571253561
  0.1100171336452614  0.1412501139906411  0.7513777829913335
  0.1101431577581031  0.6396070115522580  0.2497623433081451
  0.1093779133512800  0.6413817774910869  0.7498255600441496
  0.6091413691300879  0.1406260567409281  0.2488132739682851
  0.6085408735954616  0.1419879605261581  0.7501516743450146
  0.6043869042681843  0.6350179872766109  0.2562443916923608
  0.3918834386142872  0.3634975109948884  0.2624553391124381
  0.3926070925445063  0.3602092628990011  0.7457867617773795
  0.3893034452147691  0.8603844704204328  0.2485624440613493
  0.3906523269321092  0.8597613621755269  0.7507410022503861
  0.8883130581962930  0.3609380204846965  0.2510364356582627
  0.8910711723572571  0.3591683029441118  0.7483274022958313
  0.8888758575537579  0.8590962627968917  0.2522632428158704
  0.8904252267045853  0.8592581578552773  0.7469707650452465
  0.3602292371800723  0.1106629632110137  0.2488503432590398
  0.3592759226604764  0.1100046408031804  0.7508673611196811
  0.3627514555762399  0.6068722967298646  0.2601135467125744
  0.3590059431007628  0.6086980773634095  0.7500352213413624
  0.8587413911545649  0.1092223747873859  0.2472666311218284
  0.8585773727376242  0.1095938750229714  0.7483966429782534
  0.8603939588472421  0.6084997021909093  0.2468633775209625
  0.8605163978703431  0.6083070846346130  0.7521331902734140
  0.1400789243468424  0.3898381873412796  0.2482337998035513
  0.1420136874484791  0.3914943373426737  0.7507140650856140
  0.1398278553872464  0.8895221960672448  0.2473967712532170
  0.1411768626693616  0.8901612900800649  0.7493184500005754
  0.6357348470396044  0.3922710322775985  0.2606747681746366
  0.6382686254855663  0.8891770061907018  0.2508007891521565
  0.6404899419782054  0.8922098646434782  0.7503345730646380
  0.3584063684634727  0.3918201330231333  0.0004694407571220
  0.3593155512157000  0.8904594845716136  0.0008443532695368
  0.3574240245517545  0.8923289925477276  0.4996850085759030
  0.8591685343970724  0.3905774221071493  0.9998453174424934
  0.8642361995946469  0.3866701700686379  0.5004280497075942
  0.8594145084593809  0.8903199264145651  0.0023423329646493
  0.8650997367471390  0.8977420236541943  0.4997891933878825
  0.1407140613752911  0.1099295500472899  0.0010032458995781
  0.1402267075104185  0.1099803147027832  0.5014168189640901
  0.1407730682277494  0.6089451382160995  0.9996987170300178
  0.1415439303744203  0.6098223044507964  0.4998921195931661
  0.6408037943028532  0.1094962546781567  0.0010201914430391
  0.6363116114388991  0.1158742467722684  0.4996886715890715
  0.6396482052955601  0.6081005938152009  0.9992571835899197
  0.1093950732039713  0.3588778154316825  0.0007867950638588
  0.1097239475661451  0.3595201548725612  0.4996709026523207
  0.1099886195852208  0.8588350135965467  0.0012981852576755
  0.1109263294003448  0.8588457704523865  0.5010497436825542
  0.6082553593941527  0.3588311532520662  0.9993824905643294
  0.6089528802314851  0.8597891836460433  0.0001067064370818
  0.6037115771355406  0.8603339321051064  0.5015606495861166
  0.3908800427346900  0.1408679779670269  0.9997212755845654
  0.3891308989005529  0.1398976240517375  0.5002858336077715
  0.3915369135058680  0.6406304727386722  1.0001277835945701
  0.4001006022131648  0.6443378460056587  0.4901474967353868
  0.8901871519181076  0.1407940696084115  0.0016567286439197
  0.8892466374477248  0.1421294989633135  0.5019078785261574
  0.8905774366810815  0.6397201442444286  0.0013235877171441
  0.9986308653010545  0.9977290449364179  0.1247016717099531
  0.0026515159152757  0.0023690681222758  0.6261454016679424
  0.0008176496838749  0.4984828297817129  0.1244077179898399
  0.0027884323775673  0.5002276196697140  0.6257566021539102
  0.5001800859188504  0.0002784380562704  0.1246625390059223
  0.4987667251077814  0.0025887115582308  0.6259026443616362
  0.4980411753430296  0.4967402059876880  0.1244645647138614
  0.0033485628169463  0.0037722106674448  0.3734503800139444
  0.9987043560138834  0.9988314779766823  0.8753849773910400
  0.0011900026976417  0.4995835981533367  0.3738937171628949
  0.0008027097985042  0.4987772220471484  0.8753107043319974
  0.4991231847240915  0.0011512028344946  0.3743686581801350
  0.4999684191028581  0.0006185029363803  0.8754492311684311
  0.4955250404532459  0.4962009097333548  0.8754651655983297
  0.2413342787836618  0.2415366357288899  0.3729555047811828
  0.2520138856351160  0.2520437277175966  0.8751503741640829
  0.2456730833081477  0.7544615624366758  0.3741999219261503
  0.2501443579381659  0.7502140522929132  0.8753443340634529
  0.7549147361313232  0.2434571154776640  0.3740494027912835
  0.7518607206895234  0.2482234346967283  0.8754076818098933
  0.7445721433082751  0.7390340034315623  0.3725779186405312
  0.7542232199247183  0.7534480736253696  0.8771434640915023
  0.2565109663029215  0.2542050751213844  0.1256352820168812
  0.2510711904887573  0.2526223696885081  0.6247918085168573
  0.2535572215238148  0.7441243405184353  0.1259674682445086
  0.2549965911552777  0.7462897606639299  0.6241379381860560
  0.7463206714660718  0.2559270626897775  0.1260542048537817
  0.7427480899951431  0.2549984949345817  0.6241308921634401
  0.7447005561326935  0.7470444983156352  0.1258099105787729
  0.6424094512486094  0.3912086190899116  0.7539214060668882
  0.6089523310263231  0.6418213806008285  0.7615882499997231
  0.6194728449418845  0.3789675642055733  0.4855963455900009
  0.3555603945340978  0.3862912524331572  0.4874293558149719
  0.7383825531752266  0.7373690047251972  0.6291164019000532
  0.8847715537702658  0.6300004461405931  0.4995963906405411
  0.5192937581524147  0.5140501153429261  0.6285404737694339
 
  0.00000000E+00  0.00000000E+00  0.00000000E+00
  0.00000000E+00  0.00000000E+00  0.00000000E+00
  0.00000000E+00  0.00000000E+00  0.00000000E+00
  0.00000000E+00  0.00000000E+00  0.00000000E+00
  0.00000000E+00  0.00000000E+00  0.00000000E+00
  0.00000000E+00  0.00000000E+00  0.00000000E+00
  0.00000000E+00  0.00000000E+00  0.00000000E+00
  0.00000000E+00  0.00000000E+00  0.00000000E+00
  0.00000000E+00  0.00000000E+00  0.00000000E+00
  0.00000000E+00  0.00000000E+00  0.00000000E+00
  0.00000000E+00  0.00000000E+00  0.00000000E+00
  0.00000000E+00  0.00000000E+00  0.00000000E+00
  0.00000000E+00  0.00000000E+00  0.00000000E+00
  0.00000000E+00  0.00000000E+00  0.00000000E+00
  0.00000000E+00  0.00000000E+00  0.00000000E+00
  0.00000000E+00  0.00000000E+00  0.00000000E+00
  0.00000000E+00  0.00000000E+00  0.00000000E+00
  0.00000000E+00  0.00000000E+00  0.00000000E+00
  0.00000000E+00  0.00000000E+00  0.00000000E+00
  0.00000000E+00  0.00000000E+00  0.00000000E+00
  0.00000000E+00  0.00000000E+00  0.00000000E+00
  0.00000000E+00  0.00000000E+00  0.00000000E+00
  0.00000000E+00  0.00000000E+00  0.00000000E+00
  0.00000000E+00  0.00000000E+00  0.00000000E+00
  0.00000000E+00  0.00000000E+00  0.00000000E+00
  0.00000000E+00  0.00000000E+00  0.00000000E+00
  0.00000000E+00  0.00000000E+00  0.00000000E+00
  0.00000000E+00  0.00000000E+00  0.00000000E+00
  0.00000000E+00  0.00000000E+00  0.00000000E+00
  0.00000000E+00  0.00000000E+00  0.00000000E+00
  0.00000000E+00  0.00000000E+00  0.00000000E+00
  0.00000000E+00  0.00000000E+00  0.00000000E+00
  0.00000000E+00  0.00000000E+00  0.00000000E+00
  0.00000000E+00  0.00000000E+00  0.00000000E+00
  0.00000000E+00  0.00000000E+00  0.00000000E+00
  0.00000000E+00  0.00000000E+00  0.00000000E+00
  0.00000000E+00  0.00000000E+00  0.00000000E+00
  0.00000000E+00  0.00000000E+00  0.00000000E+00
  0.00000000E+00  0.00000000E+00  0.00000000E+00
  0.00000000E+00  0.00000000E+00  0.00000000E+00
  0.00000000E+00  0.00000000E+00  0.00000000E+00
  0.00000000E+00  0.00000000E+00  0.00000000E+00
  0.00000000E+00  0.00000000E+00  0.00000000E+00
  0.00000000E+00  0.00000000E+00  0.00000000E+00
  0.00000000E+00  0.00000000E+00  0.00000000E+00
  0.00000000E+00  0.00000000E+00  0.00000000E+00
  0.00000000E+00  0.00000000E+00  0.00000000E+00
  0.00000000E+00  0.00000000E+00  0.00000000E+00
  0.00000000E+00  0.00000000E+00  0.00000000E+00
  0.00000000E+00  0.00000000E+00  0.00000000E+00
  0.00000000E+00  0.00000000E+00  0.00000000E+00
  0.00000000E+00  0.00000000E+00  0.00000000E+00
  0.00000000E+00  0.00000000E+00  0.00000000E+00
  0.00000000E+00  0.00000000E+00  0.00000000E+00
  0.00000000E+00  0.00000000E+00  0.00000000E+00
  0.00000000E+00  0.00000000E+00  0.00000000E+00
  0.00000000E+00  0.00000000E+00  0.00000000E+00
  0.00000000E+00  0.00000000E+00  0.00000000E+00
  0.00000000E+00  0.00000000E+00  0.00000000E+00
  0.00000000E+00  0.00000000E+00  0.00000000E+00
  0.00000000E+00  0.00000000E+00  0.00000000E+00
  0.00000000E+00  0.00000000E+00  0.00000000E+00
  0.00000000E+00  0.00000000E+00  0.00000000E+00
  0.00000000E+00  0.00000000E+00  0.00000000E+00
  0.00000000E+00  0.00000000E+00  0.00000000E+00
  0.00000000E+00  0.00000000E+00  0.00000000E+00
  0.00000000E+00  0.00000000E+00  0.00000000E+00
  0.00000000E+00  0.00000000E+00  0.00000000E+00
  0.00000000E+00  0.00000000E+00  0.00000000E+00
  0.00000000E+00  0.00000000E+00  0.00000000E+00
  0.00000000E+00  0.00000000E+00  0.00000000E+00
  0.00000000E+00  0.00000000E+00  0.00000000E+00
  0.00000000E+00  0.00000000E+00  0.00000000E+00
  0.00000000E+00  0.00000000E+00  0.00000000E+00
  0.00000000E+00  0.00000000E+00  0.00000000E+00
  0.00000000E+00  0.00000000E+00  0.00000000E+00
  0.00000000E+00  0.00000000E+00  0.00000000E+00
  0.00000000E+00  0.00000000E+00  0.00000000E+00
  0.00000000E+00  0.00000000E+00  0.00000000E+00
  0.00000000E+00  0.00000000E+00  0.00000000E+00
  0.00000000E+00  0.00000000E+00  0.00000000E+00
  0.00000000E+00  0.00000000E+00  0.00000000E+00
  0.00000000E+00  0.00000000E+00  0.00000000E+00
  0.00000000E+00  0.00000000E+00  0.00000000E+00
  0.00000000E+00  0.00000000E+00  0.00000000E+00
  0.00000000E+00  0.00000000E+00  0.00000000E+00
  0.00000000E+00  0.00000000E+00  0.00000000E+00
  0.00000000E+00  0.00000000E+00  0.00000000E+00
  0.00000000E+00  0.00000000E+00  0.00000000E+00
  0.00000000E+00  0.00000000E+00  0.00000000E+00
  0.00000000E+00  0.00000000E+00  0.00000000E+00
  0.00000000E+00  0.00000000E+00  0.00000000E+00
  0.00000000E+00  0.00000000E+00  0.00000000E+00
  0.00000000E+00  0.00000000E+00  0.00000000E+00
  0.00000000E+00  0.00000000E+00  0.00000000E+00
  0.00000000E+00  0.00000000E+00  0.00000000E+00
  0.00000000E+00  0.00000000E+00  0.00000000E+00
  0.00000000E+00  0.00000000E+00  0.00000000E+00
  0.00000000E+00  0.00000000E+00  0.00000000E+00
  0.00000000E+00  0.00000000E+00  0.00000000E+00
  0.00000000E+00  0.00000000E+00  0.00000000E+00
  0.00000000E+00  0.00000000E+00  0.00000000E+00
  0.00000000E+00  0.00000000E+00  0.00000000E+00
  0.00000000E+00  0.00000000E+00  0.00000000E+00
  0.00000000E+00  0.00000000E+00  0.00000000E+00
  0.00000000E+00  0.00000000E+00  0.00000000E+00
  0.00000000E+00  0.00000000E+00  0.00000000E+00
  0.00000000E+00  0.00000000E+00  0.00000000E+00
  0.00000000E+00  0.00000000E+00  0.00000000E+00
  0.00000000E+00  0.00000000E+00  0.00000000E+00
  0.00000000E+00  0.00000000E+00  0.00000000E+00
  0.00000000E+00  0.00000000E+00  0.00000000E+00
  0.00000000E+00  0.00000000E+00  0.00000000E+00
  0.00000000E+00  0.00000000E+00  0.00000000E+00
  0.00000000E+00  0.00000000E+00  0.00000000E+00
  0.00000000E+00  0.00000000E+00  0.00000000E+00
  0.00000000E+00  0.00000000E+00  0.00000000E+00
  0.00000000E+00  0.00000000E+00  0.00000000E+00
  0.00000000E+00  0.00000000E+00  0.00000000E+00
  0.00000000E+00  0.00000000E+00  0.00000000E+00
  0.00000000E+00  0.00000000E+00  0.00000000E+00
  0.00000000E+00  0.00000000E+00  0.00000000E+00
  0.00000000E+00  0.00000000E+00  0.00000000E+00
  0.00000000E+00  0.00000000E+00  0.00000000E+00
  0.00000000E+00  0.00000000E+00  0.00000000E+00
  0.00000000E+00  0.00000000E+00  0.00000000E+00
  0.00000000E+00  0.00000000E+00  0.00000000E+00
  0.00000000E+00  0.00000000E+00  0.00000000E+00
  0.00000000E+00  0.00000000E+00  0.00000000E+00
  0.00000000E+00  0.00000000E+00  0.00000000E+00
  0.00000000E+00  0.00000000E+00  0.00000000E+00
  0.00000000E+00  0.00000000E+00  0.00000000E+00
  0.00000000E+00  0.00000000E+00  0.00000000E+00
  0.00000000E+00  0.00000000E+00  0.00000000E+00
  0.00000000E+00  0.00000000E+00  0.00000000E+00
  0.00000000E+00  0.00000000E+00  0.00000000E+00
  0.00000000E+00  0.00000000E+00  0.00000000E+00
  0.00000000E+00  0.00000000E+00  0.00000000E+00
  0.00000000E+00  0.00000000E+00  0.00000000E+00
  0.00000000E+00  0.00000000E+00  0.00000000E+00
  0.00000000E+00  0.00000000E+00  0.00000000E+00
  0.00000000E+00  0.00000000E+00  0.00000000E+00
  0.00000000E+00  0.00000000E+00  0.00000000E+00
  0.00000000E+00  0.00000000E+00  0.00000000E+00
  0.00000000E+00  0.00000000E+00  0.00000000E+00
  0.00000000E+00  0.00000000E+00  0.00000000E+00
  0.00000000E+00  0.00000000E+00  0.00000000E+00
  0.00000000E+00  0.00000000E+00  0.00000000E+00
  0.00000000E+00  0.00000000E+00  0.00000000E+00
  0.00000000E+00  0.00000000E+00  0.00000000E+00
  0.00000000E+00  0.00000000E+00  0.00000000E+00
  0.00000000E+00  0.00000000E+00  0.00000000E+00
  0.00000000E+00  0.00000000E+00  0.00000000E+00
  0.00000000E+00  0.00000000E+00  0.00000000E+00
  0.00000000E+00  0.00000000E+00  0.00000000E+00
  0.00000000E+00  0.00000000E+00  0.00000000E+00
  0.00000000E+00  0.00000000E+00  0.00000000E+00
  0.00000000E+00  0.00000000E+00  0.00000000E+00
