SrTiFeO                                 
   1.00000000000000     
    11.1989999999999998    0.0000000000000000    0.0000000000000000
     0.0000000000000000   11.1989999999999998    0.0000000000000000
     0.0000000000000000    0.0000000000000000   15.9830000000000005
   Sr   Ti   Fe   O 
    32    30     2    94
Direct
  0.0000389896700599  0.2505067903633826  0.1249254093588947
  0.0010673901782698  0.2503972272082758  0.6254136472740133
  0.9984461354324468  0.7498801573288492  0.1252588905225360
  0.9901281795275063  0.7482350731330214  0.6247112805974915
  0.4993207925670184  0.2520652898540044  0.1255407599197956
  0.5018721530390151  0.2467957909339453  0.6232145261646516
  0.4990415271517505  0.7503248765840563  0.1229836641000001
  0.5038831376194352  0.7584806465439942  0.6336920853718089
  0.0010673901782698  0.2503972272082758  0.3745863527259867
  0.0000389896700599  0.2505067903633826  0.8750745906411054
  0.9901281795275063  0.7482350731330214  0.3752887194025085
  0.9984461354324468  0.7498801573288492  0.8747411094774640
  0.5018721530390151  0.2467957909339453  0.3767854738353484
  0.4993207925670184  0.2520652898540044  0.8744592400802043
  0.5038831376194352  0.7584806465439942  0.3663079146281911
  0.4990415271517505  0.7503248765840563  0.8770163358999999
  0.2496472994589811  0.9994883687474464  0.1256455130167096
  0.2516426916353879  0.0050724597923263  0.6250773414857029
  0.2508053933939933  0.4999056080786406  0.1235325990370168
  0.2473257799036686  0.4969493306456002  0.6282383497189502
  0.7500363013284946  0.9987581680438985  0.1247573158704330
  0.7515195353217781 -0.0000069587171809  0.6251654155088020
  0.7477395419169873  0.5004108539217575  0.1252998662437487
  0.7556809483494765  0.4974749118169107  0.6272782904740354
  0.2516426916353879  0.0050724597923263  0.3749226585142971
  0.2496472994589811  0.9994883687474464  0.8743544869832904
  0.2473257799036686  0.4969493306456002  0.3717616502810498
  0.2508053933939933  0.4999056080786406  0.8764674009629831
  0.7515195353217781 -0.0000069587171809  0.3748345844911979
  0.7500363013284946  0.9987581680438985  0.8752426841295670
  0.7556809483494765  0.4974749118169107  0.3727217095259646
  0.7477395419169873  0.5004108539217575  0.8747001337562512
  0.0000915679982120  0.9995032371043865  0.0000000000000000
  0.9956170710582770  0.0062759675287238  0.5000000000000000
  0.9996210142105056  0.5000553751693725  0.0000000000000000
  0.0003684320967303  0.4994161137565751  0.5000000000000000
  0.5003450853717459  0.0009311620427187  0.0000000000000000
  0.5014172224148701  0.9958183454283087  0.5000000000000000
  0.4998266416595018  0.4989812273202711  0.0000000000000000
  0.2505227822006817  0.2502033310007660  0.0000000000000000
  0.2488349136340621  0.2506467075561987  0.5000000000000000
  0.2487509445104612  0.7505495093408560  0.0000000000000000
  0.2359469944639033  0.7582968588694430  0.5000000000000000
  0.7497282487353414  0.2504559368800726  0.0000000000000000
  0.7503945249870849  0.7505953684084808  0.0000000000000000
  0.2505338255833482  0.2504580623640435  0.2500746417199930
  0.2505338255833482  0.2504580623640435  0.7499253582800071
  0.2499381522806337  0.7489485589596026  0.2501522970884354
  0.2499381522806337  0.7489485589596026  0.7498477029115646
  0.7502461783786799  0.2493177796598935  0.2501026822146860
  0.7502461783786799  0.2493177796598935  0.7498973177853140
  0.7492194725595263  0.7490347516136329  0.2506733479950871
  0.7492194725595263  0.7490347516136329  0.7493266520049128
  0.0007669318648235  0.9999494393775368  0.2506507410436668
  0.0007669318648235  0.9999494393775368  0.7493492589563331
  0.0005298914476875  0.5000009830544514  0.2493748405517785
  0.0005298914476875  0.5000009830544514  0.7506251594482215
  0.4999729225003595  0.0015113460409024  0.2491464819291696
  0.4999729225003595  0.0015113460409024  0.7508535180708303
  0.5003927367411478  0.5025215951375595  0.2527159185876279
  0.5003927367411478  0.5025215951375595  0.7472840814123720
  0.7504249679715673  0.2507799173217054  0.5000000000000000
  0.4959477312908304  0.4879637486016502  0.5000000000000000
  0.7515358111775650  0.7566252145475607  0.5000000000000000
  0.1102149075522722  0.1403005361861971  0.2470228663598502
  0.1102149075522722  0.1403005361861971  0.7529771336401498
  0.1090563941074663  0.6415866444320377  0.2517835226100366
  0.1090563941074663  0.6415866444320377  0.7482164773899634
  0.6089524510537174  0.1414484573493790  0.2496071538940166
  0.6089524510537174  0.1414484573493790  0.7503928461059833
  0.6087084831283367  0.6413062012255525  0.2420647449734989
  0.6087084831283367  0.6413062012255525  0.7579352550265012
  0.3913364748581348  0.3618051968783539  0.2572327067473832
  0.3913364748581348  0.3618051968783539  0.7427672932526168
  0.3891799301354599  0.8608927138586647  0.2482607723531937
  0.3891799301354599  0.8608927138586647  0.7517392276468063
  0.8897195259225825  0.3602192428645942  0.2505856564513443
  0.8897195259225825  0.3602192428645942  0.7494143435486557
  0.8893586987256624  0.8595945873003228  0.2531549806563414
  0.8893586987256624  0.8595945873003228  0.7468450193436587
  0.3599719448655789  0.1106356676659809  0.2487441327587885
  0.3599719448655789  0.1106356676659809  0.7512558672412116
  0.3588938110147609  0.6096696001738261  0.2459272829050407
  0.3588938110147609  0.6096696001738261  0.7540727170949594
  0.8595348896838437  0.1090988172150793  0.2477406545015841
  0.8595348896838437  0.1090988172150793  0.7522593454984159
  0.8600049416150078  0.6088119398685060  0.2485153090398283
  0.8600049416150078  0.6088119398685060  0.7514846909601717
  0.1406926772530771  0.3903763171757495  0.2482453528319202
  0.1406926772530771  0.3903763171757495  0.7517546471680798
  0.1413755133825758  0.8890972311510271  0.2549272292176939
  0.1413755133825758  0.8890972311510271  0.7450727707823060
  0.6398613591838903  0.3917105225389498  0.2550875394149256
  0.6398613591838903  0.3917105225389498  0.7449124605850744
  0.6392570826413453  0.8904613429338464  0.2513571455969780
  0.6392570826413453  0.8904613429338464  0.7486428544030220
  0.3588776112364883  0.3908505107883339  0.0000000000000000
  0.3594312970971619  0.8903927499174095  0.0000000000000000
  0.3555206002286522  0.8855135312447554  0.5000000000000000
  0.8592605097405527  0.3909534321689943  0.0000000000000000
  0.8596598248506412  0.8918778791619151  0.0000000000000000
  0.8635516944270850  0.8993647627927798  0.5000000000000000
  0.1412137825949688  0.1096141912543006  0.0000000000000000
  0.1443353900661562  0.1040459449186987  0.5000000000000000
  0.1406320230944178  0.6093740387618830  0.0000000000000000
  0.1519413058189989  0.6033826005765154  0.5000000000000000
  0.6417005313810504  0.1093310770927433  0.0000000000000000
  0.6426773096221252  0.1049551392820540  0.5000000000000000
  0.6395803708833077  0.6098913949378848  0.0000000000000000
  0.1093815401890647  0.3589193617261625  0.0000000000000000
  0.1048251645612841  0.3531208870439989  0.5000000000000000
  0.1089235834610162  0.8588932041507614  0.0000000000000000
  0.1027808826408782  0.8535639733381626  0.5000000000000000
  0.6093514376333664  0.3588873109296785  0.0000000000000000
  0.6093789942155984  0.8599220222921082  0.0000000000000000
  0.5938013650761154  0.8508444712100327  0.5000000000000000
  0.3913807985500127  0.1409971119337613  0.0000000000000000
  0.3910038480927978  0.1399324183586152  0.5000000000000000
  0.3895485189418298  0.6400808114726546  0.0000000000000000
  0.8911318074616847  0.1409038753315672  0.0000000000000000
  0.8952011778124156  0.1455792271033744  0.5000000000000000
  0.8908104782848710  0.6406222841050127  0.0000000000000000
  0.0016396197256555  0.9963690214861495  0.1253593109027324
  0.0011074141548214  0.0042119929213183  0.6256775643065275
  0.0009956065608691  0.4999904474327362  0.1247706199513205
  0.0021987789109487  0.4986203445671322  0.6260073704748388
  0.5010263175801314  0.0003587583381995  0.1246919088718927
  0.4981653029360018  0.0014488221663827  0.6257925402462544
  0.4993276591558199  0.4944883015550651  0.1254138928234186
  0.5038915762192666  0.5266854625545161  0.6206311606937150
  0.0011074141548214  0.0042119929213183  0.3743224356934724
  0.0016396197256555  0.9963690214861495  0.8746406890972677
  0.0021987789109487  0.4986203445671322  0.3739926295251612
  0.0009956065608691  0.4999904474327362  0.8752293800486795
  0.4981653029360018  0.0014488221663827  0.3742074597537455
  0.5010263175801314  0.0003587583381995  0.8753080911281074
  0.4993276591558199  0.4944883015550651  0.8745861071765814
  0.2466614679610174  0.2464957357657272  0.3739258778086257
  0.2537616885989769  0.2526232229941455  0.8748791187830627
  0.2638446250942930  0.7382369101369691  0.3786449388886010
  0.2472648064109030  0.7516774741024000  0.8746194590098515
  0.7486214306228576  0.2526263095625340  0.8746804038507809
  0.7525631911818945  0.7529617572687732  0.8757546071106166
  0.2537616885989769  0.2526232229941455  0.1251208812169372
  0.2466614679610174  0.2464957357657272  0.6260741221913743
  0.2472648064109030  0.7516774741024000  0.1253805409901485
  0.2638446250942930  0.7382369101369691  0.6213550611113989
  0.7486214306228576  0.2526263095625340  0.1253195961492190
  0.7522215283429250  0.2452635595307011  0.6255162197596513
  0.7525631911818945  0.7529617572687732  0.1242453928893833
  0.7418004500971919  0.7372949559650840  0.6268619314117960
  0.7522215283429250  0.2452635595307011  0.3744837802403487
  0.8604042915515723  0.3899993773940619  0.5000000000000000
  0.5038915762192666  0.5266854625545161  0.3793688393062851
  0.3468388213255237  0.3925739424098326  0.5000000000000000
  0.8945022753099043  0.6332249239242580  0.5000000000000000
  0.7418004500971919  0.7372949559650840  0.3731380685882040
  0.6189658970135495  0.3595911121956811  0.5000000000000000
 
  0.00000000E+00  0.00000000E+00  0.00000000E+00
  0.00000000E+00  0.00000000E+00  0.00000000E+00
  0.00000000E+00  0.00000000E+00  0.00000000E+00
  0.00000000E+00  0.00000000E+00  0.00000000E+00
  0.00000000E+00  0.00000000E+00  0.00000000E+00
  0.00000000E+00  0.00000000E+00  0.00000000E+00
  0.00000000E+00  0.00000000E+00  0.00000000E+00
  0.00000000E+00  0.00000000E+00  0.00000000E+00
  0.00000000E+00  0.00000000E+00  0.00000000E+00
  0.00000000E+00  0.00000000E+00  0.00000000E+00
  0.00000000E+00  0.00000000E+00  0.00000000E+00
  0.00000000E+00  0.00000000E+00  0.00000000E+00
  0.00000000E+00  0.00000000E+00  0.00000000E+00
  0.00000000E+00  0.00000000E+00  0.00000000E+00
  0.00000000E+00  0.00000000E+00  0.00000000E+00
  0.00000000E+00  0.00000000E+00  0.00000000E+00
  0.00000000E+00  0.00000000E+00  0.00000000E+00
  0.00000000E+00  0.00000000E+00  0.00000000E+00
  0.00000000E+00  0.00000000E+00  0.00000000E+00
  0.00000000E+00  0.00000000E+00  0.00000000E+00
  0.00000000E+00  0.00000000E+00  0.00000000E+00
  0.00000000E+00  0.00000000E+00  0.00000000E+00
  0.00000000E+00  0.00000000E+00  0.00000000E+00
  0.00000000E+00  0.00000000E+00  0.00000000E+00
  0.00000000E+00  0.00000000E+00  0.00000000E+00
  0.00000000E+00  0.00000000E+00  0.00000000E+00
  0.00000000E+00  0.00000000E+00  0.00000000E+00
  0.00000000E+00  0.00000000E+00  0.00000000E+00
  0.00000000E+00  0.00000000E+00  0.00000000E+00
  0.00000000E+00  0.00000000E+00  0.00000000E+00
  0.00000000E+00  0.00000000E+00  0.00000000E+00
  0.00000000E+00  0.00000000E+00  0.00000000E+00
  0.00000000E+00  0.00000000E+00  0.00000000E+00
  0.00000000E+00  0.00000000E+00  0.00000000E+00
  0.00000000E+00  0.00000000E+00  0.00000000E+00
  0.00000000E+00  0.00000000E+00  0.00000000E+00
  0.00000000E+00  0.00000000E+00  0.00000000E+00
  0.00000000E+00  0.00000000E+00  0.00000000E+00
  0.00000000E+00  0.00000000E+00  0.00000000E+00
  0.00000000E+00  0.00000000E+00  0.00000000E+00
  0.00000000E+00  0.00000000E+00  0.00000000E+00
  0.00000000E+00  0.00000000E+00  0.00000000E+00
  0.00000000E+00  0.00000000E+00  0.00000000E+00
  0.00000000E+00  0.00000000E+00  0.00000000E+00
  0.00000000E+00  0.00000000E+00  0.00000000E+00
  0.00000000E+00  0.00000000E+00  0.00000000E+00
  0.00000000E+00  0.00000000E+00  0.00000000E+00
  0.00000000E+00  0.00000000E+00  0.00000000E+00
  0.00000000E+00  0.00000000E+00  0.00000000E+00
  0.00000000E+00  0.00000000E+00  0.00000000E+00
  0.00000000E+00  0.00000000E+00  0.00000000E+00
  0.00000000E+00  0.00000000E+00  0.00000000E+00
  0.00000000E+00  0.00000000E+00  0.00000000E+00
  0.00000000E+00  0.00000000E+00  0.00000000E+00
  0.00000000E+00  0.00000000E+00  0.00000000E+00
  0.00000000E+00  0.00000000E+00  0.00000000E+00
  0.00000000E+00  0.00000000E+00  0.00000000E+00
  0.00000000E+00  0.00000000E+00  0.00000000E+00
  0.00000000E+00  0.00000000E+00  0.00000000E+00
  0.00000000E+00  0.00000000E+00  0.00000000E+00
  0.00000000E+00  0.00000000E+00  0.00000000E+00
  0.00000000E+00  0.00000000E+00  0.00000000E+00
  0.00000000E+00  0.00000000E+00  0.00000000E+00
  0.00000000E+00  0.00000000E+00  0.00000000E+00
  0.00000000E+00  0.00000000E+00  0.00000000E+00
  0.00000000E+00  0.00000000E+00  0.00000000E+00
  0.00000000E+00  0.00000000E+00  0.00000000E+00
  0.00000000E+00  0.00000000E+00  0.00000000E+00
  0.00000000E+00  0.00000000E+00  0.00000000E+00
  0.00000000E+00  0.00000000E+00  0.00000000E+00
  0.00000000E+00  0.00000000E+00  0.00000000E+00
  0.00000000E+00  0.00000000E+00  0.00000000E+00
  0.00000000E+00  0.00000000E+00  0.00000000E+00
  0.00000000E+00  0.00000000E+00  0.00000000E+00
  0.00000000E+00  0.00000000E+00  0.00000000E+00
  0.00000000E+00  0.00000000E+00  0.00000000E+00
  0.00000000E+00  0.00000000E+00  0.00000000E+00
  0.00000000E+00  0.00000000E+00  0.00000000E+00
  0.00000000E+00  0.00000000E+00  0.00000000E+00
  0.00000000E+00  0.00000000E+00  0.00000000E+00
  0.00000000E+00  0.00000000E+00  0.00000000E+00
  0.00000000E+00  0.00000000E+00  0.00000000E+00
  0.00000000E+00  0.00000000E+00  0.00000000E+00
  0.00000000E+00  0.00000000E+00  0.00000000E+00
  0.00000000E+00  0.00000000E+00  0.00000000E+00
  0.00000000E+00  0.00000000E+00  0.00000000E+00
  0.00000000E+00  0.00000000E+00  0.00000000E+00
  0.00000000E+00  0.00000000E+00  0.00000000E+00
  0.00000000E+00  0.00000000E+00  0.00000000E+00
  0.00000000E+00  0.00000000E+00  0.00000000E+00
  0.00000000E+00  0.00000000E+00  0.00000000E+00
  0.00000000E+00  0.00000000E+00  0.00000000E+00
  0.00000000E+00  0.00000000E+00  0.00000000E+00
  0.00000000E+00  0.00000000E+00  0.00000000E+00
  0.00000000E+00  0.00000000E+00  0.00000000E+00
  0.00000000E+00  0.00000000E+00  0.00000000E+00
  0.00000000E+00  0.00000000E+00  0.00000000E+00
  0.00000000E+00  0.00000000E+00  0.00000000E+00
  0.00000000E+00  0.00000000E+00  0.00000000E+00
  0.00000000E+00  0.00000000E+00  0.00000000E+00
  0.00000000E+00  0.00000000E+00  0.00000000E+00
  0.00000000E+00  0.00000000E+00  0.00000000E+00
  0.00000000E+00  0.00000000E+00  0.00000000E+00
  0.00000000E+00  0.00000000E+00  0.00000000E+00
  0.00000000E+00  0.00000000E+00  0.00000000E+00
  0.00000000E+00  0.00000000E+00  0.00000000E+00
  0.00000000E+00  0.00000000E+00  0.00000000E+00
  0.00000000E+00  0.00000000E+00  0.00000000E+00
  0.00000000E+00  0.00000000E+00  0.00000000E+00
  0.00000000E+00  0.00000000E+00  0.00000000E+00
  0.00000000E+00  0.00000000E+00  0.00000000E+00
  0.00000000E+00  0.00000000E+00  0.00000000E+00
  0.00000000E+00  0.00000000E+00  0.00000000E+00
  0.00000000E+00  0.00000000E+00  0.00000000E+00
  0.00000000E+00  0.00000000E+00  0.00000000E+00
  0.00000000E+00  0.00000000E+00  0.00000000E+00
  0.00000000E+00  0.00000000E+00  0.00000000E+00
  0.00000000E+00  0.00000000E+00  0.00000000E+00
  0.00000000E+00  0.00000000E+00  0.00000000E+00
  0.00000000E+00  0.00000000E+00  0.00000000E+00
  0.00000000E+00  0.00000000E+00  0.00000000E+00
  0.00000000E+00  0.00000000E+00  0.00000000E+00
  0.00000000E+00  0.00000000E+00  0.00000000E+00
  0.00000000E+00  0.00000000E+00  0.00000000E+00
  0.00000000E+00  0.00000000E+00  0.00000000E+00
  0.00000000E+00  0.00000000E+00  0.00000000E+00
  0.00000000E+00  0.00000000E+00  0.00000000E+00
  0.00000000E+00  0.00000000E+00  0.00000000E+00
  0.00000000E+00  0.00000000E+00  0.00000000E+00
  0.00000000E+00  0.00000000E+00  0.00000000E+00
  0.00000000E+00  0.00000000E+00  0.00000000E+00
  0.00000000E+00  0.00000000E+00  0.00000000E+00
  0.00000000E+00  0.00000000E+00  0.00000000E+00
  0.00000000E+00  0.00000000E+00  0.00000000E+00
  0.00000000E+00  0.00000000E+00  0.00000000E+00
  0.00000000E+00  0.00000000E+00  0.00000000E+00
  0.00000000E+00  0.00000000E+00  0.00000000E+00
  0.00000000E+00  0.00000000E+00  0.00000000E+00
  0.00000000E+00  0.00000000E+00  0.00000000E+00
  0.00000000E+00  0.00000000E+00  0.00000000E+00
  0.00000000E+00  0.00000000E+00  0.00000000E+00
  0.00000000E+00  0.00000000E+00  0.00000000E+00
  0.00000000E+00  0.00000000E+00  0.00000000E+00
  0.00000000E+00  0.00000000E+00  0.00000000E+00
  0.00000000E+00  0.00000000E+00  0.00000000E+00
  0.00000000E+00  0.00000000E+00  0.00000000E+00
  0.00000000E+00  0.00000000E+00  0.00000000E+00
  0.00000000E+00  0.00000000E+00  0.00000000E+00
  0.00000000E+00  0.00000000E+00  0.00000000E+00
  0.00000000E+00  0.00000000E+00  0.00000000E+00
  0.00000000E+00  0.00000000E+00  0.00000000E+00
  0.00000000E+00  0.00000000E+00  0.00000000E+00
  0.00000000E+00  0.00000000E+00  0.00000000E+00
  0.00000000E+00  0.00000000E+00  0.00000000E+00
  0.00000000E+00  0.00000000E+00  0.00000000E+00
  0.00000000E+00  0.00000000E+00  0.00000000E+00
  0.00000000E+00  0.00000000E+00  0.00000000E+00
  0.00000000E+00  0.00000000E+00  0.00000000E+00
