Sr   Ti   O                             
   1.00000000000000     
    11.1989999999999998    0.0000000000000000    0.0000000000000000
     0.0000000000000000   11.1989999999999998    0.0000000000000000
     0.0000000000000000    0.0000000000000000   15.9830000000000005
   Sr   Ti   O 
    32    32    94
Direct
  1.0001988864939833  0.2494152219078547  0.1244737114284216
  0.0006924683547395  0.2450938627396093  0.6269605491790956
  0.9988418721097587  0.7508776284173612  0.1248485874149641
  0.0053917727472964  0.7547815300416993  0.6284597068738254
  0.4997876877536963  0.2492810334215221  0.1255600525566510
  0.5013177088112071  0.2394858594155288  0.6243464713153561
  0.4996584501566007  0.7516218133301900  0.1235798988995405
  0.4937490418062022  0.7554473892084441  0.6267447042139599
  0.0008444938475679  0.2462631847106651  0.3735206038847338
  1.0003318015786404  0.2498159582221586  0.8752942645763265
  0.0048698704277737  0.7530669876758957  0.3734715258613501
  0.9992919333857819  0.7502604831507917  0.8754464752227172
  0.5011199992758587  0.2416013448098265  0.3723641565042393
  0.5000522230083939  0.2464266241704444  0.8756955366182151
  0.4957273092183285  0.7529752258752180  0.3704730638331369
  0.5010679043164243  0.7542230408280427  0.8773859834456921
  0.2500744461830587  0.0006888866264216  0.1248094314704998
  0.2493162586611965 -0.0002361787719503  0.6249637347241815
  0.2485723574479703  0.5003814347645208  0.1254681363067961
  0.2376237396417328  0.5027535970072307  0.6266066302668183
  0.7495495457266385  0.9987990737591275  0.1248083888158907
  0.7526868663478461  0.0012839692488930  0.6248020508095863
  0.7505567829367900  0.4995750038401061  0.1231325923222825
  0.7620244247483304  0.4939458746027952  0.6336728766809064
  0.2492998193243683 -0.0004379996865303  0.3744017158139510
  0.2503804070553978  0.0008161551439752  0.8747519077528124
  0.2448684240996762  0.5033353837495885  0.3745252124963486
  0.2466478940729371  0.5001434304317488  0.8764688236213488
  0.7520508012394685  0.0027346074227940  0.3743439756771612
  0.7507623550802325  0.9989937751452992  0.8750341098305118
  0.7549990598816688  0.4908056870418060  0.3657647492058900
  0.7524514048804450  0.5000415625199628  0.8776785998418948
  0.0003027841255494  0.9999977263266434  0.9998030794577818
 -0.0008483827566902  1.0001958866613951  0.4994926919289046
  0.0006438516875007  0.4993326378281668  0.0004658026982196
  0.0008434698880448  0.4940415124016864  0.4996097240358526
  0.5003654797152535  1.0000478831806849  0.0001802783330841
  0.5004568496748758 -0.0026853039857073  0.4996037347453628
  0.4989856438695808  0.4997080211219168  0.0032888799720246
  0.2507405553721049  0.2510243739417415  1.0000491138619967
  0.2504993111284055  0.2452667631527704  0.5008790473518769
  0.2501678467919809  0.7497830906850499  0.9998131279178664
  0.2487260803315917  0.7514618842843023  0.4992779921357791
  0.7500361824343232  0.2497565634277358  0.9997547984942650
  0.7482436691723107  0.2503968592877924  0.4995637770409242
  0.7502210995588863  0.7508077605503800  0.0002093564137005
  0.2504891841650065  0.2510708656240339  0.2506029734827435
  0.2511195903747966  0.2506868817537821  0.7487734426577048
  0.2494524290514353  0.7504142337186916  0.2489240197551248
  0.2510970137017778  0.7503258785270301  0.7500151953683348
  0.7503115687994227  0.2485575536526041  0.2483984167801151
  0.7499599760739638  0.2488419877673805  0.7500518055559896
  0.7493983002605660  0.7475227737420260  0.2502234805371722
  0.7511721026877753  0.7496340088987099  0.7504343334564066
  0.0000580287500920  0.9999793761048229  0.2498055349851721
  0.0006759037361267  0.0002879530145161  0.7512492182303724
  0.9998589658876904  0.5007270181518930  0.2490692474065922
  1.0001090905051409  0.5004707249035084  0.7520235043396668
  0.5002107576544651  0.9990972893106684  0.2497497945199925
  0.5009180132806661  0.9996868035902051  0.7500855679281508
  0.5006044442860436  0.5007834432397124  0.2487243047316012
  0.5012574177568041  0.5013887601755325  0.7586227726998119
  0.4926966835173315  0.4930676033995108  0.4936251697300514
  0.7491555923282176  0.7513257194658690  0.5025076552595253
  0.1110982796509657  0.1407278615889260  0.2500388771296417
  0.1114913363846965  0.1397723712955542  0.7532165277013836
  0.1096323592554791  0.6401371929889269  0.2493916027029329
  0.1128282441648920  0.6383432140894478  0.7503076796913833
  0.6111253107785136  0.1383195575344655  0.2488714710790180
  0.6113314513211758  0.1392551506489472  0.7503773832791268
  0.6089868971207327  0.6404327182994887  0.2443470389650003
  0.3914241353653204  0.3619754616072142  0.2545861334238362
  0.3920168483215334  0.3663731668948664  0.7358265334353316
  0.3893877401030987  0.8603364596734739  0.2487380695702833
  0.3891115408546991  0.8616801730331385  0.7516231921927332
  0.8896774185877127  0.3603382510389282  0.2517696034119568
  0.8891138598825433  0.3610956270769431  0.7485054191420355
  0.8882894144773315  0.8588900455886760  0.2556870958525401
  0.8906195706396957  0.8607632671817393  0.7510611797169311
  0.3610750246668870  0.1112513712370454  0.2501545044653747
  0.3627825989516315  0.1128382337192513  0.7507096912859648
  0.3597915957048359  0.6096585395880143  0.2529171591368528
  0.3658619756215092  0.6095793438317085  0.7387399885416567
  0.8604775520819901  0.1097006424304005  0.2489434537423157
  0.8606614312870160  0.1111228041942920  0.7506734671409958
  0.8594742546520464  0.6089624894729180  0.2449472794717243
  0.8618601731613453  0.6103874739697367  0.7568244969565202
  0.1394679872391812  0.3912177850889186  0.2536394354461837
  0.1388978393944686  0.3897853041213447  0.7478635803612996
  0.1390423623539800  0.8899926188917351  0.2488693465533539
  0.1400684050390781  0.8887435870108124  0.7501581160902582
  0.6392744174881843  0.3888740446096751  0.2478596678651914
  0.6402404797448543  0.8876661402763765  0.2557193289818576
  0.6408908124093670  0.8887619615971566  0.7452806797518422
  0.3588288661310732  0.3919339860759151  0.0009875423871223
  0.3596113335206218  0.8906514343673750  0.9991679430479585
  0.3568804654431227  0.8913842803379052  0.4998557932677793
  0.8596945661857121  0.3904171504506495 -0.0000724875082984
  0.8518533152680582  0.3994520984267412  0.4992702068670836
  0.8599866381033509  0.8905449580659803  0.9996916860731550
  0.8633308361551060  0.8905983430052530  0.4965742561552168
  0.1413134475390788  0.1104479401162069  0.9994554969457806
  0.1417123928327645  0.1094853028463956  0.4986294066646859
  0.1405796430785768  0.6091984574226398 -0.0000268967931605
  0.1272730244058966  0.6168881064580893  0.4990664001416327
  0.6407329812147320  0.1097384608485084  0.9994198046230265
  0.6426446593050987  0.1056520480176751  0.5002186493343508
  0.6396930741785900  0.6092717131366466 -0.0002100425714291
  0.1097857014113787  0.3588135455057631  0.9994804175779324
  0.1075427350437285  0.3589997071459251  0.5001608551337071
  0.1102976787604368  0.8591229476989238  0.9987715696649162
  0.1093903719686031  0.8621740360302268  0.5001233642719224
  0.6087323283468831  0.3600310092803827  0.0001356083047130
  0.6094700157598585  0.8595843728510528  1.0006475332798159
  0.6010187428015602  0.8534861883153406  0.5003794694123272
  0.3909035583163276  0.1406457458951996  1.0002440927565255
  0.3915122338163421  0.1416324673369877  0.4996834701422707
  0.3914774249486588  0.6406213478747333  0.0001458718066780
  0.3803221475943646  0.6354469994342673  0.4950544194871057
  0.8906179634226198  0.1406643654054163  0.9988285317979793
  0.8918110989169823  0.1445487018938297  0.4999530191923828
  0.8898758480271568  0.6396679799903177  0.9999665771279620
  0.9992536483432367  0.9985220063114810  0.1250570968066159
 -0.0000551784663874  0.0021261292700125  0.6254339078996630
  0.0020990644387170  0.4972710702183823  0.1250549670319019
  0.9951914948005290  0.5085076004737727  0.6238283188501015
  0.5018647146048698  0.9983655964264249  0.1253655879581141
  0.4981150454676807  0.0015397160686971  0.6248342897866673
  0.4969947970594328  0.4986383826876531  0.1255794245857255
  0.0016487727745262  0.0037353643888023  0.3745740556358249
  1.0004471703054554  0.9995161832654537  0.8751066837506095
  0.9928675824859071  0.5092014706999829  0.3763458669713357
  0.0023044791558983  0.4975060558855605  0.8754280787435706
  0.4985441648170971  0.0008000941165882  0.3750416871352468
  0.5027023498111364  0.9988074578528062  0.8747333407949536
  0.4942468007894837  0.4966263335876221  0.8746771846792570
  0.2527824248856586  0.2539921345776797  0.3770954210629043
  0.2563203043425387  0.2564065761504053  0.8734154240326446
  0.2465520391040119  0.7532144207698888  0.3739273309077603
  0.2540873449561274  0.7448300201320150  0.8736666045346316
  0.7495911164753191  0.2482069090372620  0.3745210685543722
  0.7479199456681139  0.2539764614491371  0.8738797744564213
  0.7457385970043546  0.7229916234977510  0.3800614300271553
  0.7481673400338116  0.7532055550394371  0.8752535356096451
  0.2512329815907679  0.2532574455265320  0.1261082918140638
  0.2436499071191917  0.2425500628059326  0.6249814241033690
  0.2505476293512399  0.7491805892296599  0.1245565476808315
  0.2483122023654538  0.7514207876741772  0.6244043338653517
  0.7512469451491955  0.2499337123247534  0.1243645065985612
  0.7497833868750470  0.2488720469754954  0.6244163650251238
  0.7509251248469093  0.7543473032503559  0.1256166620304838
  0.6363114279502473  0.3915954966980159  0.7447305827670030
  0.6101393015380647  0.6389911746017395  0.7519886573383324
  0.5165351364323412  0.5127648347748770  0.3765343901338948
  0.6013863697880857  0.3525521832435738  0.4975555071945127
  0.3573512204352820  0.3928179659847515  0.5134855230964646
  0.7650836692216459  0.7408131953629264  0.6251838552182317
  0.5829506334327120  0.5720417629008849  0.5727305726960741
 
  0.00000000E+00  0.00000000E+00  0.00000000E+00
  0.00000000E+00  0.00000000E+00  0.00000000E+00
  0.00000000E+00  0.00000000E+00  0.00000000E+00
  0.00000000E+00  0.00000000E+00  0.00000000E+00
  0.00000000E+00  0.00000000E+00  0.00000000E+00
  0.00000000E+00  0.00000000E+00  0.00000000E+00
  0.00000000E+00  0.00000000E+00  0.00000000E+00
  0.00000000E+00  0.00000000E+00  0.00000000E+00
  0.00000000E+00  0.00000000E+00  0.00000000E+00
  0.00000000E+00  0.00000000E+00  0.00000000E+00
  0.00000000E+00  0.00000000E+00  0.00000000E+00
  0.00000000E+00  0.00000000E+00  0.00000000E+00
  0.00000000E+00  0.00000000E+00  0.00000000E+00
  0.00000000E+00  0.00000000E+00  0.00000000E+00
  0.00000000E+00  0.00000000E+00  0.00000000E+00
  0.00000000E+00  0.00000000E+00  0.00000000E+00
  0.00000000E+00  0.00000000E+00  0.00000000E+00
  0.00000000E+00  0.00000000E+00  0.00000000E+00
  0.00000000E+00  0.00000000E+00  0.00000000E+00
  0.00000000E+00  0.00000000E+00  0.00000000E+00
  0.00000000E+00  0.00000000E+00  0.00000000E+00
  0.00000000E+00  0.00000000E+00  0.00000000E+00
  0.00000000E+00  0.00000000E+00  0.00000000E+00
  0.00000000E+00  0.00000000E+00  0.00000000E+00
  0.00000000E+00  0.00000000E+00  0.00000000E+00
  0.00000000E+00  0.00000000E+00  0.00000000E+00
  0.00000000E+00  0.00000000E+00  0.00000000E+00
  0.00000000E+00  0.00000000E+00  0.00000000E+00
  0.00000000E+00  0.00000000E+00  0.00000000E+00
  0.00000000E+00  0.00000000E+00  0.00000000E+00
  0.00000000E+00  0.00000000E+00  0.00000000E+00
  0.00000000E+00  0.00000000E+00  0.00000000E+00
  0.00000000E+00  0.00000000E+00  0.00000000E+00
  0.00000000E+00  0.00000000E+00  0.00000000E+00
  0.00000000E+00  0.00000000E+00  0.00000000E+00
  0.00000000E+00  0.00000000E+00  0.00000000E+00
  0.00000000E+00  0.00000000E+00  0.00000000E+00
  0.00000000E+00  0.00000000E+00  0.00000000E+00
  0.00000000E+00  0.00000000E+00  0.00000000E+00
  0.00000000E+00  0.00000000E+00  0.00000000E+00
  0.00000000E+00  0.00000000E+00  0.00000000E+00
  0.00000000E+00  0.00000000E+00  0.00000000E+00
  0.00000000E+00  0.00000000E+00  0.00000000E+00
  0.00000000E+00  0.00000000E+00  0.00000000E+00
  0.00000000E+00  0.00000000E+00  0.00000000E+00
  0.00000000E+00  0.00000000E+00  0.00000000E+00
  0.00000000E+00  0.00000000E+00  0.00000000E+00
  0.00000000E+00  0.00000000E+00  0.00000000E+00
  0.00000000E+00  0.00000000E+00  0.00000000E+00
  0.00000000E+00  0.00000000E+00  0.00000000E+00
  0.00000000E+00  0.00000000E+00  0.00000000E+00
  0.00000000E+00  0.00000000E+00  0.00000000E+00
  0.00000000E+00  0.00000000E+00  0.00000000E+00
  0.00000000E+00  0.00000000E+00  0.00000000E+00
  0.00000000E+00  0.00000000E+00  0.00000000E+00
  0.00000000E+00  0.00000000E+00  0.00000000E+00
  0.00000000E+00  0.00000000E+00  0.00000000E+00
  0.00000000E+00  0.00000000E+00  0.00000000E+00
  0.00000000E+00  0.00000000E+00  0.00000000E+00
  0.00000000E+00  0.00000000E+00  0.00000000E+00
  0.00000000E+00  0.00000000E+00  0.00000000E+00
  0.00000000E+00  0.00000000E+00  0.00000000E+00
  0.00000000E+00  0.00000000E+00  0.00000000E+00
  0.00000000E+00  0.00000000E+00  0.00000000E+00
  0.00000000E+00  0.00000000E+00  0.00000000E+00
  0.00000000E+00  0.00000000E+00  0.00000000E+00
  0.00000000E+00  0.00000000E+00  0.00000000E+00
  0.00000000E+00  0.00000000E+00  0.00000000E+00
  0.00000000E+00  0.00000000E+00  0.00000000E+00
  0.00000000E+00  0.00000000E+00  0.00000000E+00
  0.00000000E+00  0.00000000E+00  0.00000000E+00
  0.00000000E+00  0.00000000E+00  0.00000000E+00
  0.00000000E+00  0.00000000E+00  0.00000000E+00
  0.00000000E+00  0.00000000E+00  0.00000000E+00
  0.00000000E+00  0.00000000E+00  0.00000000E+00
  0.00000000E+00  0.00000000E+00  0.00000000E+00
  0.00000000E+00  0.00000000E+00  0.00000000E+00
  0.00000000E+00  0.00000000E+00  0.00000000E+00
  0.00000000E+00  0.00000000E+00  0.00000000E+00
  0.00000000E+00  0.00000000E+00  0.00000000E+00
  0.00000000E+00  0.00000000E+00  0.00000000E+00
  0.00000000E+00  0.00000000E+00  0.00000000E+00
  0.00000000E+00  0.00000000E+00  0.00000000E+00
  0.00000000E+00  0.00000000E+00  0.00000000E+00
  0.00000000E+00  0.00000000E+00  0.00000000E+00
  0.00000000E+00  0.00000000E+00  0.00000000E+00
  0.00000000E+00  0.00000000E+00  0.00000000E+00
  0.00000000E+00  0.00000000E+00  0.00000000E+00
  0.00000000E+00  0.00000000E+00  0.00000000E+00
  0.00000000E+00  0.00000000E+00  0.00000000E+00
  0.00000000E+00  0.00000000E+00  0.00000000E+00
  0.00000000E+00  0.00000000E+00  0.00000000E+00
  0.00000000E+00  0.00000000E+00  0.00000000E+00
  0.00000000E+00  0.00000000E+00  0.00000000E+00
  0.00000000E+00  0.00000000E+00  0.00000000E+00
  0.00000000E+00  0.00000000E+00  0.00000000E+00
  0.00000000E+00  0.00000000E+00  0.00000000E+00
  0.00000000E+00  0.00000000E+00  0.00000000E+00
  0.00000000E+00  0.00000000E+00  0.00000000E+00
  0.00000000E+00  0.00000000E+00  0.00000000E+00
  0.00000000E+00  0.00000000E+00  0.00000000E+00
  0.00000000E+00  0.00000000E+00  0.00000000E+00
  0.00000000E+00  0.00000000E+00  0.00000000E+00
  0.00000000E+00  0.00000000E+00  0.00000000E+00
  0.00000000E+00  0.00000000E+00  0.00000000E+00
  0.00000000E+00  0.00000000E+00  0.00000000E+00
  0.00000000E+00  0.00000000E+00  0.00000000E+00
  0.00000000E+00  0.00000000E+00  0.00000000E+00
  0.00000000E+00  0.00000000E+00  0.00000000E+00
  0.00000000E+00  0.00000000E+00  0.00000000E+00
  0.00000000E+00  0.00000000E+00  0.00000000E+00
  0.00000000E+00  0.00000000E+00  0.00000000E+00
  0.00000000E+00  0.00000000E+00  0.00000000E+00
  0.00000000E+00  0.00000000E+00  0.00000000E+00
  0.00000000E+00  0.00000000E+00  0.00000000E+00
  0.00000000E+00  0.00000000E+00  0.00000000E+00
  0.00000000E+00  0.00000000E+00  0.00000000E+00
  0.00000000E+00  0.00000000E+00  0.00000000E+00
  0.00000000E+00  0.00000000E+00  0.00000000E+00
  0.00000000E+00  0.00000000E+00  0.00000000E+00
  0.00000000E+00  0.00000000E+00  0.00000000E+00
  0.00000000E+00  0.00000000E+00  0.00000000E+00
  0.00000000E+00  0.00000000E+00  0.00000000E+00
  0.00000000E+00  0.00000000E+00  0.00000000E+00
  0.00000000E+00  0.00000000E+00  0.00000000E+00
  0.00000000E+00  0.00000000E+00  0.00000000E+00
  0.00000000E+00  0.00000000E+00  0.00000000E+00
  0.00000000E+00  0.00000000E+00  0.00000000E+00
  0.00000000E+00  0.00000000E+00  0.00000000E+00
  0.00000000E+00  0.00000000E+00  0.00000000E+00
  0.00000000E+00  0.00000000E+00  0.00000000E+00
  0.00000000E+00  0.00000000E+00  0.00000000E+00
  0.00000000E+00  0.00000000E+00  0.00000000E+00
  0.00000000E+00  0.00000000E+00  0.00000000E+00
  0.00000000E+00  0.00000000E+00  0.00000000E+00
  0.00000000E+00  0.00000000E+00  0.00000000E+00
  0.00000000E+00  0.00000000E+00  0.00000000E+00
  0.00000000E+00  0.00000000E+00  0.00000000E+00
  0.00000000E+00  0.00000000E+00  0.00000000E+00
  0.00000000E+00  0.00000000E+00  0.00000000E+00
  0.00000000E+00  0.00000000E+00  0.00000000E+00
  0.00000000E+00  0.00000000E+00  0.00000000E+00
  0.00000000E+00  0.00000000E+00  0.00000000E+00
  0.00000000E+00  0.00000000E+00  0.00000000E+00
  0.00000000E+00  0.00000000E+00  0.00000000E+00
  0.00000000E+00  0.00000000E+00  0.00000000E+00
  0.00000000E+00  0.00000000E+00  0.00000000E+00
  0.00000000E+00  0.00000000E+00  0.00000000E+00
  0.00000000E+00  0.00000000E+00  0.00000000E+00
  0.00000000E+00  0.00000000E+00  0.00000000E+00
  0.00000000E+00  0.00000000E+00  0.00000000E+00
  0.00000000E+00  0.00000000E+00  0.00000000E+00
  0.00000000E+00  0.00000000E+00  0.00000000E+00
  0.00000000E+00  0.00000000E+00  0.00000000E+00
  0.00000000E+00  0.00000000E+00  0.00000000E+00
  0.00000000E+00  0.00000000E+00  0.00000000E+00
  0.00000000E+00  0.00000000E+00  0.00000000E+00
  0.00000000E+00  0.00000000E+00  0.00000000E+00
