SrTiFeO                                 
   1.00000000000000     
    11.1989999999999998    0.0000000000000000    0.0000000000000000
     0.0000000000000000   11.1989999999999998    0.0000000000000000
     0.0000000000000000    0.0000000000000000   15.9830000000000005
   Sr   Ti   O 
    32    32    94
Direct
  0.9999381355942436  0.2503048389235814  0.1249451143958158
  0.0001356899865568  0.2500344751698471  0.6256289090469264
  0.9995593233783396  0.7498237738133348  0.1249592555041264
  0.9988639884380476  0.7485813871720305  0.6264839198263881
  0.4995048994867440  0.2509069317668580  0.1250704988919612
  0.5009168613199005  0.2474076937870364  0.6244380416158829
  0.4989955334661162  0.7507997748498875  0.1231018805629173
  0.5018565459005280  0.7574351396564375  0.6318300207925076
  0.0001356899865568  0.2500344751698471  0.3743710909530737
  0.9999381355942436  0.2503048389235814  0.8750548856041843
  0.9988639884380476  0.7485813871720305  0.3735160801736120
  0.9995593233783396  0.7498237738133348  0.8750407444958737
  0.5009168613199005  0.2474076937870364  0.3755619583841171
  0.4995048994867440  0.2509069317668580  0.8749295011080388
  0.5018565459005280  0.7574351396564375  0.3681699792074924
  0.4989955334661162  0.7507997748498875  0.8768981194370827
  0.2499755587623411  0.9993037887584948  0.1252308508756320
  0.2517432563747921  0.0025186256073655  0.6256394305337017
  0.2494364236829983  0.4999397469112486  0.1235548890699818
  0.2473030789445904  0.4982868105697563  0.6281248405963852
  0.7496702693925369  0.9997502609863320  0.1246149421322838
  0.7511965270135741  0.0035932290865522  0.6267112543743439
  0.7491691849916604  0.5001245337334117  0.1248531138475746
  0.7558832744802342  0.4972683822142852  0.6275135786221111
  0.2517432563747921  0.0025186256073655  0.3743605694662984
  0.2499755587623411  0.9993037887584948  0.8747691491243680
  0.2473030789445904  0.4982868105697563  0.3718751594036149
  0.2494364236829983  0.4999397469112486  0.8764451109300182
  0.7511965270135741  0.0035932290865522  0.3732887456256560
  0.7496702693925369  0.9997502609863320  0.8753850578677161
  0.7558832744802342  0.4972683822142852  0.3724864213778888
  0.7491691849916604  0.5001245337334117  0.8751468861524253
  0.0000019202536243  0.9996129858753684 -0.0000000000000000
  0.0008942476318086  0.0045595936217625  0.5000000000000000
  0.9996159928596181  0.4999983488920302 -0.0000000000000000
  0.0009449405826475  0.4987311858835720  0.5000000000000000
  0.5003138751042855  0.0006881134803284 -0.0000000000000000
  0.5006825996862729  0.9989299392082588  0.5000000000000000
  0.4998423037778663  0.4991983820466887 -0.0000000000000000
  0.2503123148658487  0.2500323646431091 -0.0000000000000000
  0.2498382492568640  0.2512843616487486  0.5000000000000000
  0.2490542006195349  0.7504376206278456 -0.0000000000000000
  0.2434584088623543  0.7541214396639998  0.5000000000000000
  0.7498394856773365  0.2503876813058478 -0.0000000000000000
  0.7504463138702604  0.7506290524690811 -0.0000000000000000
  0.2503421663282640  0.2501652694286251  0.2500064396671254
  0.2503421663282640  0.2501652694286251  0.7499935603328747
  0.2503815888644508  0.7492324060756355  0.2498044379581266
  0.2503815888644508  0.7492324060756355  0.7501955620418734
  0.7499890137216009  0.2500762083118871  0.2498986496417937
  0.7499890137216009  0.2500762083118871  0.7501013503582064
  0.7495575467648781  0.7493331716845277  0.2494306963254726
  0.7495575467648781  0.7493331716845277  0.7505693036745275
  0.0004648392453206  0.9997731542199801  0.2502568171345263
  0.0004648392453206  0.9997731542199801  0.7497431828654737
  0.0003324746655306  0.4999485370985353  0.2493106504184817
  0.0003324746655306  0.4999485370985353  0.7506893495815183
  0.5001398731049205  0.0011305898271992  0.2492228037796871
  0.5001398731049205  0.0011305898271992  0.7507771962203130
  0.5002084920497163  0.5017976137835074  0.2499615996925941
  0.5002084920497163  0.5017976137835074  0.7500384003074060
  0.7496883985158238  0.2506089375082950  0.5000000000000000
  0.4991584791626660  0.4997987847692246  0.5000000000000000
  0.7532571938686546  0.7562176889986935  0.5000000000000000
  0.1100478914827728  0.1397837966843274  0.2488218756007646
  0.1100478914827728  0.1397837966843274  0.7511781243992354
  0.1095596769437994  0.6405548067421575  0.2510262381087039
  0.1095596769437994  0.6405548067421575  0.7489737618912961
  0.6095158814565507  0.1409749482534605  0.2502082071340850
  0.6095158814565507  0.1409749482534605  0.7497917928659149
  0.6090334958114394  0.6415147681491866  0.2442188741671740
  0.6090334958114394  0.6415147681491866  0.7557811258328332
  0.3910514897771734  0.3612858402417287  0.2555420956492704
  0.3910514897771734  0.3612858402417287  0.7444579043507296
  0.3894728989585901  0.8606983283117812  0.2485692994254516
  0.3894728989585901  0.8606983283117812  0.7514307005745484
  0.8896995466375935  0.3602529834585176  0.2508384144312524
  0.8896995466375935  0.3602529834585176  0.7491615855687477
  0.8893787944924381  0.8592068824858554  0.2535202699792057
  0.8893787944924381  0.8592068824858554  0.7464797300207942
  0.3600467944594248  0.1103415869904353  0.2498013634345375
  0.3600467944594248  0.1103415869904353  0.7501986365654625
  0.3591039427854556  0.6093111798657196  0.2462813231315406
  0.3591039427854556  0.6093111798657196  0.7537186768684594
  0.8598493488993108  0.1096797762908136  0.2486191014789944
  0.8598493488993108  0.1096797762908136  0.7513808985210056
  0.8595862610897899  0.6096853162033112  0.2495794270266970
  0.8595862610897899  0.6096853162033112  0.7504205729733030
  0.1401348196092325  0.3899426541389132  0.2492087804723666
  0.1401348196092325  0.3899426541389132  0.7507912195276335
  0.1404636427528298  0.8892674601492248  0.2537500411321225
  0.1404636427528298  0.8892674601492248  0.7462499588678775
  0.6396702281467044  0.3916248574334550  0.2537880034281026
  0.6396702281467044  0.3916248574334550  0.7462119965718973
  0.6401325115034291  0.8900948623298864  0.2519120284603328
  0.6401325115034291  0.8900948623298864  0.7480879715396673
  0.3591539651750020  0.3906784582385493 -0.0000000000000000
  0.3598146485436162  0.8902450358867952 -0.0000000000000000
  0.3609589853815907  0.8837318841633058  0.5000000000000000
  0.8592363386616829  0.3907969981531826 -0.0000000000000000
  0.8594934781056350  0.8914897362473762 -0.0000000000000000
  0.8572313279171496  0.8924531491063010  0.5000000000000000
  0.1408261898138819  0.1094187193413864 -0.0000000000000000
  0.1430528771564822  0.1049193023909011  0.5000000000000000
  0.1402982067789257  0.6095121134861387 -0.0000000000000000
  0.1450895357708447  0.6052770672803336  0.5000000000000000
  0.6412948012749503  0.1096505665003412 -0.0000000000000000
  0.6419211913793316  0.1052694089546191  0.5000000000000000
  0.6398781485610452  0.6100143305618447 -0.0000000000000000
  0.1094859593413716  0.3591577734619919 -0.0000000000000000
  0.1056108208801194  0.3551819283550673  0.5000000000000000
  0.1089219903053278  0.8593365459658614 -0.0000000000000000
  0.1036775712136781  0.8551532520642087  0.5000000000000000
  0.6092465445650124  0.3592690198747487 -0.0000000000000000
  0.6098342912347197  0.8597847523563630 -0.0000000000000000
  0.6051499680148623  0.8508371275422166  0.5000000000000000
  0.3909436128428126  0.1407493019529960 -0.0000000000000000
  0.3905571353804473  0.1380401284436918  0.5000000000000000
  0.3899133058466365  0.6399073955155496 -0.0000000000000000
  0.8909529899266995  0.1407136342066953 -0.0000000000000000
  0.8923663813333611  0.1411852960295427  0.5000000000000000
  0.8903372311094816  0.6407847955318301 -0.0000000000000000
  0.0006777374074537  0.9970768221230911  0.1255242996072131
  0.9993779451556619  0.0014876286872605  0.6246833339653289
  0.0000420556338742  0.5000137579557459  0.1250165736061408
  0.0004834226674718  0.5002786970874981  0.6250936787027678
  0.5012700291500198  0.0002439882383883  0.1250008684693551
  0.4993336979404272  0.9998483994649323  0.6249959803211226
  0.4997700326194774  0.4958032312986270  0.1251461146499301
  0.5021545777042563  0.5208553125584593  0.6228137793157038
  0.9993779451556619  0.0014876286872605  0.3753166660346711
  0.0006777374074537  0.9970768221230911  0.8744757003927869
  0.0004834226674718  0.5002786970874981  0.3749063212972323
  0.0000420556338742  0.5000137579557459  0.8749834263938592
  0.4993336979404272  0.9998483994649323  0.3750040196788773
  0.5012700291500198  0.0002439882383883  0.8749991315306448
  0.4997700326194774  0.4958032312986270  0.8748538853500699
  0.2478138885871030  0.2476734025179378  0.3750134043043145
  0.2524638129481921  0.2516920144657510  0.8746142006112699
  0.2582994122242909  0.7422397482226851  0.3765476956921215
  0.2478233551774170  0.7515853967672261  0.8749199069454283
  0.7488598169323885  0.2521648708420570  0.8746287136083629
  0.7521604217514544  0.7526133853989394  0.8750246533930343
  0.2524638129481921  0.2516920144657510  0.1253857993887300
  0.2478138885871030  0.2476734025179378  0.6249865956956855
  0.2478233551774170  0.7515853967672261  0.1250800930545717
  0.2582994122242909  0.7422397482226851  0.6234523043078786
  0.7488598169323885  0.2521648708420570  0.1253712863916372
  0.7510618717813874  0.2471972928452658  0.6250586008897673
  0.7521604217514544  0.7526133853989394  0.1249753466069657
  0.7426921329061289  0.7396267955948493  0.6235047581649281
  0.7510618717813874  0.2471972928452658  0.3749413991102328
  0.8594662899227530  0.3905626264438181  0.5000000000000000
  0.5021545777042563  0.5208553125584593  0.3771862206842961
  0.3538188098934650  0.3908737656131352  0.5000000000000000
  0.8862252390665087  0.6375518536217191  0.5000000000000000
  0.7426921329061289  0.7396267955948493  0.3764952418350719
  0.6127012773043232  0.3579032815990028  0.5000000000000000
 
  0.00000000E+00  0.00000000E+00  0.00000000E+00
  0.00000000E+00  0.00000000E+00  0.00000000E+00
  0.00000000E+00  0.00000000E+00  0.00000000E+00
  0.00000000E+00  0.00000000E+00  0.00000000E+00
  0.00000000E+00  0.00000000E+00  0.00000000E+00
  0.00000000E+00  0.00000000E+00  0.00000000E+00
  0.00000000E+00  0.00000000E+00  0.00000000E+00
  0.00000000E+00  0.00000000E+00  0.00000000E+00
  0.00000000E+00  0.00000000E+00  0.00000000E+00
  0.00000000E+00  0.00000000E+00  0.00000000E+00
  0.00000000E+00  0.00000000E+00  0.00000000E+00
  0.00000000E+00  0.00000000E+00  0.00000000E+00
  0.00000000E+00  0.00000000E+00  0.00000000E+00
  0.00000000E+00  0.00000000E+00  0.00000000E+00
  0.00000000E+00  0.00000000E+00  0.00000000E+00
  0.00000000E+00  0.00000000E+00  0.00000000E+00
  0.00000000E+00  0.00000000E+00  0.00000000E+00
  0.00000000E+00  0.00000000E+00  0.00000000E+00
  0.00000000E+00  0.00000000E+00  0.00000000E+00
  0.00000000E+00  0.00000000E+00  0.00000000E+00
  0.00000000E+00  0.00000000E+00  0.00000000E+00
  0.00000000E+00  0.00000000E+00  0.00000000E+00
  0.00000000E+00  0.00000000E+00  0.00000000E+00
  0.00000000E+00  0.00000000E+00  0.00000000E+00
  0.00000000E+00  0.00000000E+00  0.00000000E+00
  0.00000000E+00  0.00000000E+00  0.00000000E+00
  0.00000000E+00  0.00000000E+00  0.00000000E+00
  0.00000000E+00  0.00000000E+00  0.00000000E+00
  0.00000000E+00  0.00000000E+00  0.00000000E+00
  0.00000000E+00  0.00000000E+00  0.00000000E+00
  0.00000000E+00  0.00000000E+00  0.00000000E+00
  0.00000000E+00  0.00000000E+00  0.00000000E+00
  0.00000000E+00  0.00000000E+00  0.00000000E+00
  0.00000000E+00  0.00000000E+00  0.00000000E+00
  0.00000000E+00  0.00000000E+00  0.00000000E+00
  0.00000000E+00  0.00000000E+00  0.00000000E+00
  0.00000000E+00  0.00000000E+00  0.00000000E+00
  0.00000000E+00  0.00000000E+00  0.00000000E+00
  0.00000000E+00  0.00000000E+00  0.00000000E+00
  0.00000000E+00  0.00000000E+00  0.00000000E+00
  0.00000000E+00  0.00000000E+00  0.00000000E+00
  0.00000000E+00  0.00000000E+00  0.00000000E+00
  0.00000000E+00  0.00000000E+00  0.00000000E+00
  0.00000000E+00  0.00000000E+00  0.00000000E+00
  0.00000000E+00  0.00000000E+00  0.00000000E+00
  0.00000000E+00  0.00000000E+00  0.00000000E+00
  0.00000000E+00  0.00000000E+00  0.00000000E+00
  0.00000000E+00  0.00000000E+00  0.00000000E+00
  0.00000000E+00  0.00000000E+00  0.00000000E+00
  0.00000000E+00  0.00000000E+00  0.00000000E+00
  0.00000000E+00  0.00000000E+00  0.00000000E+00
  0.00000000E+00  0.00000000E+00  0.00000000E+00
  0.00000000E+00  0.00000000E+00  0.00000000E+00
  0.00000000E+00  0.00000000E+00  0.00000000E+00
  0.00000000E+00  0.00000000E+00  0.00000000E+00
  0.00000000E+00  0.00000000E+00  0.00000000E+00
  0.00000000E+00  0.00000000E+00  0.00000000E+00
  0.00000000E+00  0.00000000E+00  0.00000000E+00
  0.00000000E+00  0.00000000E+00  0.00000000E+00
  0.00000000E+00  0.00000000E+00  0.00000000E+00
  0.00000000E+00  0.00000000E+00  0.00000000E+00
  0.00000000E+00  0.00000000E+00  0.00000000E+00
  0.00000000E+00  0.00000000E+00  0.00000000E+00
  0.00000000E+00  0.00000000E+00  0.00000000E+00
  0.00000000E+00  0.00000000E+00  0.00000000E+00
  0.00000000E+00  0.00000000E+00  0.00000000E+00
  0.00000000E+00  0.00000000E+00  0.00000000E+00
  0.00000000E+00  0.00000000E+00  0.00000000E+00
  0.00000000E+00  0.00000000E+00  0.00000000E+00
  0.00000000E+00  0.00000000E+00  0.00000000E+00
  0.00000000E+00  0.00000000E+00  0.00000000E+00
  0.00000000E+00  0.00000000E+00  0.00000000E+00
  0.00000000E+00  0.00000000E+00  0.00000000E+00
  0.00000000E+00  0.00000000E+00  0.00000000E+00
  0.00000000E+00  0.00000000E+00  0.00000000E+00
  0.00000000E+00  0.00000000E+00  0.00000000E+00
  0.00000000E+00  0.00000000E+00  0.00000000E+00
  0.00000000E+00  0.00000000E+00  0.00000000E+00
  0.00000000E+00  0.00000000E+00  0.00000000E+00
  0.00000000E+00  0.00000000E+00  0.00000000E+00
  0.00000000E+00  0.00000000E+00  0.00000000E+00
  0.00000000E+00  0.00000000E+00  0.00000000E+00
  0.00000000E+00  0.00000000E+00  0.00000000E+00
  0.00000000E+00  0.00000000E+00  0.00000000E+00
  0.00000000E+00  0.00000000E+00  0.00000000E+00
  0.00000000E+00  0.00000000E+00  0.00000000E+00
  0.00000000E+00  0.00000000E+00  0.00000000E+00
  0.00000000E+00  0.00000000E+00  0.00000000E+00
  0.00000000E+00  0.00000000E+00  0.00000000E+00
  0.00000000E+00  0.00000000E+00  0.00000000E+00
  0.00000000E+00  0.00000000E+00  0.00000000E+00
  0.00000000E+00  0.00000000E+00  0.00000000E+00
  0.00000000E+00  0.00000000E+00  0.00000000E+00
  0.00000000E+00  0.00000000E+00  0.00000000E+00
  0.00000000E+00  0.00000000E+00  0.00000000E+00
  0.00000000E+00  0.00000000E+00  0.00000000E+00
  0.00000000E+00  0.00000000E+00  0.00000000E+00
  0.00000000E+00  0.00000000E+00  0.00000000E+00
  0.00000000E+00  0.00000000E+00  0.00000000E+00
  0.00000000E+00  0.00000000E+00  0.00000000E+00
  0.00000000E+00  0.00000000E+00  0.00000000E+00
  0.00000000E+00  0.00000000E+00  0.00000000E+00
  0.00000000E+00  0.00000000E+00  0.00000000E+00
  0.00000000E+00  0.00000000E+00  0.00000000E+00
  0.00000000E+00  0.00000000E+00  0.00000000E+00
  0.00000000E+00  0.00000000E+00  0.00000000E+00
  0.00000000E+00  0.00000000E+00  0.00000000E+00
  0.00000000E+00  0.00000000E+00  0.00000000E+00
  0.00000000E+00  0.00000000E+00  0.00000000E+00
  0.00000000E+00  0.00000000E+00  0.00000000E+00
  0.00000000E+00  0.00000000E+00  0.00000000E+00
  0.00000000E+00  0.00000000E+00  0.00000000E+00
  0.00000000E+00  0.00000000E+00  0.00000000E+00
  0.00000000E+00  0.00000000E+00  0.00000000E+00
  0.00000000E+00  0.00000000E+00  0.00000000E+00
  0.00000000E+00  0.00000000E+00  0.00000000E+00
  0.00000000E+00  0.00000000E+00  0.00000000E+00
  0.00000000E+00  0.00000000E+00  0.00000000E+00
  0.00000000E+00  0.00000000E+00  0.00000000E+00
  0.00000000E+00  0.00000000E+00  0.00000000E+00
  0.00000000E+00  0.00000000E+00  0.00000000E+00
  0.00000000E+00  0.00000000E+00  0.00000000E+00
  0.00000000E+00  0.00000000E+00  0.00000000E+00
  0.00000000E+00  0.00000000E+00  0.00000000E+00
  0.00000000E+00  0.00000000E+00  0.00000000E+00
  0.00000000E+00  0.00000000E+00  0.00000000E+00
  0.00000000E+00  0.00000000E+00  0.00000000E+00
  0.00000000E+00  0.00000000E+00  0.00000000E+00
  0.00000000E+00  0.00000000E+00  0.00000000E+00
  0.00000000E+00  0.00000000E+00  0.00000000E+00
  0.00000000E+00  0.00000000E+00  0.00000000E+00
  0.00000000E+00  0.00000000E+00  0.00000000E+00
  0.00000000E+00  0.00000000E+00  0.00000000E+00
  0.00000000E+00  0.00000000E+00  0.00000000E+00
  0.00000000E+00  0.00000000E+00  0.00000000E+00
  0.00000000E+00  0.00000000E+00  0.00000000E+00
  0.00000000E+00  0.00000000E+00  0.00000000E+00
  0.00000000E+00  0.00000000E+00  0.00000000E+00
  0.00000000E+00  0.00000000E+00  0.00000000E+00
  0.00000000E+00  0.00000000E+00  0.00000000E+00
  0.00000000E+00  0.00000000E+00  0.00000000E+00
  0.00000000E+00  0.00000000E+00  0.00000000E+00
  0.00000000E+00  0.00000000E+00  0.00000000E+00
  0.00000000E+00  0.00000000E+00  0.00000000E+00
  0.00000000E+00  0.00000000E+00  0.00000000E+00
  0.00000000E+00  0.00000000E+00  0.00000000E+00
  0.00000000E+00  0.00000000E+00  0.00000000E+00
  0.00000000E+00  0.00000000E+00  0.00000000E+00
  0.00000000E+00  0.00000000E+00  0.00000000E+00
  0.00000000E+00  0.00000000E+00  0.00000000E+00
  0.00000000E+00  0.00000000E+00  0.00000000E+00
  0.00000000E+00  0.00000000E+00  0.00000000E+00
  0.00000000E+00  0.00000000E+00  0.00000000E+00
  0.00000000E+00  0.00000000E+00  0.00000000E+00
  0.00000000E+00  0.00000000E+00  0.00000000E+00
  0.00000000E+00  0.00000000E+00  0.00000000E+00
  0.00000000E+00  0.00000000E+00  0.00000000E+00
  0.00000000E+00  0.00000000E+00  0.00000000E+00
