SrTiFeO                                 
   1.00000000000000     
    11.1989999999999998    0.0000000000000000    0.0000000000000000
     0.0000000000000000   11.1989999999999998    0.0000000000000000
     0.0000000000000000    0.0000000000000000   15.9830000000000005
   Sr   Ti   Fe   O 
    32    31     1    94
Direct
  0.0002654717855288  0.2496877110082777  0.1249883290932549
  0.0012305904198293  0.2489436042741743  0.6235680264473979
 -0.0010501985867703  0.7500230718602621  0.1254718522984264
  0.0006217222654868  0.7514081159316756  0.6221362375526083
  0.4998471632841043  0.2502071634838779  0.1248916720627686
  0.4988780778436524  0.2424696065040656  0.6236037676261027
  0.5011578272435689  0.7500102421763807  0.1252166049392236
  0.4990539439054876  0.7607270687668894  0.6211928832167654
  0.0001979891644047  0.2496467252580560  0.3757497599077794
  0.0010010913038743  0.2506020327766379  0.8754993100734352
 -0.0028146929071725  0.7498872022402789  0.3761596556144258
  0.0028777961570293  0.7498190520339438  0.8759101298264135
  0.5002488547824918  0.2485472344052879  0.3745625577053102
  0.4986950633490805  0.2490554752010969  0.8758544737501253
  0.5017582781601212  0.7514216587101886  0.3751081336978551
  0.4977330681284121  0.7551904794944858  0.8783016348006989
  0.2496228494945196  0.0000608015686808  0.1251221693757092
  0.2485580296587500  0.0012391272706545  0.6239973385714358
  0.2504574667231786  0.4997707665662915  0.1246034335961907
  0.2428927221034842  0.5008426793596189  0.6237153848329972
  0.7503635751156358 -0.0009805022871531  0.1251211806926040
  0.7497948310312798  0.0000143028008801  0.6228514710463305
  0.7505484772310820  0.5000235674303707  0.1257094764012652
  0.7606524879600364  0.5018266327159318  0.6200380073614754
  0.2494337953575670  0.0004988036140280  0.3755733023298576
  0.2493961040768411  0.0014734745251383  0.8752763074038692
  0.2488718785466129  0.4989962665141003  0.3747468820414508
  0.2502990131174719  0.5010998051276013  0.8749937355280293
  0.7504541825289357 -0.0030248108433680  0.3767621219736894
  0.7490898531508383  0.0015531297441610  0.8754955034281453
  0.7517555817333447  0.5026847447069999  0.3748681524694716
  0.7519024684408774  0.4993215804875433  0.8778682272138774
 -0.0002324202822307  0.0000975822196977 -0.0004518692670901
 -0.0015967794007154 -0.0011690017015413  0.4995890963657407
  0.0003668480249112  0.5001561581101195  0.0002731674107586
 -0.0005500603884411  0.5013637815721607  0.4990762189954384
  0.4999428290986598  0.0006404538922555  0.0004812656104214
  0.5010992990029065 -0.0007915697951295  0.4989241311070302
  0.5004972278943238  0.5006549918862790 -0.0009429704089412
  0.2500396709172303  0.2504970577585388 -0.0001243264532676
  0.2499587084044330  0.2502123121970745  0.5004039672579751
  0.2502035365418015  0.7498517146196574  0.0003164617487403
  0.2498991605862340  0.7502663693494170  0.4998657148104507
  0.7496523883241832  0.2504544980726714  0.0000953902330346
  0.7498493663115562  0.2501191937387595  0.5000713157225423
  0.7495094507782466  0.7493453831032457  0.0001330554525938
  0.2504985040817783  0.2502039012385273  0.2499642848941822
  0.2512842786842191  0.2511314694554682  0.7496505169452822
  0.2501488581772634  0.7498460964818007  0.2501265415191501
  0.2500333611112010  0.7517539289889587  0.7486604140282823
  0.7498755320633173  0.2500269340731753  0.2501529516475397
  0.7508203635004113  0.2509690955917465  0.7487615467738106
  0.7500269553233880  0.7499760398516991  0.2515265163285652
  0.7572406184375786  0.7542879820038991  0.7491356896892410
 -0.0003452099401195 -0.0001260565215179  0.2505457628385664
  0.0016399858696717  0.0034987986916770  0.7503941624784150
  0.0003969372386264  0.4999857642147015  0.2498730887854224
 -0.0001935077241301  0.4990836178478034  0.7503651849760394
  0.4999172509769018  0.0000771557522235  0.2498774117417371
  0.4990665399936730  0.0004864442662152  0.7503282081214645
  0.4997524864892472  0.4997234651015067  0.2473556486132054
  0.5008605491206667  0.4983811766176844  0.7494661086333207
  0.5011841609547409  0.5007426818582420  0.4956193212116574
  0.7490144949264975  0.7493879341431068  0.5005948676767553
  0.1088815168508679  0.1409157883281416  0.2509709740679364
  0.1075372345054687  0.1416179324613217  0.7517903430420227
  0.1089006799185492  0.6414796940061592  0.2507245600299717
  0.1111841409745090  0.6394237299420588  0.7496157026226308
  0.6083552439936273  0.1414343484101520  0.2493683013279697
  0.6089978935118048  0.1414787049874361  0.7502647899764935
  0.6081832691223841  0.6404301743361375  0.2491130176586387
  0.3913761695624937  0.3580168945416534  0.2494128762011321
  0.3901431151013208  0.3548332184274011  0.7461848009111939
  0.3912264064222597  0.8586517038331370  0.2497724704828514
  0.3894805723450099  0.8614547202980047  0.7501470447703272
  0.8912719653270438  0.3587670303840926  0.2501840545960742
  0.8940508917195349  0.3561440439085482  0.7499583098565968
  0.8908589635369737  0.8589777136844368  0.2510389055151268
  0.8938666317126880  0.8578369840436394  0.7521761728255066
  0.3584517604010081  0.1087762823930046  0.2501257546918956
  0.3584843586591342  0.1079821671231847  0.7501636918516227
  0.3584957213490126  0.6083373164081607  0.2493423851631398
  0.3705611450305446  0.6161754701636903  0.7385609165049728
  0.8584070041052033  0.1091945479721790  0.2512413352499540
  0.8571502722352620  0.1069205624757717  0.7513748931167488
  0.8592675850037076  0.6084713757190638  0.2491999781691400
  0.8556054258349981  0.6056821866501541  0.7510895630692558
  0.1413044680037059  0.3914055213540832  0.2495563829058360
  0.1422326584666573  0.3919554215863333  0.7509729949441373
  0.1411880130129709  0.8909530971043260  0.2509977100896609
  0.1410705563261481  0.8912953107199021  0.7520047650278797
  0.6412018573756989  0.3915251435078327  0.2498351034980214
  0.6404939461948169  0.8912866958181392  0.2501288796421160
  0.6361393871853744  0.8838176002318309  0.7509325053946617
  0.3590222978602312  0.3908415945426510 -0.0009441288504540
  0.3594882758374143  0.8905047798096321 -0.0012531225717249
  0.3606897688758481  0.8892486042719187  0.5007190266324086
  0.8595704572368635  0.3906518791796340  0.0003424119018834
  0.8607057722745171  0.3887196829331651  0.4988325267380144
  0.8590811220328586  0.8897767382052429 -0.0027863732502089
  0.8616938583929039  0.8892284636124776  0.5026744282458682
  0.1401961009501391  0.1093361479844141  0.0006840829979035
  0.1392023280478351  0.1101543503510803  0.4981927291137748
  0.1410988662172834  0.6092251908743261 -0.0005370934256089
  0.1401376458609502  0.6101344346527925  0.4994925818237903
  0.6408263676828064  0.1094931715312053 -0.0002618746691172
  0.6393786073703522  0.1110545359412961  0.4997273284905403
  0.6415746898812678  0.6088585850622861  0.0046664852950139
  0.1092536807358950  0.3594555612554861 -0.0000288411962677
  0.1105382722185729  0.3605669522985759  0.4998442454330170
  0.1098692418454858  0.8591350239204294 -0.0010349859251126
  0.1106616836290894  0.8601752171976290  0.4979524707099242
  0.6092181025156129  0.3591123923208951  0.0003837601080295
  0.6090326617151380  0.8597816037173750  0.0004540412061674
  0.6092666264128178  0.8624633367547045  0.4990757484106899
  0.3907654904596511  0.1407620725344850  0.0002015060631039
  0.3894659907260130  0.1396602075502866  0.4995721415967092
  0.3909535333148711  0.6413776031617903  0.0014946212589251
  0.3899438179632277  0.6379526061038260  0.5078492493253732
  0.8897995083161758  0.1407887436807025 -0.0012466652604721
  0.8893423713188623  0.1395393313925820  0.4987382814138061
  0.8910482745034085  0.6406291404801342 -0.0008753673104587
 -0.0016362904040474 -0.0007573137660081  0.1249654247277059
  0.0015348371361796  0.0006279311300608  0.6256996213123508
  0.0007152792069783  0.5005317681121545  0.1247619660621562
  0.0008429269066734  0.4992131663222824  0.6253025061971078
  0.4991160797849407  0.0001154476493691  0.1247599085035947
  0.5007188216957856  0.0008747631926768  0.6252056868613128
  0.4980492375829687  0.4978756221904969  0.1251653521845280
 -0.0015813874141567 -0.0008920038443554  0.3748830084872869
  0.0006043754975384  0.0006550586039162  0.8754578288808289
  0.0003816966717900  0.4999929923928895  0.3745255152790141
  0.0005221765385015  0.4999936468246330  0.8751517036945792
  0.4989757148841893  0.0008051854161169  0.3744346898910975
  0.5006248266739186  0.0009598253460807  0.8753023870446799
  0.5038598033409989  0.5060288607628206  0.8768937047778146
  0.2522657870390390  0.2534993486332064  0.3753240749019529
  0.2505488374443370  0.2494624885751696  0.8754509766648678
  0.2542116572694532  0.7477765517453621  0.3756306225569971
  0.2533795005973576  0.7448933094729991  0.8739040127340254
  0.7461407305621689  0.2524416457981444  0.3755407370253337
  0.7467682583719503  0.2541448138592919  0.8739597142662083
  0.7482850185428460  0.7468567086405880  0.3741746726561695
  0.7408983011427844  0.7425157291556735  0.8743275507205517
  0.2496030918008917  0.2498434079892434  0.1250407537799476
  0.2447485183357838  0.2447863928221541  0.6250587077606914
  0.2490000867861571  0.7508963005393250  0.1249117946085982
  0.2438035920226479  0.7553312257135006  0.6244967481969671
  0.7507234359468905  0.2495219831485338  0.1249166352880577
  0.7544062811026435  0.2451016636005697  0.6248622112046908
  0.7519391096082277  0.7522210005861305  0.1249951316939245
  0.6458808120409787  0.3980708295460321  0.7409849608950335
  0.4970340200260491  0.4974651756693214  0.3746445066452623
  0.6089207617164649  0.3610440815129040  0.5077033172367438
  0.3610708797523044  0.3902058845498083  0.5079620022983213
  0.7429290754436131  0.7445275199353997  0.6291008509092244
  0.8901521714894217  0.6371701540959278  0.5011607728341747
  0.6357109592032403  0.6071473338293994  0.5050949753421118
 
  0.00000000E+00  0.00000000E+00  0.00000000E+00
  0.00000000E+00  0.00000000E+00  0.00000000E+00
  0.00000000E+00  0.00000000E+00  0.00000000E+00
  0.00000000E+00  0.00000000E+00  0.00000000E+00
  0.00000000E+00  0.00000000E+00  0.00000000E+00
  0.00000000E+00  0.00000000E+00  0.00000000E+00
  0.00000000E+00  0.00000000E+00  0.00000000E+00
  0.00000000E+00  0.00000000E+00  0.00000000E+00
  0.00000000E+00  0.00000000E+00  0.00000000E+00
  0.00000000E+00  0.00000000E+00  0.00000000E+00
  0.00000000E+00  0.00000000E+00  0.00000000E+00
  0.00000000E+00  0.00000000E+00  0.00000000E+00
  0.00000000E+00  0.00000000E+00  0.00000000E+00
  0.00000000E+00  0.00000000E+00  0.00000000E+00
  0.00000000E+00  0.00000000E+00  0.00000000E+00
  0.00000000E+00  0.00000000E+00  0.00000000E+00
  0.00000000E+00  0.00000000E+00  0.00000000E+00
  0.00000000E+00  0.00000000E+00  0.00000000E+00
  0.00000000E+00  0.00000000E+00  0.00000000E+00
  0.00000000E+00  0.00000000E+00  0.00000000E+00
  0.00000000E+00  0.00000000E+00  0.00000000E+00
  0.00000000E+00  0.00000000E+00  0.00000000E+00
  0.00000000E+00  0.00000000E+00  0.00000000E+00
  0.00000000E+00  0.00000000E+00  0.00000000E+00
  0.00000000E+00  0.00000000E+00  0.00000000E+00
  0.00000000E+00  0.00000000E+00  0.00000000E+00
  0.00000000E+00  0.00000000E+00  0.00000000E+00
  0.00000000E+00  0.00000000E+00  0.00000000E+00
  0.00000000E+00  0.00000000E+00  0.00000000E+00
  0.00000000E+00  0.00000000E+00  0.00000000E+00
  0.00000000E+00  0.00000000E+00  0.00000000E+00
  0.00000000E+00  0.00000000E+00  0.00000000E+00
  0.00000000E+00  0.00000000E+00  0.00000000E+00
  0.00000000E+00  0.00000000E+00  0.00000000E+00
  0.00000000E+00  0.00000000E+00  0.00000000E+00
  0.00000000E+00  0.00000000E+00  0.00000000E+00
  0.00000000E+00  0.00000000E+00  0.00000000E+00
  0.00000000E+00  0.00000000E+00  0.00000000E+00
  0.00000000E+00  0.00000000E+00  0.00000000E+00
  0.00000000E+00  0.00000000E+00  0.00000000E+00
  0.00000000E+00  0.00000000E+00  0.00000000E+00
  0.00000000E+00  0.00000000E+00  0.00000000E+00
  0.00000000E+00  0.00000000E+00  0.00000000E+00
  0.00000000E+00  0.00000000E+00  0.00000000E+00
  0.00000000E+00  0.00000000E+00  0.00000000E+00
  0.00000000E+00  0.00000000E+00  0.00000000E+00
  0.00000000E+00  0.00000000E+00  0.00000000E+00
  0.00000000E+00  0.00000000E+00  0.00000000E+00
  0.00000000E+00  0.00000000E+00  0.00000000E+00
  0.00000000E+00  0.00000000E+00  0.00000000E+00
  0.00000000E+00  0.00000000E+00  0.00000000E+00
  0.00000000E+00  0.00000000E+00  0.00000000E+00
  0.00000000E+00  0.00000000E+00  0.00000000E+00
  0.00000000E+00  0.00000000E+00  0.00000000E+00
  0.00000000E+00  0.00000000E+00  0.00000000E+00
  0.00000000E+00  0.00000000E+00  0.00000000E+00
  0.00000000E+00  0.00000000E+00  0.00000000E+00
  0.00000000E+00  0.00000000E+00  0.00000000E+00
  0.00000000E+00  0.00000000E+00  0.00000000E+00
  0.00000000E+00  0.00000000E+00  0.00000000E+00
  0.00000000E+00  0.00000000E+00  0.00000000E+00
  0.00000000E+00  0.00000000E+00  0.00000000E+00
  0.00000000E+00  0.00000000E+00  0.00000000E+00
  0.00000000E+00  0.00000000E+00  0.00000000E+00
  0.00000000E+00  0.00000000E+00  0.00000000E+00
  0.00000000E+00  0.00000000E+00  0.00000000E+00
  0.00000000E+00  0.00000000E+00  0.00000000E+00
  0.00000000E+00  0.00000000E+00  0.00000000E+00
  0.00000000E+00  0.00000000E+00  0.00000000E+00
  0.00000000E+00  0.00000000E+00  0.00000000E+00
  0.00000000E+00  0.00000000E+00  0.00000000E+00
  0.00000000E+00  0.00000000E+00  0.00000000E+00
  0.00000000E+00  0.00000000E+00  0.00000000E+00
  0.00000000E+00  0.00000000E+00  0.00000000E+00
  0.00000000E+00  0.00000000E+00  0.00000000E+00
  0.00000000E+00  0.00000000E+00  0.00000000E+00
  0.00000000E+00  0.00000000E+00  0.00000000E+00
  0.00000000E+00  0.00000000E+00  0.00000000E+00
  0.00000000E+00  0.00000000E+00  0.00000000E+00
  0.00000000E+00  0.00000000E+00  0.00000000E+00
  0.00000000E+00  0.00000000E+00  0.00000000E+00
  0.00000000E+00  0.00000000E+00  0.00000000E+00
  0.00000000E+00  0.00000000E+00  0.00000000E+00
  0.00000000E+00  0.00000000E+00  0.00000000E+00
  0.00000000E+00  0.00000000E+00  0.00000000E+00
  0.00000000E+00  0.00000000E+00  0.00000000E+00
  0.00000000E+00  0.00000000E+00  0.00000000E+00
  0.00000000E+00  0.00000000E+00  0.00000000E+00
  0.00000000E+00  0.00000000E+00  0.00000000E+00
  0.00000000E+00  0.00000000E+00  0.00000000E+00
  0.00000000E+00  0.00000000E+00  0.00000000E+00
  0.00000000E+00  0.00000000E+00  0.00000000E+00
  0.00000000E+00  0.00000000E+00  0.00000000E+00
  0.00000000E+00  0.00000000E+00  0.00000000E+00
  0.00000000E+00  0.00000000E+00  0.00000000E+00
  0.00000000E+00  0.00000000E+00  0.00000000E+00
  0.00000000E+00  0.00000000E+00  0.00000000E+00
  0.00000000E+00  0.00000000E+00  0.00000000E+00
  0.00000000E+00  0.00000000E+00  0.00000000E+00
  0.00000000E+00  0.00000000E+00  0.00000000E+00
  0.00000000E+00  0.00000000E+00  0.00000000E+00
  0.00000000E+00  0.00000000E+00  0.00000000E+00
  0.00000000E+00  0.00000000E+00  0.00000000E+00
  0.00000000E+00  0.00000000E+00  0.00000000E+00
  0.00000000E+00  0.00000000E+00  0.00000000E+00
  0.00000000E+00  0.00000000E+00  0.00000000E+00
  0.00000000E+00  0.00000000E+00  0.00000000E+00
  0.00000000E+00  0.00000000E+00  0.00000000E+00
  0.00000000E+00  0.00000000E+00  0.00000000E+00
  0.00000000E+00  0.00000000E+00  0.00000000E+00
  0.00000000E+00  0.00000000E+00  0.00000000E+00
  0.00000000E+00  0.00000000E+00  0.00000000E+00
  0.00000000E+00  0.00000000E+00  0.00000000E+00
  0.00000000E+00  0.00000000E+00  0.00000000E+00
  0.00000000E+00  0.00000000E+00  0.00000000E+00
  0.00000000E+00  0.00000000E+00  0.00000000E+00
  0.00000000E+00  0.00000000E+00  0.00000000E+00
  0.00000000E+00  0.00000000E+00  0.00000000E+00
  0.00000000E+00  0.00000000E+00  0.00000000E+00
  0.00000000E+00  0.00000000E+00  0.00000000E+00
  0.00000000E+00  0.00000000E+00  0.00000000E+00
  0.00000000E+00  0.00000000E+00  0.00000000E+00
  0.00000000E+00  0.00000000E+00  0.00000000E+00
  0.00000000E+00  0.00000000E+00  0.00000000E+00
  0.00000000E+00  0.00000000E+00  0.00000000E+00
  0.00000000E+00  0.00000000E+00  0.00000000E+00
  0.00000000E+00  0.00000000E+00  0.00000000E+00
  0.00000000E+00  0.00000000E+00  0.00000000E+00
  0.00000000E+00  0.00000000E+00  0.00000000E+00
  0.00000000E+00  0.00000000E+00  0.00000000E+00
  0.00000000E+00  0.00000000E+00  0.00000000E+00
  0.00000000E+00  0.00000000E+00  0.00000000E+00
  0.00000000E+00  0.00000000E+00  0.00000000E+00
  0.00000000E+00  0.00000000E+00  0.00000000E+00
  0.00000000E+00  0.00000000E+00  0.00000000E+00
  0.00000000E+00  0.00000000E+00  0.00000000E+00
  0.00000000E+00  0.00000000E+00  0.00000000E+00
  0.00000000E+00  0.00000000E+00  0.00000000E+00
  0.00000000E+00  0.00000000E+00  0.00000000E+00
  0.00000000E+00  0.00000000E+00  0.00000000E+00
  0.00000000E+00  0.00000000E+00  0.00000000E+00
  0.00000000E+00  0.00000000E+00  0.00000000E+00
  0.00000000E+00  0.00000000E+00  0.00000000E+00
  0.00000000E+00  0.00000000E+00  0.00000000E+00
  0.00000000E+00  0.00000000E+00  0.00000000E+00
  0.00000000E+00  0.00000000E+00  0.00000000E+00
  0.00000000E+00  0.00000000E+00  0.00000000E+00
  0.00000000E+00  0.00000000E+00  0.00000000E+00
  0.00000000E+00  0.00000000E+00  0.00000000E+00
  0.00000000E+00  0.00000000E+00  0.00000000E+00
  0.00000000E+00  0.00000000E+00  0.00000000E+00
  0.00000000E+00  0.00000000E+00  0.00000000E+00
  0.00000000E+00  0.00000000E+00  0.00000000E+00
  0.00000000E+00  0.00000000E+00  0.00000000E+00
  0.00000000E+00  0.00000000E+00  0.00000000E+00
  0.00000000E+00  0.00000000E+00  0.00000000E+00
  0.00000000E+00  0.00000000E+00  0.00000000E+00
  0.00000000E+00  0.00000000E+00  0.00000000E+00
