Sr   Ti   Fe   O                        
   1.00000000000000     
    11.1989999999999998    0.0000000000000000    0.0000000000000000
     0.0000000000000000   11.1989999999999998    0.0000000000000000
     0.0000000000000000    0.0000000000000000   15.9830000000000005
   Sr   Ti   Fe   O 
    32    30     2    94
Direct
  0.9984764123157809  0.2508275991013783  0.1249633047889520
  0.9980927682367412  0.2500748801226214  0.6212380128248118
  0.0034894213313832  0.7508112937682694  0.1238822036945110
  0.0021772780546465  0.7491684636357089  0.6245297542928914
  0.4997499255277138  0.2513516139214544  0.1246014702764125
  0.4955763548432838  0.2422064684170502  0.6285891803761502
  0.4945638616423665  0.7496923461329004  0.1226828829579444
  0.5004506787852753  0.7547115847953805  0.6280525942642992
  0.9996816037818309  0.2504699617786339  0.3779211651799416
  0.9985516114875220  0.2497918569755245  0.8743070438979781
  0.0086520896275993  0.7507350243086975  0.3760408689710731
  0.9990099713758105  0.7504460673389574  0.8731497372383266
  0.4948871582871822  0.2436740262068469  0.3725979973274003
  0.5001607495433259  0.2512444663530607  0.8757502869925775
  0.4893936938508037  0.7586815872039471  0.3720254273576097
  0.4977750564165369  0.7492308907468717  0.8753658842220294
  0.2487015313188539  0.0003522461580709  0.1252396322431781
  0.2496179843627825  0.9985166806932417  0.6237058761393871
  0.2513228499229441  0.5007034821275360  0.1247676411952700
  0.2461806448313890  0.4976944811228262  0.6272996641866341
  0.7496479074213978  0.0061759902093064  0.1238029573344061
  0.7492578440821492  0.0076901159158799  0.6220029362582826
  0.7496574258525360  0.4958788185693477  0.1223080353721044
  0.7563503721486653  0.4956826204262369  0.6299991991709309
  0.2502697563144505  0.0012428302683940  0.3766353733461602
  0.2487099402124031  0.9995770821844174  0.8747577665447724
  0.2468336666226531  0.4970287187167937  0.3725273830861676
  0.2498829686617368  0.4988810867308542  0.8759261931898092
  0.7484742307381091  0.0147336139126028  0.3778319339793165
  0.7495798765556260  0.0015663274715669  0.8729707587682216
  0.7588953394706804  0.4881282419193435  0.3703135750607888
  0.7483965132010751  0.4990405296960241  0.8752026615352102
  0.9985680970593647  0.9996334937099728  0.9997871335959844
  0.9972690535193215  0.9998095674356423  0.4978838522043439
  0.9994818727356756  0.5006572501942053  0.9998358101351928
  0.9988215698341714  0.5018055369288775  0.4991921810915758
  0.4998458294498777  0.9995627566533036  0.9998274364290606
  0.5031449846857844  0.9980817193950108  0.4994860105589312
  0.4996917031598128  0.5008163038067533  0.0001867994613706
  0.2492408429848820  0.2494821841695736  0.0004332634069404
  0.2496321153429137  0.2452656210134752  0.5009572692980002
  0.2488542322410592  0.7503928102375166  0.9994445619414233
  0.2499767213102054  0.7515559171563905  0.5006636472222873
  0.7501082431917350  0.2498856705259842  0.9992725624595070
  0.7495289688402272  0.7509341487775592  0.9944074393983670
  0.2488582559235415  0.2497990511968025  0.2483649777774231
  0.2488145184455007  0.2493767559079716  0.7500352061085707
  0.2493882037068715  0.7505181446942449  0.2490228394129831
  0.2494748941011454  0.7492387160882577  0.7503685250678277
  0.7484706663791157  0.2508754962244761  0.2505377534566515
  0.7481207665219769  0.2505197893773112  0.7482983707863443
  0.7500251230605671  0.7512795776248338  0.2407707093173039
  0.7484058152327689  0.7485670906575078  0.7471865745566679
  0.9997413805762325  0.0011637567619483  0.2513066475562187
  0.9985083296184143  0.9991997197259315  0.7480374840815821
  0.0010235284661986  0.5004445743018333  0.2499255963236180
  0.9993631031438089  0.5003795304302957  0.7506318900883715
  0.4996851584801563  0.0002698392236202  0.2496139380736163
  0.4999858378893023  0.9987679540067405  0.7509292443196270
  0.4999484985600214  0.5002520812967649  0.2520087709817946
  0.4987460318097149  0.5000577118592613  0.7505275501390951
  0.4890477759921129  0.5020283873076999  0.5006929022825456
  0.7535597005166453  0.2521222311725499  0.5004646055515588
  0.7613758213173484  0.7582379200156624  0.5067186888889310
  0.1099733794973369  0.1409152308531714  0.2454247124697479
  0.1077117676579166  0.1396717014315511  0.7484413563997280
  0.1123197090106124  0.6392950762311799  0.2489341933135129
  0.1086202451662440  0.6411241920678060  0.7508977870801302
  0.6095572511494245  0.1385492141623177  0.2475307294813530
  0.6076604959013744  0.1391343840323911  0.7535478541545403
  0.6173837857090732  0.6423291404119537  0.2657110971674711
  0.6061723030653239  0.6395749177354824  0.7560930370593670
  0.3892374248319851  0.3611617848403143  0.2469364398074407
  0.3888567556262765  0.3578897173455347  0.7519974853802082
  0.3886318885804949  0.8617415326153302  0.2472652517034559
  0.3899427804499326  0.8586414360768040  0.7506919861293496
  0.8884702704482089  0.3637616260893455  0.2499408808397594
  0.8902208197361389  0.3603923513842162  0.7484017702765682
  0.8848465816648218  0.8601446523888497  0.2618112416952101
  0.8889818615468132  0.8576377409118791  0.7474689661935884
  0.3608724081820451  0.1111050865463368  0.2485658226827938
  0.3591611316628253  0.1084351064964356  0.7484763065635799
  0.3625597278936220  0.6133973366973337  0.2487559051890204
  0.3566050786081769  0.6086811407937188  0.7527620452508295
  0.8605787525268067  0.1118097583321645  0.2513057475055651
  0.8581456690841446  0.1088701082066880  0.7472642159192751
  0.8615459693380269  0.6176110367858383  0.2589440885149441
  0.8597206216138645  0.6092021625105914  0.7547875259451995
  0.1401486803790040  0.3904896411741048  0.2463245988441677
  0.1395980225111065  0.3904300349603138  0.7501880351943147
  0.1382429208571626  0.8884799880726140  0.2486504675387021
  0.1397044795212660  0.8899719468396052  0.7499571967864991
  0.6380875510873845  0.3917896087917145  0.2448583044999673
  0.6378181443353197  0.3912534624742463  0.7552017371369989
  0.6414384991334979  0.8862887093985188  0.2610062577563839
  0.6402588176486768  0.8903463891267431  0.7496895629398956
  0.3597773703984735  0.3898730831934270  0.0026318292421973
  0.3584978510430035  0.8906989149539836  0.0013638434254034
  0.3619919188350244  0.8877484572048978  0.5001579380554776
  0.8595145934809086  0.3913079860706473  0.0002529658830136
  0.8567157245237571  0.8914025298242321  0.0005078257804691
  0.8668639068036493  0.8887623374076158  0.4807935558862309
  0.1392490840201718  0.1082567495083146  0.0012681998265161
  0.1393353867480567  0.1120086178613422  0.5025551817238664
  0.1400876989078194  0.6093642326892674  0.0007974737105620
  0.1463970420152028  0.6104319806253077  0.4990705226120701
  0.6400726186982982  0.1091536991770986  0.9992288429102800
  0.6269308703867544  0.1203444655626177  0.4996133157690436
  0.6410888512329919  0.6101261906332568  0.9990074271680248
  0.1089973223555529  0.3597701689911846  0.0015822737176397
  0.1238395750180261  0.3663930792851514  0.5018912294882707
  0.1076609082033137  0.8591784193364040  0.9997724143014796
  0.1148837356348755  0.8593003814488021  0.5004013845039684
  0.6096952911386060  0.3604708157361220  0.0013391606912685
  0.6082340335409040  0.8581522404012392  0.0000918332036047
  0.6149092456674417  0.8573096624556170  0.4916883144701288
  0.3905118789993710  0.1396818370956971  0.0011889072188902
  0.3833159044392446  0.1309073056023382  0.5011005811195348
  0.3892642729664718  0.6411786389618370  0.0002330401309404
  0.8908401725930432  0.1403941125555620  0.0008800876386782
  0.8926206541611141  0.1316816083066848  0.4996399087057319
  0.8901654938422436  0.6422467238824336  0.9997808506706944
  0.9943948093454162  0.9944865073593827  0.1260342053166186
  0.9970503874785210  0.9925263691397129  0.6239035297510505
  0.9950525939519070  0.5046338722285961  0.1257229020413284
  0.0002082974397599  0.5075069887392314  0.6252983106640293
  0.5050068109677756  0.9958031296623304  0.1256018302848717
  0.5035276882730791  0.9960558645785725  0.6253191325013931
  0.5033862255873688  0.5093937332733370  0.1261631647227743
  0.4941278948358573  0.5013744296395672  0.6271678962696349
  0.0139812703965685  0.0075996207976412  0.3727866223097278
  0.9971741227840059  0.9993932888815074  0.8744946685375121
  0.0084939328728378  0.4964220378773110  0.3733430260050721
  0.0011451444327093  0.4986523725350062  0.8758784955172902
  0.4947079149224758  0.0025419385470962  0.3735430012838198
  0.4976886840923244  0.9978935800669227  0.8757008261414092
  0.4955521112508780  0.4987325659616205  0.8774038898453680
  0.2496831077300217  0.2500069990992251  0.3738938823515822
  0.2481953974605997  0.2480128873240552  0.8757820738486329
  0.2523855750841242  0.7502301092466216  0.3742323716666114
  0.2486979807805653  0.7513768575548245  0.8756515723707073
  0.7521992399745668  0.2496435030047993  0.8760285442655045
  0.7501099631633007  0.7527670122066248  0.8751936541886095
  0.2503200779985672  0.2488435076128903  0.1241796641731806
  0.2510812079711818  0.2504092689765871  0.6262110083225068
  0.2486495318610754  0.7502575831857186  0.1242928217837717
  0.2513942620481118  0.7477814982477178  0.6255814039057268
  0.7511187639039394  0.2491355777438068  0.1238242475312810
  0.7379189845199683  0.2551984840951224  0.6294323892250757
  0.7478159801086708  0.7500001089951747  0.1256074198600061
  0.7380268590550522  0.7331594233867792  0.6283232433898315
  0.7401282062904049  0.2567787714210202  0.3701563305227245
  0.8781254764407721  0.3832703893796451  0.4998779864882753
  0.4034667285815431  0.6483347269187204  0.5000548515801796
  0.4891674717930383  0.4944312157900231  0.3746240842089777
  0.3817530145590800  0.3709938865897035  0.5020623159760103
  0.8879773467893574  0.6384743719737687  0.4899093571221709
  0.6516282246096542  0.4910180426252352  0.4992381167057722
 
  0.00000000E+00  0.00000000E+00  0.00000000E+00
  0.00000000E+00  0.00000000E+00  0.00000000E+00
  0.00000000E+00  0.00000000E+00  0.00000000E+00
  0.00000000E+00  0.00000000E+00  0.00000000E+00
  0.00000000E+00  0.00000000E+00  0.00000000E+00
  0.00000000E+00  0.00000000E+00  0.00000000E+00
  0.00000000E+00  0.00000000E+00  0.00000000E+00
  0.00000000E+00  0.00000000E+00  0.00000000E+00
  0.00000000E+00  0.00000000E+00  0.00000000E+00
  0.00000000E+00  0.00000000E+00  0.00000000E+00
  0.00000000E+00  0.00000000E+00  0.00000000E+00
  0.00000000E+00  0.00000000E+00  0.00000000E+00
  0.00000000E+00  0.00000000E+00  0.00000000E+00
  0.00000000E+00  0.00000000E+00  0.00000000E+00
  0.00000000E+00  0.00000000E+00  0.00000000E+00
  0.00000000E+00  0.00000000E+00  0.00000000E+00
  0.00000000E+00  0.00000000E+00  0.00000000E+00
  0.00000000E+00  0.00000000E+00  0.00000000E+00
  0.00000000E+00  0.00000000E+00  0.00000000E+00
  0.00000000E+00  0.00000000E+00  0.00000000E+00
  0.00000000E+00  0.00000000E+00  0.00000000E+00
  0.00000000E+00  0.00000000E+00  0.00000000E+00
  0.00000000E+00  0.00000000E+00  0.00000000E+00
  0.00000000E+00  0.00000000E+00  0.00000000E+00
  0.00000000E+00  0.00000000E+00  0.00000000E+00
  0.00000000E+00  0.00000000E+00  0.00000000E+00
  0.00000000E+00  0.00000000E+00  0.00000000E+00
  0.00000000E+00  0.00000000E+00  0.00000000E+00
  0.00000000E+00  0.00000000E+00  0.00000000E+00
  0.00000000E+00  0.00000000E+00  0.00000000E+00
  0.00000000E+00  0.00000000E+00  0.00000000E+00
  0.00000000E+00  0.00000000E+00  0.00000000E+00
  0.00000000E+00  0.00000000E+00  0.00000000E+00
  0.00000000E+00  0.00000000E+00  0.00000000E+00
  0.00000000E+00  0.00000000E+00  0.00000000E+00
  0.00000000E+00  0.00000000E+00  0.00000000E+00
  0.00000000E+00  0.00000000E+00  0.00000000E+00
  0.00000000E+00  0.00000000E+00  0.00000000E+00
  0.00000000E+00  0.00000000E+00  0.00000000E+00
  0.00000000E+00  0.00000000E+00  0.00000000E+00
  0.00000000E+00  0.00000000E+00  0.00000000E+00
  0.00000000E+00  0.00000000E+00  0.00000000E+00
  0.00000000E+00  0.00000000E+00  0.00000000E+00
  0.00000000E+00  0.00000000E+00  0.00000000E+00
  0.00000000E+00  0.00000000E+00  0.00000000E+00
  0.00000000E+00  0.00000000E+00  0.00000000E+00
  0.00000000E+00  0.00000000E+00  0.00000000E+00
  0.00000000E+00  0.00000000E+00  0.00000000E+00
  0.00000000E+00  0.00000000E+00  0.00000000E+00
  0.00000000E+00  0.00000000E+00  0.00000000E+00
  0.00000000E+00  0.00000000E+00  0.00000000E+00
  0.00000000E+00  0.00000000E+00  0.00000000E+00
  0.00000000E+00  0.00000000E+00  0.00000000E+00
  0.00000000E+00  0.00000000E+00  0.00000000E+00
  0.00000000E+00  0.00000000E+00  0.00000000E+00
  0.00000000E+00  0.00000000E+00  0.00000000E+00
  0.00000000E+00  0.00000000E+00  0.00000000E+00
  0.00000000E+00  0.00000000E+00  0.00000000E+00
  0.00000000E+00  0.00000000E+00  0.00000000E+00
  0.00000000E+00  0.00000000E+00  0.00000000E+00
  0.00000000E+00  0.00000000E+00  0.00000000E+00
  0.00000000E+00  0.00000000E+00  0.00000000E+00
  0.00000000E+00  0.00000000E+00  0.00000000E+00
  0.00000000E+00  0.00000000E+00  0.00000000E+00
  0.00000000E+00  0.00000000E+00  0.00000000E+00
  0.00000000E+00  0.00000000E+00  0.00000000E+00
  0.00000000E+00  0.00000000E+00  0.00000000E+00
  0.00000000E+00  0.00000000E+00  0.00000000E+00
  0.00000000E+00  0.00000000E+00  0.00000000E+00
  0.00000000E+00  0.00000000E+00  0.00000000E+00
  0.00000000E+00  0.00000000E+00  0.00000000E+00
  0.00000000E+00  0.00000000E+00  0.00000000E+00
  0.00000000E+00  0.00000000E+00  0.00000000E+00
  0.00000000E+00  0.00000000E+00  0.00000000E+00
  0.00000000E+00  0.00000000E+00  0.00000000E+00
  0.00000000E+00  0.00000000E+00  0.00000000E+00
  0.00000000E+00  0.00000000E+00  0.00000000E+00
  0.00000000E+00  0.00000000E+00  0.00000000E+00
  0.00000000E+00  0.00000000E+00  0.00000000E+00
  0.00000000E+00  0.00000000E+00  0.00000000E+00
  0.00000000E+00  0.00000000E+00  0.00000000E+00
  0.00000000E+00  0.00000000E+00  0.00000000E+00
  0.00000000E+00  0.00000000E+00  0.00000000E+00
  0.00000000E+00  0.00000000E+00  0.00000000E+00
  0.00000000E+00  0.00000000E+00  0.00000000E+00
  0.00000000E+00  0.00000000E+00  0.00000000E+00
  0.00000000E+00  0.00000000E+00  0.00000000E+00
  0.00000000E+00  0.00000000E+00  0.00000000E+00
  0.00000000E+00  0.00000000E+00  0.00000000E+00
  0.00000000E+00  0.00000000E+00  0.00000000E+00
  0.00000000E+00  0.00000000E+00  0.00000000E+00
  0.00000000E+00  0.00000000E+00  0.00000000E+00
  0.00000000E+00  0.00000000E+00  0.00000000E+00
  0.00000000E+00  0.00000000E+00  0.00000000E+00
  0.00000000E+00  0.00000000E+00  0.00000000E+00
  0.00000000E+00  0.00000000E+00  0.00000000E+00
  0.00000000E+00  0.00000000E+00  0.00000000E+00
  0.00000000E+00  0.00000000E+00  0.00000000E+00
  0.00000000E+00  0.00000000E+00  0.00000000E+00
  0.00000000E+00  0.00000000E+00  0.00000000E+00
  0.00000000E+00  0.00000000E+00  0.00000000E+00
  0.00000000E+00  0.00000000E+00  0.00000000E+00
  0.00000000E+00  0.00000000E+00  0.00000000E+00
  0.00000000E+00  0.00000000E+00  0.00000000E+00
  0.00000000E+00  0.00000000E+00  0.00000000E+00
  0.00000000E+00  0.00000000E+00  0.00000000E+00
  0.00000000E+00  0.00000000E+00  0.00000000E+00
  0.00000000E+00  0.00000000E+00  0.00000000E+00
  0.00000000E+00  0.00000000E+00  0.00000000E+00
  0.00000000E+00  0.00000000E+00  0.00000000E+00
  0.00000000E+00  0.00000000E+00  0.00000000E+00
  0.00000000E+00  0.00000000E+00  0.00000000E+00
  0.00000000E+00  0.00000000E+00  0.00000000E+00
  0.00000000E+00  0.00000000E+00  0.00000000E+00
  0.00000000E+00  0.00000000E+00  0.00000000E+00
  0.00000000E+00  0.00000000E+00  0.00000000E+00
  0.00000000E+00  0.00000000E+00  0.00000000E+00
  0.00000000E+00  0.00000000E+00  0.00000000E+00
  0.00000000E+00  0.00000000E+00  0.00000000E+00
  0.00000000E+00  0.00000000E+00  0.00000000E+00
  0.00000000E+00  0.00000000E+00  0.00000000E+00
  0.00000000E+00  0.00000000E+00  0.00000000E+00
  0.00000000E+00  0.00000000E+00  0.00000000E+00
  0.00000000E+00  0.00000000E+00  0.00000000E+00
  0.00000000E+00  0.00000000E+00  0.00000000E+00
  0.00000000E+00  0.00000000E+00  0.00000000E+00
  0.00000000E+00  0.00000000E+00  0.00000000E+00
  0.00000000E+00  0.00000000E+00  0.00000000E+00
  0.00000000E+00  0.00000000E+00  0.00000000E+00
  0.00000000E+00  0.00000000E+00  0.00000000E+00
  0.00000000E+00  0.00000000E+00  0.00000000E+00
  0.00000000E+00  0.00000000E+00  0.00000000E+00
  0.00000000E+00  0.00000000E+00  0.00000000E+00
  0.00000000E+00  0.00000000E+00  0.00000000E+00
  0.00000000E+00  0.00000000E+00  0.00000000E+00
  0.00000000E+00  0.00000000E+00  0.00000000E+00
  0.00000000E+00  0.00000000E+00  0.00000000E+00
  0.00000000E+00  0.00000000E+00  0.00000000E+00
  0.00000000E+00  0.00000000E+00  0.00000000E+00
  0.00000000E+00  0.00000000E+00  0.00000000E+00
  0.00000000E+00  0.00000000E+00  0.00000000E+00
  0.00000000E+00  0.00000000E+00  0.00000000E+00
  0.00000000E+00  0.00000000E+00  0.00000000E+00
  0.00000000E+00  0.00000000E+00  0.00000000E+00
  0.00000000E+00  0.00000000E+00  0.00000000E+00
  0.00000000E+00  0.00000000E+00  0.00000000E+00
  0.00000000E+00  0.00000000E+00  0.00000000E+00
  0.00000000E+00  0.00000000E+00  0.00000000E+00
  0.00000000E+00  0.00000000E+00  0.00000000E+00
  0.00000000E+00  0.00000000E+00  0.00000000E+00
  0.00000000E+00  0.00000000E+00  0.00000000E+00
  0.00000000E+00  0.00000000E+00  0.00000000E+00
  0.00000000E+00  0.00000000E+00  0.00000000E+00
  0.00000000E+00  0.00000000E+00  0.00000000E+00
  0.00000000E+00  0.00000000E+00  0.00000000E+00
  0.00000000E+00  0.00000000E+00  0.00000000E+00
  0.00000000E+00  0.00000000E+00  0.00000000E+00
  0.00000000E+00  0.00000000E+00  0.00000000E+00
