SrTiFeO                                 
   1.00000000000000     
    11.1989999999999998    0.0000000000000000    0.0000000000000000
     0.0000000000000000   11.1989999999999998    0.0000000000000000
     0.0000000000000000    0.0000000000000000   15.9830000000000005
   Sr   Ti   Fe   O 
    32    30     2    94
Direct
  0.0005510425278663  0.2506981334788146  0.1254942294556977
  0.9981941797912016  0.2487161521217383  0.6230777021455377
  0.0038631805777472  0.7509283022901434  0.1234606145253604
  0.0014541964681558  0.7488761145232258  0.6240271126491654
  0.4993764960573503  0.2531678349941423  0.1264828129232899
  0.5038292878466677  0.2447469016810083  0.6246086246266758
  0.4966646317025178  0.7488965176691709  0.1234000576278016
  0.4976708942270489  0.7522569385046531  0.6284684540900918
  0.0000536866382736  0.2495172989997256  0.3759207754017506
  0.0003009130971560  0.2494641098497267  0.8748282914670350
  0.0073665262627855  0.7488422723196819  0.3765789486634242
  0.9993838763002865  0.7503997746608576  0.8732585983223247
  0.5026471253627038  0.2466977168072864  0.3760273869932387
  0.4993990479141828  0.2512606083406462  0.8747912302506188
  0.4873076346615201  0.7536043126661469  0.3724653782437550
  0.4982545281118685  0.7505879373592157  0.8763311055393060
  0.2493827165278524  0.0012556293198514  0.1252891811849970
  0.2496776735059560  0.9988281813426996  0.6248696108463994
  0.2524818734466378  0.4998696874835409  0.1254319378722497
  0.2428482326648232  0.4998449255648110  0.6259682508920364
  0.7500060989783468  0.0049389201856715  0.1233215162068483
  0.7517365166814063  0.0047372696175036  0.6238511650454994
  0.7495169231025496  0.4965277088095729  0.1234501906381127
  0.7538763969058405  0.4908270912023183  0.6280867229025425
  0.2495660676338459  0.0012935548637100  0.3748862719263503
  0.2496921317702891  0.0004726664371230  0.8747898519458965
  0.2447609835543715  0.4980016722447751  0.3733829692793292
  0.2504571639380606  0.4995316525138583  0.8753843248605960
  0.7513562484415862  0.0121584950207172  0.3755222002699993
  0.7498192629964545  0.0002207972212546  0.8739366608499587
  0.7543401608428142  0.4847210630121186  0.3740554398809843
  0.7481238854585847  0.4986968404636537  0.8749739056179211
  0.9993506874626631  0.9995588842730682  0.9998787457610466
  0.9972389660932759 -0.0000393799589506  0.4985878300315962
  0.9995920748648166  0.5004809131499676  0.9998623903946879
  0.9955609131661050  0.4992374016220035  0.4987280342229243
  0.5003831038052629  1.0000216094259551  0.0000571440893587
  0.5027315917772343  0.9974404751901119  0.4989859880697602
  0.4999497201384070  0.4999744783071499  0.0011457345366005
  0.2505382552213868  0.2506125042615651  0.0005839372671092
  0.2462288652240664  0.2441687539597138  0.5006982720904753
  0.2496671861339757  0.7499266291170392  0.9995862275243468
  0.2499591725807608  0.7512687405288623  0.5006945983699502
  0.7501526676426877  0.2500602323944799  0.9994845775723036
  0.7504527790827122  0.7508055800832264  0.9945049029795492
  0.2522036588783432  0.2510453743257164  0.2499333179797131
  0.2503177870513750  0.2498037890868888  0.7488915739061279
  0.2492499314156167  0.7499769772153507  0.2493075787194788
  0.2492197903119674  0.7494865951537590  0.7501167125034364
  0.7497384599612278  0.2499993169015004  0.2500810153837364
  0.7498818304292513  0.2487877968236701  0.7494587911622078
  0.7511802697541976  0.7518701289185935  0.2403946454882151
  0.7482089966582517  0.7476700178622677  0.7475545508298571
  0.0009796782910406  0.0014563393182368  0.2508728653801882
  0.9994001046258753  0.9989826166052911  0.7491627876837711
  1.0000841303317529  0.5003777773811572  0.2500723829491013
  0.9988559805608181  0.5000662000488701  0.7505621805039376
  0.5002118767461394  0.0001429811018317  0.2500581077311847
  0.5003875781633235  0.9990555683705097  0.7500906740237522
  0.5030963967167708  0.5034229846878459  0.2533776051026378
  0.5003351367413409  0.5011002440594081  0.7506358137052144
  0.4888326407863527  0.4921622282895422  0.5017750001911950
  0.7512696909643488  0.2493613854840068  0.5009051975301381
  0.7549991241149805  0.7586705028020844  0.5068652044005582
  0.1099807737206315  0.1395642947562156  0.2452770164973616
  0.1092240063872851  0.1396126799011603  0.7496885285318322
  0.1102456375765393  0.6399393202037691  0.2493345084115202
  0.1083467383072697  0.6408096948294867  0.7495094426815028
  0.6097753588495304  0.1397782576464930  0.2489391233369249
  0.6087879805091199  0.1395452279560787  0.7513399474129721
  0.6173747816528793  0.6486844930914958  0.2588449492577527
  0.6070221930847202  0.6406891785778749  0.7594967271634175
  0.3879816610913774  0.3579658452701324  0.2547122979088792
  0.3912082864589554  0.3602111770301099  0.7441725177990336
  0.3895628306333555  0.8605828783282442  0.2480619113849923
  0.3897482193165934  0.8591342667828636  0.7508853392550281
  0.8888088698404472  0.3622536222708087  0.2507416178695547
  0.8906967734588771  0.3593430078825910  0.7485445545810346
  0.8868368556792605  0.8593564909865867  0.2633010233366698
  0.8897703906672156  0.8570760440381642  0.7455748847939146
  0.3601679960707196  0.1091090153861778  0.2476033717335604
  0.3600705692510589  0.1090469044552902  0.7487227591467970
  0.3599580543666467  0.6122921589012457  0.2523275609418820
  0.3578842700496811  0.6086690535386813  0.7482725040294470
  0.8605430391713549  0.1105045694740640  0.2486094549864122
  0.8591261650060035  0.1078621289563577  0.7506863493950257
  0.8593854501749536  0.6149058924739366  0.2610113670315812
  0.8585172773917872  0.6073719963850100  0.7540282036760110
  0.1393106243300373  0.3903848081985865  0.2464713663425077
  0.1397772867299622  0.3908277153335885  0.7489958293443113
  0.1389623369811792  0.8887447788802600  0.2489785886397630
  0.1400422869260979  0.8899877302651032  0.7503565136014245
  0.6412900626472781  0.3896511245268868  0.2487327719003945
  0.6402115577204809  0.3899562419656138  0.7506928997344907
  0.6434751746796732  0.8893356768373366  0.2601588436197438
  0.6408410958853201  0.8904467523484435  0.7488942416806385
  0.3586866478030785  0.3901178454219207  0.0001809077592808
  0.3593027593836791  0.8903927452016500  0.0007588005379654
  0.3585073288076804  0.8912717345307813  0.4997445467824371
  0.8591897179774638  0.3913104035653704  0.9999019686067457
  0.8581274269412946  0.8916090869247297  0.9999116361776146
  0.8647840996343955  0.8925426321172951  0.4865156544881847
  0.1397857538579287  0.1089768390931694  0.0001634502789570
  0.1419319945850042  0.1086671224162395  0.5027560420823711
  0.1404146962475779  0.6090076829477836  0.0011523481619978
  0.1375864781489173  0.6125164530711824  0.4994921947222500
  0.6409017212630084  0.1091233787290739  0.9992615963812844
  0.6370822090070639  0.1099471924721009  0.5000730723731818
  0.6417112555467313  0.6103992188163674  0.9978568630467017
  0.1088155137277885  0.3596908377804431  0.0013068109888273
  0.1124171204829712  0.3614441590249079  0.5024211173520353
  0.1092087511458606  0.8588665114408486  0.9994315007595891
  0.1111728385655717  0.8597636540253807  0.5004978716581403
  0.6099466456415958  0.3594716189752859  0.9997904869740110
  0.6092027207689089  0.8584201405391765  0.9999546518093124
  0.6071775198160450  0.8518247479334139  0.4905684464254014
  0.3912086323826554  0.1397800796682954  0.0011274231112410
  0.3906433189030329  0.1414078524166021  0.5011596766718065
  0.3901187476395934  0.6410129914203061  0.9990474714712302
  0.8910926682836383  0.1405653573633137  0.0007294632683942
  0.8914581840083393  0.1381900527392308  0.4997720292483816
  0.8910430699458783  0.6420568394360199  0.9990531697422281
  0.9958530285535102  0.9932146598565090  0.1254593429587195
  0.9975731033066531  0.9975831338615969  0.6244474016347080
  0.9932780706234962  0.5044018971986816  0.1258693150353420
  0.9962386089451616  0.5075221318621698  0.6243462943674266
  0.5058089044742348  0.9958147781636538  0.1256254394616375
  0.5025147757309749  0.9960368314104067  0.6244733883841973
  0.5008552806012680  0.5029264139596891  0.1227398579557387
  0.5145432533449027  0.5150766797942056  0.6232598652542527
  0.0105030113473019  0.0090451216845990  0.3736924515699446
  0.9983545576403362  0.9978254441448364  0.8746251806979822
  0.0078052278847141  0.4946138037646216  0.3740552652319080
  0.0015356163690557  0.4987341131350025  0.8754152291749699
  0.4944531135139261  0.0045898680487450  0.3741307381889260
  0.4992802322524414  0.9987732573556493  0.8752399396414537
  0.4951794264767405  0.4954265879016075  0.8743887753961112
  0.2456258527288793  0.2475879751565130  0.3757644029753521
  0.2515875599402762  0.2506036318408757  0.8741929519040010
  0.2497546040618945  0.7507143322164960  0.3749769791914236
  0.2493470544926349  0.7489178353973900  0.8749461018764308
  0.7515915169664362  0.2499777207702251  0.8752250032984897
  0.7528337523435408  0.7545134338257101  0.8748502554375809
  0.2520496970988162  0.2506791591899322  0.1240927724650594
  0.2489177086350574  0.2494726521759385  0.6251007960747104
  0.2501236803846089  0.7488680683761111  0.1245888563096774
  0.2484976634482984  0.7506226617318603  0.6254020287866782
  0.7506050366515534  0.2502076708988575  0.1242205837347694
  0.7490158365858814  0.2466627230091628  0.6272173438565114
  0.7525844510271046  0.7515160065810805  0.1245069952438812
  0.7372271215062188  0.7300214779543767  0.6282444753921550
  0.7483370057450428  0.2497944900561733  0.3734093912554538
  0.8663599151148572  0.3852925428634820  0.5006672401634081
  0.3956797182480606  0.6438580159060503  0.5022585284241562
  0.5146847698772002  0.5136741660057650  0.3835230771111376
  0.3587884582057342  0.3904987446451634  0.5005124597452986
  0.8730919055012709  0.6310117697535170  0.4857259302077676
  0.6178494255468704  0.3753572655937135  0.5028732134578593
 
  0.00000000E+00  0.00000000E+00  0.00000000E+00
  0.00000000E+00  0.00000000E+00  0.00000000E+00
  0.00000000E+00  0.00000000E+00  0.00000000E+00
  0.00000000E+00  0.00000000E+00  0.00000000E+00
  0.00000000E+00  0.00000000E+00  0.00000000E+00
  0.00000000E+00  0.00000000E+00  0.00000000E+00
  0.00000000E+00  0.00000000E+00  0.00000000E+00
  0.00000000E+00  0.00000000E+00  0.00000000E+00
  0.00000000E+00  0.00000000E+00  0.00000000E+00
  0.00000000E+00  0.00000000E+00  0.00000000E+00
  0.00000000E+00  0.00000000E+00  0.00000000E+00
  0.00000000E+00  0.00000000E+00  0.00000000E+00
  0.00000000E+00  0.00000000E+00  0.00000000E+00
  0.00000000E+00  0.00000000E+00  0.00000000E+00
  0.00000000E+00  0.00000000E+00  0.00000000E+00
  0.00000000E+00  0.00000000E+00  0.00000000E+00
  0.00000000E+00  0.00000000E+00  0.00000000E+00
  0.00000000E+00  0.00000000E+00  0.00000000E+00
  0.00000000E+00  0.00000000E+00  0.00000000E+00
  0.00000000E+00  0.00000000E+00  0.00000000E+00
  0.00000000E+00  0.00000000E+00  0.00000000E+00
  0.00000000E+00  0.00000000E+00  0.00000000E+00
  0.00000000E+00  0.00000000E+00  0.00000000E+00
  0.00000000E+00  0.00000000E+00  0.00000000E+00
  0.00000000E+00  0.00000000E+00  0.00000000E+00
  0.00000000E+00  0.00000000E+00  0.00000000E+00
  0.00000000E+00  0.00000000E+00  0.00000000E+00
  0.00000000E+00  0.00000000E+00  0.00000000E+00
  0.00000000E+00  0.00000000E+00  0.00000000E+00
  0.00000000E+00  0.00000000E+00  0.00000000E+00
  0.00000000E+00  0.00000000E+00  0.00000000E+00
  0.00000000E+00  0.00000000E+00  0.00000000E+00
  0.00000000E+00  0.00000000E+00  0.00000000E+00
  0.00000000E+00  0.00000000E+00  0.00000000E+00
  0.00000000E+00  0.00000000E+00  0.00000000E+00
  0.00000000E+00  0.00000000E+00  0.00000000E+00
  0.00000000E+00  0.00000000E+00  0.00000000E+00
  0.00000000E+00  0.00000000E+00  0.00000000E+00
  0.00000000E+00  0.00000000E+00  0.00000000E+00
  0.00000000E+00  0.00000000E+00  0.00000000E+00
  0.00000000E+00  0.00000000E+00  0.00000000E+00
  0.00000000E+00  0.00000000E+00  0.00000000E+00
  0.00000000E+00  0.00000000E+00  0.00000000E+00
  0.00000000E+00  0.00000000E+00  0.00000000E+00
  0.00000000E+00  0.00000000E+00  0.00000000E+00
  0.00000000E+00  0.00000000E+00  0.00000000E+00
  0.00000000E+00  0.00000000E+00  0.00000000E+00
  0.00000000E+00  0.00000000E+00  0.00000000E+00
  0.00000000E+00  0.00000000E+00  0.00000000E+00
  0.00000000E+00  0.00000000E+00  0.00000000E+00
  0.00000000E+00  0.00000000E+00  0.00000000E+00
  0.00000000E+00  0.00000000E+00  0.00000000E+00
  0.00000000E+00  0.00000000E+00  0.00000000E+00
  0.00000000E+00  0.00000000E+00  0.00000000E+00
  0.00000000E+00  0.00000000E+00  0.00000000E+00
  0.00000000E+00  0.00000000E+00  0.00000000E+00
  0.00000000E+00  0.00000000E+00  0.00000000E+00
  0.00000000E+00  0.00000000E+00  0.00000000E+00
  0.00000000E+00  0.00000000E+00  0.00000000E+00
  0.00000000E+00  0.00000000E+00  0.00000000E+00
  0.00000000E+00  0.00000000E+00  0.00000000E+00
  0.00000000E+00  0.00000000E+00  0.00000000E+00
  0.00000000E+00  0.00000000E+00  0.00000000E+00
  0.00000000E+00  0.00000000E+00  0.00000000E+00
  0.00000000E+00  0.00000000E+00  0.00000000E+00
  0.00000000E+00  0.00000000E+00  0.00000000E+00
  0.00000000E+00  0.00000000E+00  0.00000000E+00
  0.00000000E+00  0.00000000E+00  0.00000000E+00
  0.00000000E+00  0.00000000E+00  0.00000000E+00
  0.00000000E+00  0.00000000E+00  0.00000000E+00
  0.00000000E+00  0.00000000E+00  0.00000000E+00
  0.00000000E+00  0.00000000E+00  0.00000000E+00
  0.00000000E+00  0.00000000E+00  0.00000000E+00
  0.00000000E+00  0.00000000E+00  0.00000000E+00
  0.00000000E+00  0.00000000E+00  0.00000000E+00
  0.00000000E+00  0.00000000E+00  0.00000000E+00
  0.00000000E+00  0.00000000E+00  0.00000000E+00
  0.00000000E+00  0.00000000E+00  0.00000000E+00
  0.00000000E+00  0.00000000E+00  0.00000000E+00
  0.00000000E+00  0.00000000E+00  0.00000000E+00
  0.00000000E+00  0.00000000E+00  0.00000000E+00
  0.00000000E+00  0.00000000E+00  0.00000000E+00
  0.00000000E+00  0.00000000E+00  0.00000000E+00
  0.00000000E+00  0.00000000E+00  0.00000000E+00
  0.00000000E+00  0.00000000E+00  0.00000000E+00
  0.00000000E+00  0.00000000E+00  0.00000000E+00
  0.00000000E+00  0.00000000E+00  0.00000000E+00
  0.00000000E+00  0.00000000E+00  0.00000000E+00
  0.00000000E+00  0.00000000E+00  0.00000000E+00
  0.00000000E+00  0.00000000E+00  0.00000000E+00
  0.00000000E+00  0.00000000E+00  0.00000000E+00
  0.00000000E+00  0.00000000E+00  0.00000000E+00
  0.00000000E+00  0.00000000E+00  0.00000000E+00
  0.00000000E+00  0.00000000E+00  0.00000000E+00
  0.00000000E+00  0.00000000E+00  0.00000000E+00
  0.00000000E+00  0.00000000E+00  0.00000000E+00
  0.00000000E+00  0.00000000E+00  0.00000000E+00
  0.00000000E+00  0.00000000E+00  0.00000000E+00
  0.00000000E+00  0.00000000E+00  0.00000000E+00
  0.00000000E+00  0.00000000E+00  0.00000000E+00
  0.00000000E+00  0.00000000E+00  0.00000000E+00
  0.00000000E+00  0.00000000E+00  0.00000000E+00
  0.00000000E+00  0.00000000E+00  0.00000000E+00
  0.00000000E+00  0.00000000E+00  0.00000000E+00
  0.00000000E+00  0.00000000E+00  0.00000000E+00
  0.00000000E+00  0.00000000E+00  0.00000000E+00
  0.00000000E+00  0.00000000E+00  0.00000000E+00
  0.00000000E+00  0.00000000E+00  0.00000000E+00
  0.00000000E+00  0.00000000E+00  0.00000000E+00
  0.00000000E+00  0.00000000E+00  0.00000000E+00
  0.00000000E+00  0.00000000E+00  0.00000000E+00
  0.00000000E+00  0.00000000E+00  0.00000000E+00
  0.00000000E+00  0.00000000E+00  0.00000000E+00
  0.00000000E+00  0.00000000E+00  0.00000000E+00
  0.00000000E+00  0.00000000E+00  0.00000000E+00
  0.00000000E+00  0.00000000E+00  0.00000000E+00
  0.00000000E+00  0.00000000E+00  0.00000000E+00
  0.00000000E+00  0.00000000E+00  0.00000000E+00
  0.00000000E+00  0.00000000E+00  0.00000000E+00
  0.00000000E+00  0.00000000E+00  0.00000000E+00
  0.00000000E+00  0.00000000E+00  0.00000000E+00
  0.00000000E+00  0.00000000E+00  0.00000000E+00
  0.00000000E+00  0.00000000E+00  0.00000000E+00
  0.00000000E+00  0.00000000E+00  0.00000000E+00
  0.00000000E+00  0.00000000E+00  0.00000000E+00
  0.00000000E+00  0.00000000E+00  0.00000000E+00
  0.00000000E+00  0.00000000E+00  0.00000000E+00
  0.00000000E+00  0.00000000E+00  0.00000000E+00
  0.00000000E+00  0.00000000E+00  0.00000000E+00
  0.00000000E+00  0.00000000E+00  0.00000000E+00
  0.00000000E+00  0.00000000E+00  0.00000000E+00
  0.00000000E+00  0.00000000E+00  0.00000000E+00
  0.00000000E+00  0.00000000E+00  0.00000000E+00
  0.00000000E+00  0.00000000E+00  0.00000000E+00
  0.00000000E+00  0.00000000E+00  0.00000000E+00
  0.00000000E+00  0.00000000E+00  0.00000000E+00
  0.00000000E+00  0.00000000E+00  0.00000000E+00
  0.00000000E+00  0.00000000E+00  0.00000000E+00
  0.00000000E+00  0.00000000E+00  0.00000000E+00
  0.00000000E+00  0.00000000E+00  0.00000000E+00
  0.00000000E+00  0.00000000E+00  0.00000000E+00
  0.00000000E+00  0.00000000E+00  0.00000000E+00
  0.00000000E+00  0.00000000E+00  0.00000000E+00
  0.00000000E+00  0.00000000E+00  0.00000000E+00
  0.00000000E+00  0.00000000E+00  0.00000000E+00
  0.00000000E+00  0.00000000E+00  0.00000000E+00
  0.00000000E+00  0.00000000E+00  0.00000000E+00
  0.00000000E+00  0.00000000E+00  0.00000000E+00
  0.00000000E+00  0.00000000E+00  0.00000000E+00
  0.00000000E+00  0.00000000E+00  0.00000000E+00
  0.00000000E+00  0.00000000E+00  0.00000000E+00
  0.00000000E+00  0.00000000E+00  0.00000000E+00
  0.00000000E+00  0.00000000E+00  0.00000000E+00
  0.00000000E+00  0.00000000E+00  0.00000000E+00
  0.00000000E+00  0.00000000E+00  0.00000000E+00
  0.00000000E+00  0.00000000E+00  0.00000000E+00
  0.00000000E+00  0.00000000E+00  0.00000000E+00
  0.00000000E+00  0.00000000E+00  0.00000000E+00
