SrTiFeO                                 
   1.00000000000000     
    11.1989999999999998    0.0000000000000000    0.0000000000000000
     0.0000000000000000   11.1989999999999998    0.0000000000000000
     0.0000000000000000    0.0000000000000000   15.9830000000000005
   Sr   Ti   Fe   O 
    32    30     2    94
Direct
  0.9999806928677145  0.2508867185016845  0.1247250196227706
  0.0021667807925320  0.2498643669839377  0.6242354692844028
  0.0011259427836010  0.7491835013870464  0.1251176651481851
  0.0007407704245103  0.7490333537449644  0.6250313415609372
  0.5008450322692420  0.2499554707270663  0.1246556932330806
  0.4958430229839110  0.2458875243509919  0.6267016736744158
  0.4970253891256931  0.7497969285528945  0.1233625400709743
  0.4995959825417584  0.7524076218097698  0.6267623457919136
  0.0032667777551235  0.2494512394857367  0.3746890223424002
  0.9990658715508378  0.2501478279501591  0.8746453086843762
  0.0091425184829976  0.7502171116953160  0.3757087467710927
  0.0008734598014579  0.7502266279609471  0.8749062823280790
  0.4930148277332284  0.2435993894284036  0.3721908431094377
  0.5013275990691985  0.2513288823546747  0.8750349942864148
  0.4893485473586680  0.7566342085150004  0.3758044537599439
  0.4997410053903633  0.7489039072108981  0.8750642025351502
  0.2489935609513658 -0.0004350908860672  0.1256892904695961
  0.2490488704961453  0.9992865854465520  0.6241223287653888
  0.2511802615299555  0.4997239959406391  0.1256190653443831
  0.2491847324747107  0.4988936795105475  0.6224456294011373
  0.7498733396558110  0.0045965622679612  0.1251287139762329
  0.7487881857750220  0.0003965948496195  0.6238054483270472
  0.7517751655335199  0.4987752509448606  0.1221875754442695
  0.7521221687296272  0.5007646239636792  0.6283130846305371
  0.2489356623233313  0.0013648917201540  0.3762816600591776
  0.2507372495387239  0.0005077410125313  0.8752025533591005
  0.2449391075724935  0.4958916429661751  0.3744068616950016
  0.2513404286922570  0.4997284249570385  0.8740167458921179
  0.7471533478792226  0.0116635055287309  0.3777535565157608
  0.7507249395175905  0.0017874308806181  0.8745826976534662
  0.7543303779355162  0.4945525875514162  0.3707317546772433
  0.7509917270739874  0.5002742809987831  0.8757421438425171
  0.9992046008189767 -0.0001606307238263  0.0002077846852153
  0.9991005216098585  0.9969528236556692  0.4993696192660289
  0.0007701506640285  0.5002898137287284 -0.0002533278127900
  0.9949777098774942  0.5015501672119402  0.4988767015684867
  0.5004769719132485  0.9994201405619393  0.0001488331008073
  0.5010092080912557  0.0005454666571712  0.4996454572584800
  0.5001518968877414  0.5008684264548448  0.9990888339953203
  0.2500871882477607  0.2496654278232559  0.0000625828781694
  0.2495677548177909  0.2492903689244583  0.5005450765485219
  0.2502104832285353  0.7495626705688255  0.9996250048766568
  0.2486909923689072  0.7503438474101763  0.5011637780177692
  0.7508374156204665  0.2495636468469897  0.9995533824064889
  0.7503126080754504  0.7502367178560361  0.9993755027019929
  0.2493564619243480  0.2498575340502455  0.2480623758089808
  0.2498307743291579  0.2500328929132899  0.7496201268872352
  0.2500443950006117  0.7489375900840077  0.2499993916903439
  0.2497761638406233  0.7497836119423523  0.7495861714962587
  0.7490720374964052  0.2514820595841739  0.2507846473000467
  0.7488982228586025  0.2512886849837843  0.7476952657876400
  0.7481818218300488  0.7518326544262647  0.2442479125665374
  0.7501522627596359  0.7504157765766575  0.7524056669404980
 -0.0010979409455847 -0.0000737685478456  0.2518096472507661
  0.9995207280566821  0.9992991232248143  0.7495892650480774
  0.9988015558257000  0.5000915464249530  0.2499279017431711
  0.0002601870652846  0.5001169491489023  0.7500842196592026
  0.4997942997370222 -0.0004488938132328  0.2503373538937312
  0.5005861189777611  0.9994468317853495  0.7504773582817345
  0.5020082185661571  0.4990090430918872  0.2506412317450820
  0.5011992712485153  0.4995627986366824  0.7474633935726472
  0.4986624963996800  0.5095430108687515  0.4957926536841503
  0.7606259927753507  0.2439922946179396  0.5005638553432517
  0.7508340108410873  0.7502475176482567  0.5093615804996943
  0.1097574669864059  0.1392002488378804  0.2470729245927163
  0.1085878871593122  0.1406786071036405  0.7483489727484363
  0.1127334872685666  0.6377337882879858  0.2501664538034908
  0.1091285411835624  0.6409084857073003  0.7511042178487651
  0.6095129442090760  0.1401717441762189  0.2499078940619344
  0.6085769670555006  0.1408196790461344  0.7500420804564586
  0.6127923850712840  0.6415919128012677  0.2649734096530824
  0.6094408804616874  0.6419117369625279  0.7513192270291484
  0.3909372725930629  0.3595294738825953  0.2472155395181863
  0.3909264266121982  0.3593021312148523  0.7499333182975580
  0.3888827255245768  0.8598690706995291  0.2483827601260186
  0.3912324000443519  0.8590832264012958  0.7500374750026956
  0.8906916049259539  0.3584821792214553  0.2509774391828793
  0.8909450527458129  0.3593461898174399  0.7472567023579085
  0.8860398201739599  0.8604025484491219  0.2627657963111079
  0.8910298175541495  0.8591758268594848  0.7514731554093709
  0.3596786228630222  0.1102011109854069  0.2481719149571859
  0.3600856828293828  0.1092248989496048  0.7464329986032966
  0.3628138227419593  0.6089383559239691  0.2559671899666819
  0.3595513414388729  0.6097203201419003  0.7454907159395663
  0.8590658740732928  0.1111472208327369  0.2545231116846869
  0.8581374385896720  0.1104078982957010  0.7446882182394795
  0.8635974281536654  0.6085522656582086  0.2543638044418050
  0.8594522902079010  0.6094905428645531  0.7512653594157839
  0.1413606348383054  0.3884596174730505  0.2482100574419399
  0.1407703945601979  0.3910996766452700  0.7486475659555342
  0.1378268260767460  0.8875098787866329  0.2495378067008093
  0.1402089995152027  0.8920178268738692  0.7527047943765596
  0.6423904078529715  0.3915452147545258  0.2423479504228963
  0.6418978416566212  0.3911665750796898  0.7565112074171368
  0.6383957128108625  0.8906566583582046  0.2619310019437704
  0.6416932126613305  0.8917107034069882  0.7516395200854834
  0.3602393317596985  0.3905195843720425  0.0014969893295811
  0.3590962680290207  0.8906136582036919  0.0014019868495372
  0.3624349099416526  0.8872033742354597  0.5005974992418631
  0.8599256122894970  0.3899801900470249 -0.0000054387941722
  0.8586163140173365  0.8911411676439341 -0.0005013190232351
  0.8600563172224659  0.8874452260587383  0.4889300529212912
  0.1404051893833760  0.1079789498439475  0.0014282613880969
  0.1372242232923222  0.1117504571055175  0.5029428436009866
  0.1416275892455042  0.6085680466189953 -0.0002812429693275
  0.1381466544175658  0.6116077632918321  0.4992058356463109
  0.6410170198946219  0.1090298067685239 -0.0001800311353271
  0.6286365957746629  0.1251531031360351  0.4996253512297238
  0.6413355054342879  0.6091394077759176  0.9989354850742962
  0.1100839521469302  0.3583048259116877 -0.0007546416416939
  0.1118703317211139  0.3623058955267143  0.5011335883848398
  0.1090633926172788  0.8589559475743129  0.0006833641525983
  0.1105954683630072  0.8614481941402815  0.4997530021831238
  0.6101227736134966  0.3598132337570257  0.0009042077707061
  0.6084210515116243  0.8587226946673664  0.9990636922062818
  0.6164462067459593  0.8637605867384442  0.4889309948288051
  0.3911906184582203  0.1400460637203454  0.0009705403686845
  0.3833422964399403  0.1339806113588093  0.5033331221985340
  0.3910752059467522  0.6416075993579043  0.0003540490210825
  0.8916019273509145  0.1404062063096678  0.0010271230781554
  0.8898893391583262  0.1374329698537028  0.5003692954995509
  0.8924900274837851  0.6398859996895570  0.9979961278765211
  0.9936259913816130  0.9954280695592113  0.1268546436126133
  0.9965545935192792  0.9934129620927334  0.6242700510654300
  0.9993911453021707  0.5000543712837392  0.1244309247975896
  0.9974203491287398  0.5053632632877639  0.6239548985207850
  0.5051983022636458  0.9965862617322853  0.1257989511748534
  0.5058465818821434  0.9941025778076530  0.6244096739047653
  0.5020492331755945  0.5090014777325563  0.1264246500966971
  0.5134944928626272  0.4947599214093130  0.6253810582398374
  0.0082984624469956  0.0058547851685586  0.3751649259758201
  0.9977666338210509  0.0028037540090636  0.8750906304139010
  0.0053184763540543  0.4937665858786348  0.3750171223789321
  0.0007023837133002  0.4972800142007173  0.8741937375201039
  0.4915046239740432  0.0047022099063196  0.3751044676471137
  0.4980392477005138  0.0009870312123719  0.8749255414712970
  0.4964464689906992  0.5018848982131451  0.8758360959238173
  0.2487964872742687  0.2485496850041626  0.3745739847330959
  0.2509214986532247  0.2479394618097960  0.8745708382297239
  0.2505458661380002  0.7514493527998122  0.3752257696910710
  0.2514927980674967  0.7492148735587094  0.8754081456779629
  0.7530948284192805  0.2472285062228361  0.8749410537915112
  0.7508857597625711  0.7501925002775794  0.8750712699061853
  0.2499308545650716  0.2493625722161804  0.1239346909760770
  0.2493154390176120  0.2528084989934846  0.6254855933863099
  0.2512453354228000  0.7465914261396089  0.1255255987068610
  0.2436982743458196  0.7548986754703203  0.6264097596557369
  0.7524447096175337  0.2464388499447678  0.1248989039498732
  0.7362429768660332  0.2616518728638935  0.6230712058477887
  0.7534269162178714  0.7460879681803981  0.1225108152922780
  0.7495482651979762  0.7514298595694530  0.6270413808958978
  0.7378439224847968  0.2602942126765236  0.3764780744981619
  0.8536297796580511  0.3936942644330038  0.5005290384453133
  0.3849947475598408  0.6412789924018493  0.5077041956150243
  0.5102559113981573  0.4770552873945258  0.3754001770635170
  0.3714085024675097  0.3809243249248234  0.4999766180038035
  0.8880213500094685  0.6424488508365124  0.4893351419614524
  0.6433745302226319  0.6107710696450765  0.4887550867028702
 
  0.00000000E+00  0.00000000E+00  0.00000000E+00
  0.00000000E+00  0.00000000E+00  0.00000000E+00
  0.00000000E+00  0.00000000E+00  0.00000000E+00
  0.00000000E+00  0.00000000E+00  0.00000000E+00
  0.00000000E+00  0.00000000E+00  0.00000000E+00
  0.00000000E+00  0.00000000E+00  0.00000000E+00
  0.00000000E+00  0.00000000E+00  0.00000000E+00
  0.00000000E+00  0.00000000E+00  0.00000000E+00
  0.00000000E+00  0.00000000E+00  0.00000000E+00
  0.00000000E+00  0.00000000E+00  0.00000000E+00
  0.00000000E+00  0.00000000E+00  0.00000000E+00
  0.00000000E+00  0.00000000E+00  0.00000000E+00
  0.00000000E+00  0.00000000E+00  0.00000000E+00
  0.00000000E+00  0.00000000E+00  0.00000000E+00
  0.00000000E+00  0.00000000E+00  0.00000000E+00
  0.00000000E+00  0.00000000E+00  0.00000000E+00
  0.00000000E+00  0.00000000E+00  0.00000000E+00
  0.00000000E+00  0.00000000E+00  0.00000000E+00
  0.00000000E+00  0.00000000E+00  0.00000000E+00
  0.00000000E+00  0.00000000E+00  0.00000000E+00
  0.00000000E+00  0.00000000E+00  0.00000000E+00
  0.00000000E+00  0.00000000E+00  0.00000000E+00
  0.00000000E+00  0.00000000E+00  0.00000000E+00
  0.00000000E+00  0.00000000E+00  0.00000000E+00
  0.00000000E+00  0.00000000E+00  0.00000000E+00
  0.00000000E+00  0.00000000E+00  0.00000000E+00
  0.00000000E+00  0.00000000E+00  0.00000000E+00
  0.00000000E+00  0.00000000E+00  0.00000000E+00
  0.00000000E+00  0.00000000E+00  0.00000000E+00
  0.00000000E+00  0.00000000E+00  0.00000000E+00
  0.00000000E+00  0.00000000E+00  0.00000000E+00
  0.00000000E+00  0.00000000E+00  0.00000000E+00
  0.00000000E+00  0.00000000E+00  0.00000000E+00
  0.00000000E+00  0.00000000E+00  0.00000000E+00
  0.00000000E+00  0.00000000E+00  0.00000000E+00
  0.00000000E+00  0.00000000E+00  0.00000000E+00
  0.00000000E+00  0.00000000E+00  0.00000000E+00
  0.00000000E+00  0.00000000E+00  0.00000000E+00
  0.00000000E+00  0.00000000E+00  0.00000000E+00
  0.00000000E+00  0.00000000E+00  0.00000000E+00
  0.00000000E+00  0.00000000E+00  0.00000000E+00
  0.00000000E+00  0.00000000E+00  0.00000000E+00
  0.00000000E+00  0.00000000E+00  0.00000000E+00
  0.00000000E+00  0.00000000E+00  0.00000000E+00
  0.00000000E+00  0.00000000E+00  0.00000000E+00
  0.00000000E+00  0.00000000E+00  0.00000000E+00
  0.00000000E+00  0.00000000E+00  0.00000000E+00
  0.00000000E+00  0.00000000E+00  0.00000000E+00
  0.00000000E+00  0.00000000E+00  0.00000000E+00
  0.00000000E+00  0.00000000E+00  0.00000000E+00
  0.00000000E+00  0.00000000E+00  0.00000000E+00
  0.00000000E+00  0.00000000E+00  0.00000000E+00
  0.00000000E+00  0.00000000E+00  0.00000000E+00
  0.00000000E+00  0.00000000E+00  0.00000000E+00
  0.00000000E+00  0.00000000E+00  0.00000000E+00
  0.00000000E+00  0.00000000E+00  0.00000000E+00
  0.00000000E+00  0.00000000E+00  0.00000000E+00
  0.00000000E+00  0.00000000E+00  0.00000000E+00
  0.00000000E+00  0.00000000E+00  0.00000000E+00
  0.00000000E+00  0.00000000E+00  0.00000000E+00
  0.00000000E+00  0.00000000E+00  0.00000000E+00
  0.00000000E+00  0.00000000E+00  0.00000000E+00
  0.00000000E+00  0.00000000E+00  0.00000000E+00
  0.00000000E+00  0.00000000E+00  0.00000000E+00
  0.00000000E+00  0.00000000E+00  0.00000000E+00
  0.00000000E+00  0.00000000E+00  0.00000000E+00
  0.00000000E+00  0.00000000E+00  0.00000000E+00
  0.00000000E+00  0.00000000E+00  0.00000000E+00
  0.00000000E+00  0.00000000E+00  0.00000000E+00
  0.00000000E+00  0.00000000E+00  0.00000000E+00
  0.00000000E+00  0.00000000E+00  0.00000000E+00
  0.00000000E+00  0.00000000E+00  0.00000000E+00
  0.00000000E+00  0.00000000E+00  0.00000000E+00
  0.00000000E+00  0.00000000E+00  0.00000000E+00
  0.00000000E+00  0.00000000E+00  0.00000000E+00
  0.00000000E+00  0.00000000E+00  0.00000000E+00
  0.00000000E+00  0.00000000E+00  0.00000000E+00
  0.00000000E+00  0.00000000E+00  0.00000000E+00
  0.00000000E+00  0.00000000E+00  0.00000000E+00
  0.00000000E+00  0.00000000E+00  0.00000000E+00
  0.00000000E+00  0.00000000E+00  0.00000000E+00
  0.00000000E+00  0.00000000E+00  0.00000000E+00
  0.00000000E+00  0.00000000E+00  0.00000000E+00
  0.00000000E+00  0.00000000E+00  0.00000000E+00
  0.00000000E+00  0.00000000E+00  0.00000000E+00
  0.00000000E+00  0.00000000E+00  0.00000000E+00
  0.00000000E+00  0.00000000E+00  0.00000000E+00
  0.00000000E+00  0.00000000E+00  0.00000000E+00
  0.00000000E+00  0.00000000E+00  0.00000000E+00
  0.00000000E+00  0.00000000E+00  0.00000000E+00
  0.00000000E+00  0.00000000E+00  0.00000000E+00
  0.00000000E+00  0.00000000E+00  0.00000000E+00
  0.00000000E+00  0.00000000E+00  0.00000000E+00
  0.00000000E+00  0.00000000E+00  0.00000000E+00
  0.00000000E+00  0.00000000E+00  0.00000000E+00
  0.00000000E+00  0.00000000E+00  0.00000000E+00
  0.00000000E+00  0.00000000E+00  0.00000000E+00
  0.00000000E+00  0.00000000E+00  0.00000000E+00
  0.00000000E+00  0.00000000E+00  0.00000000E+00
  0.00000000E+00  0.00000000E+00  0.00000000E+00
  0.00000000E+00  0.00000000E+00  0.00000000E+00
  0.00000000E+00  0.00000000E+00  0.00000000E+00
  0.00000000E+00  0.00000000E+00  0.00000000E+00
  0.00000000E+00  0.00000000E+00  0.00000000E+00
  0.00000000E+00  0.00000000E+00  0.00000000E+00
  0.00000000E+00  0.00000000E+00  0.00000000E+00
  0.00000000E+00  0.00000000E+00  0.00000000E+00
  0.00000000E+00  0.00000000E+00  0.00000000E+00
  0.00000000E+00  0.00000000E+00  0.00000000E+00
  0.00000000E+00  0.00000000E+00  0.00000000E+00
  0.00000000E+00  0.00000000E+00  0.00000000E+00
  0.00000000E+00  0.00000000E+00  0.00000000E+00
  0.00000000E+00  0.00000000E+00  0.00000000E+00
  0.00000000E+00  0.00000000E+00  0.00000000E+00
  0.00000000E+00  0.00000000E+00  0.00000000E+00
  0.00000000E+00  0.00000000E+00  0.00000000E+00
  0.00000000E+00  0.00000000E+00  0.00000000E+00
  0.00000000E+00  0.00000000E+00  0.00000000E+00
  0.00000000E+00  0.00000000E+00  0.00000000E+00
  0.00000000E+00  0.00000000E+00  0.00000000E+00
  0.00000000E+00  0.00000000E+00  0.00000000E+00
  0.00000000E+00  0.00000000E+00  0.00000000E+00
  0.00000000E+00  0.00000000E+00  0.00000000E+00
  0.00000000E+00  0.00000000E+00  0.00000000E+00
  0.00000000E+00  0.00000000E+00  0.00000000E+00
  0.00000000E+00  0.00000000E+00  0.00000000E+00
  0.00000000E+00  0.00000000E+00  0.00000000E+00
  0.00000000E+00  0.00000000E+00  0.00000000E+00
  0.00000000E+00  0.00000000E+00  0.00000000E+00
  0.00000000E+00  0.00000000E+00  0.00000000E+00
  0.00000000E+00  0.00000000E+00  0.00000000E+00
  0.00000000E+00  0.00000000E+00  0.00000000E+00
  0.00000000E+00  0.00000000E+00  0.00000000E+00
  0.00000000E+00  0.00000000E+00  0.00000000E+00
  0.00000000E+00  0.00000000E+00  0.00000000E+00
  0.00000000E+00  0.00000000E+00  0.00000000E+00
  0.00000000E+00  0.00000000E+00  0.00000000E+00
  0.00000000E+00  0.00000000E+00  0.00000000E+00
  0.00000000E+00  0.00000000E+00  0.00000000E+00
  0.00000000E+00  0.00000000E+00  0.00000000E+00
  0.00000000E+00  0.00000000E+00  0.00000000E+00
  0.00000000E+00  0.00000000E+00  0.00000000E+00
  0.00000000E+00  0.00000000E+00  0.00000000E+00
  0.00000000E+00  0.00000000E+00  0.00000000E+00
  0.00000000E+00  0.00000000E+00  0.00000000E+00
  0.00000000E+00  0.00000000E+00  0.00000000E+00
  0.00000000E+00  0.00000000E+00  0.00000000E+00
  0.00000000E+00  0.00000000E+00  0.00000000E+00
  0.00000000E+00  0.00000000E+00  0.00000000E+00
  0.00000000E+00  0.00000000E+00  0.00000000E+00
  0.00000000E+00  0.00000000E+00  0.00000000E+00
  0.00000000E+00  0.00000000E+00  0.00000000E+00
  0.00000000E+00  0.00000000E+00  0.00000000E+00
  0.00000000E+00  0.00000000E+00  0.00000000E+00
  0.00000000E+00  0.00000000E+00  0.00000000E+00
  0.00000000E+00  0.00000000E+00  0.00000000E+00
  0.00000000E+00  0.00000000E+00  0.00000000E+00
  0.00000000E+00  0.00000000E+00  0.00000000E+00
