Sr   Ti   Fe   O                        
   1.00000000000000     
    11.1989999999999998    0.0000000000000000    0.0000000000000000
     0.0000000000000000   11.1989999999999998    0.0000000000000000
     0.0000000000000000    0.0000000000000000   15.9830000000000005
   Sr   Ti   Fe   O 
    32    29     3    94
Direct
 -0.0000646350133031  0.2494953964644382  0.1249088629877387
 -0.0000091659506731  0.2488694706897668  0.6231452000398446
  0.9985244910415533  0.7504812183778331  0.1263960262362459
  0.0027862867893007  0.7506508298883345  0.6218502486174813
  0.4999639825857997  0.2518500578259081  0.1257592958024984
  0.5014007085944725  0.2422438632402176  0.6220955162178644
  0.5011107576290731  0.7507010352303618  0.1248428112219505
  0.4919343502085293  0.7562856847708260  0.6199795983120460
  0.0004556150672366  0.2490176194670297  0.3764808946733376
  0.0004996552181125  0.2511057027842474  0.8755038205098984
  0.9981779551011745  0.7484287738759775  0.3775468274204932
  0.0072606855801382  0.7495499744392431  0.8774965294875355
  0.5013152496337645  0.2468300504449076  0.3747364670872700
  0.4988557993491213  0.2502063485906819  0.8747707330000825
  0.4982904959423770  0.7496312109379974  0.3724965839288306
  0.4955845538259902  0.7557785948757599  0.8794153087022639
  0.2500817028630083  0.0005538514126580  0.1250857340339149
  0.2487681424364091 -0.0001295236366168  0.6235365157800073
  0.2520139035138392  0.5004867504095589  0.1248448875588109
  0.2420045995914477  0.5018510171617299  0.6246831582081021
  0.7500470704256077  0.9982761353722358  0.1245400465501448
  0.7506357927630780  0.0024785983684390  0.6240062835782993
  0.7505012926988899  0.4994626691048112  0.1271689901090209
  0.7629012628492403  0.4944155536692896  0.6242979766649827
  0.2490308909739354  0.9998295514745964  0.3750498236594754
  0.2501374045541511  0.0016175349921093  0.8747382703153203
  0.2492486000951999  0.5007414703268743  0.3773537631829558
  0.2507385625285161  0.5017233395048547  0.8747218136354539
  0.7515853610962461  0.9988335252126933  0.3749057842658153
  0.7486309112553315  0.0051139107173665  0.8753366079502821
  0.7531062756018544  0.4973282251679582  0.3735222114964802
  0.7510826553037543  0.4986254262515006  0.8792070860828344
  0.9996018208001654  1.0000204149636351  0.9994205501765605
  1.0003611877564140  1.0008302414201946  0.4995871308171637
  0.0004540886769421  0.5000922696033451  0.0004698488769329
  0.9972886440344688  0.5002930771408781  0.4993582119166424
  0.5000828019605641  0.0012624818561860  0.0003468523502769
  0.5016287185742150  0.9968014079381471  0.4988289671563291
  0.5011579377611142  0.5016948603223355  1.0000267650744332
  0.2508457009915954  0.2511903999120470  0.9995861262207083
  0.2507013175653039  0.2500015759092573  0.5009767441751624
  0.2504451532260096  0.7498352784000427  0.0009278030777273
  0.2493910152559863  0.7499161198946044  0.4987140902394496
  0.7496910939984055  0.2506160110608657  0.0004407587271531
  0.7479014516637175  0.2491054468896358  0.4992944006532484
  0.7494760234122052  0.7491428085338119  0.0006233664208643
  0.2505960979469726  0.2509682122884436  0.2505602626490442
  0.2526083275678094  0.2517104207689455  0.7479370082347772
  0.2488314241202438  0.7502345337481218  0.2500641479942738
  0.2525561443641400  0.7496070657608247  0.7487143582308349
  0.7503614723846553  0.2488668465438401  0.2498780364231143
  0.7486636863499426  0.2533019877732610  0.7494679291145501
  0.7492261200152854  0.7487881403611518  0.2527407613775593
  0.7646969035740266  0.7595179757027885  0.7503097858462983
  0.9994860885712137  0.9993569439843557  0.2503867983884392
  0.0047722684423504  0.0065139921398796  0.7508023991387014
  0.0009290638585443  0.4997192580674870  0.2499521579928053
  0.0003885778770355  0.4988456077023429  0.7507832265192709
  0.4997713188131176 -0.0002130208765896  0.2498234107354905
  0.4987857352592358  0.0000230829924476  0.7500037476372465
  0.5009017304497060  0.5003079227141255  0.2501060663901749
  0.4962605065320261  0.4928556190316622  0.7559430279489853
  0.4954114365767388  0.4949460615447108  0.4943704133001074
  0.7535072973928176  0.7575733670924987  0.5029075562306302
  0.1095489073112882  0.1413291198677590  0.2486468229992868
  0.1076047188671821  0.1423386268005653  0.7521078295007640
  0.1083935746781724  0.6412774153005273  0.2496683727464122
  0.1111203539745442  0.6390984700808240  0.7494346257722376
  0.6089025118041066  0.1402402083678669  0.2486597375917004
  0.6104156017409943  0.1386378944373682  0.7505705667769802
  0.6099005657484960  0.6406656105137548  0.2423120728655034
  0.3917655338827570  0.3599756028292829  0.2549728298024809
  0.3871398815822923  0.3542848291074471  0.7370882916492780
  0.3899311650669532  0.8597430480548508  0.2496987433483587
  0.3873910178496188  0.8634762690298081  0.7514333835473938
  0.8913347702269099  0.3588663899505774  0.2507718041188598
  0.8927935332778079  0.3575720780128132  0.7493204934020546
  0.8896788700286175  0.8582413969303976  0.2561973472422888
  0.8950683576051365  0.8587328752806207  0.7563136882730525
  0.3590534235628323  0.1098120586231876  0.2499697151605727
  0.3590315840575108  0.1081756241316330  0.7492869910191299
  0.3588442669736484  0.6099536217665248  0.2521389698716103
  0.3736345963256287  0.6177749694858269  0.7383266275451497
  0.8588984234297973  0.1081513323251410  0.2479471164281888
  0.8585344314020370  0.1076674370786633  0.7507851050751857
  0.8592912446128849  0.6084063554712538  0.2495563667819982
  0.8529825221378809  0.6063026124134336  0.7515017658175543
  0.1416428948277424  0.3919408123962481  0.2501223424125575
  0.1409363792852502  0.3917232040754726  0.7509737551564890
  0.1399247844596249  0.8919274143109419  0.2477312135245499
  0.1407429061806776  0.8906517926912634  0.7518030606422925
  0.6418223592887438  0.3897857588215241  0.2499276098911256
  0.6401750863002323  0.8902125520073673  0.2511892933924897
  0.6343047545862083  0.8787682225011024  0.7523199558595459
  0.3598409101361061  0.3920227231831975  0.9959578329475456
  0.3597738367822563  0.8905992838255569  0.9980040871264061
  0.3595020647257969  0.8892358921593845  0.5005035781531120
  0.8602767002503299  0.3902738087438460  0.0000196480765176
  0.8625641934724773  0.3842570550210770  0.4984223085364455
  0.8590661205023303  0.8890120607060302  0.9921867073912728
  0.8607334729413627  0.8898942918806004  0.4991794902511208
  0.1406951438079544  0.1103983246223685  0.0018930286686029
  0.1389640060774788  0.1103356106133209  0.4973520787590958
  0.1408189647816861  0.6093311095263174  0.9994096487637566
  0.1293227127432872  0.6159578515365733  0.4996967667083057
  0.6407971706954507  0.1097632163842989  0.0003379856436516
  0.6416645039701537  0.1043284109884321  0.4997523963865838
  0.6417846831472295  0.6103531113157159  0.0104383808595805
  0.1099489445846950  0.3596247049077460 -0.0001312179204999
  0.1117151873581856  0.3629458735830840  0.4994287074972252
  0.1102725567555679  0.8594017101054763  0.9991738465960217
  0.1083300865685447  0.8622553201969507  0.4990167686971175
  0.6095761182026685  0.3595260821200186  0.9997071853483436
  0.6096601792107903  0.8602149477158166  0.9998556879565093
  0.6054577889583617  0.8530424184882268  0.4990403413449521
  0.3912004498366033  0.1415022456175509  0.0004977303653117
  0.3899261247067149  0.1380791307549571  0.5000389116341156
  0.3905465802906725  0.6421218504842974  0.0037291522294175
  0.3767935516336334  0.6361561694436350  0.4957425441068162
  0.8900256182162809  0.1403343738945990  0.9992606534124667
  0.8899182440832729  0.1377699771384673  0.5003491816932727
  0.8909218050103566  0.6406639904082390  0.9981569315606903
  0.9950023881533231  0.9955371006775853  0.1241228374060522
  0.0005398312080022 -0.0007770525963900  0.6261791011582041
  0.9998528809419865  0.5000713891079842  0.1246621923007783
  0.0015952198447735  0.4995175005436426  0.6255534757316312
  0.4991804676454019  0.9988209829021595  0.1247529010241032
  0.5018619723430978  0.0000098097483209  0.6251939525608303
  0.4944316984760470  0.4938759530906243  0.1264190947723032
  1.0000033835534869  1.0022355307996675  0.3740779406254433
  0.0032250679211573  1.0030983816515524  0.8755597906068726
 -0.0003706854661909  0.5010324378809434  0.3746972957954147
  0.0010126070555598  0.4997417145725599  0.8749810454464755
  0.4991618610986808  0.0004652221613139  0.3745678132619193
  0.5004976798382526  0.0026384660586082  0.8753621608928503
  0.5103292136859636  0.5166370322330681  0.8795038956256862
  0.2515844602957914  0.2528217858769987  0.3759385172543432
  0.2529168214427430  0.2503342805413192  0.8743536317642744
  0.2448866785577975  0.7541997792544123  0.3736582142176806
  0.2529991910440656  0.7435554862230108  0.8742460973680548
  0.7510150962920636  0.2454065576378628  0.3738982965398447
  0.7483042712755430  0.2518026478332173  0.8745600969231098
  0.7384956114749535  0.7362074852866567  0.3769375911877237
  0.7334975234664914  0.7347755173768508  0.8719687378441534
  0.2535954580248202  0.2540878542233813  0.1252554985557105
  0.2388217122935098  0.2404687010575093  0.6244107175109568
  0.2491831600549479  0.7508685918928086  0.1248539978487925
  0.2447558072221773  0.7536112006615910  0.6241917552395798
  0.7509878765517272  0.2507576792340181  0.1245289331655119
  0.7505034607656690  0.2464524700081754  0.6248065897806916
  0.7573379915591402  0.7576476179070173  0.1247823894211344
  0.6439333301361341  0.3962632895824028  0.7452735956803495
  0.5135094028113845  0.5101868390247541  0.3746915045028369
  0.6098773530927842  0.3526724491591889  0.4980572570507900
  0.3612113744669420  0.3876482992297977  0.5122993818715902
  0.7505315755871085  0.7523507997411222  0.6303489637175316
  0.8750538030001261  0.6298254981798486  0.5019946544744108
  0.5878354041586181  0.5791897184058081  0.5683945804492007
 
  0.00000000E+00  0.00000000E+00  0.00000000E+00
  0.00000000E+00  0.00000000E+00  0.00000000E+00
  0.00000000E+00  0.00000000E+00  0.00000000E+00
  0.00000000E+00  0.00000000E+00  0.00000000E+00
  0.00000000E+00  0.00000000E+00  0.00000000E+00
  0.00000000E+00  0.00000000E+00  0.00000000E+00
  0.00000000E+00  0.00000000E+00  0.00000000E+00
  0.00000000E+00  0.00000000E+00  0.00000000E+00
  0.00000000E+00  0.00000000E+00  0.00000000E+00
  0.00000000E+00  0.00000000E+00  0.00000000E+00
  0.00000000E+00  0.00000000E+00  0.00000000E+00
  0.00000000E+00  0.00000000E+00  0.00000000E+00
  0.00000000E+00  0.00000000E+00  0.00000000E+00
  0.00000000E+00  0.00000000E+00  0.00000000E+00
  0.00000000E+00  0.00000000E+00  0.00000000E+00
  0.00000000E+00  0.00000000E+00  0.00000000E+00
  0.00000000E+00  0.00000000E+00  0.00000000E+00
  0.00000000E+00  0.00000000E+00  0.00000000E+00
  0.00000000E+00  0.00000000E+00  0.00000000E+00
  0.00000000E+00  0.00000000E+00  0.00000000E+00
  0.00000000E+00  0.00000000E+00  0.00000000E+00
  0.00000000E+00  0.00000000E+00  0.00000000E+00
  0.00000000E+00  0.00000000E+00  0.00000000E+00
  0.00000000E+00  0.00000000E+00  0.00000000E+00
  0.00000000E+00  0.00000000E+00  0.00000000E+00
  0.00000000E+00  0.00000000E+00  0.00000000E+00
  0.00000000E+00  0.00000000E+00  0.00000000E+00
  0.00000000E+00  0.00000000E+00  0.00000000E+00
  0.00000000E+00  0.00000000E+00  0.00000000E+00
  0.00000000E+00  0.00000000E+00  0.00000000E+00
  0.00000000E+00  0.00000000E+00  0.00000000E+00
  0.00000000E+00  0.00000000E+00  0.00000000E+00
  0.00000000E+00  0.00000000E+00  0.00000000E+00
  0.00000000E+00  0.00000000E+00  0.00000000E+00
  0.00000000E+00  0.00000000E+00  0.00000000E+00
  0.00000000E+00  0.00000000E+00  0.00000000E+00
  0.00000000E+00  0.00000000E+00  0.00000000E+00
  0.00000000E+00  0.00000000E+00  0.00000000E+00
  0.00000000E+00  0.00000000E+00  0.00000000E+00
  0.00000000E+00  0.00000000E+00  0.00000000E+00
  0.00000000E+00  0.00000000E+00  0.00000000E+00
  0.00000000E+00  0.00000000E+00  0.00000000E+00
  0.00000000E+00  0.00000000E+00  0.00000000E+00
  0.00000000E+00  0.00000000E+00  0.00000000E+00
  0.00000000E+00  0.00000000E+00  0.00000000E+00
  0.00000000E+00  0.00000000E+00  0.00000000E+00
  0.00000000E+00  0.00000000E+00  0.00000000E+00
  0.00000000E+00  0.00000000E+00  0.00000000E+00
  0.00000000E+00  0.00000000E+00  0.00000000E+00
  0.00000000E+00  0.00000000E+00  0.00000000E+00
  0.00000000E+00  0.00000000E+00  0.00000000E+00
  0.00000000E+00  0.00000000E+00  0.00000000E+00
  0.00000000E+00  0.00000000E+00  0.00000000E+00
  0.00000000E+00  0.00000000E+00  0.00000000E+00
  0.00000000E+00  0.00000000E+00  0.00000000E+00
  0.00000000E+00  0.00000000E+00  0.00000000E+00
  0.00000000E+00  0.00000000E+00  0.00000000E+00
  0.00000000E+00  0.00000000E+00  0.00000000E+00
  0.00000000E+00  0.00000000E+00  0.00000000E+00
  0.00000000E+00  0.00000000E+00  0.00000000E+00
  0.00000000E+00  0.00000000E+00  0.00000000E+00
  0.00000000E+00  0.00000000E+00  0.00000000E+00
  0.00000000E+00  0.00000000E+00  0.00000000E+00
  0.00000000E+00  0.00000000E+00  0.00000000E+00
  0.00000000E+00  0.00000000E+00  0.00000000E+00
  0.00000000E+00  0.00000000E+00  0.00000000E+00
  0.00000000E+00  0.00000000E+00  0.00000000E+00
  0.00000000E+00  0.00000000E+00  0.00000000E+00
  0.00000000E+00  0.00000000E+00  0.00000000E+00
  0.00000000E+00  0.00000000E+00  0.00000000E+00
  0.00000000E+00  0.00000000E+00  0.00000000E+00
  0.00000000E+00  0.00000000E+00  0.00000000E+00
  0.00000000E+00  0.00000000E+00  0.00000000E+00
  0.00000000E+00  0.00000000E+00  0.00000000E+00
  0.00000000E+00  0.00000000E+00  0.00000000E+00
  0.00000000E+00  0.00000000E+00  0.00000000E+00
  0.00000000E+00  0.00000000E+00  0.00000000E+00
  0.00000000E+00  0.00000000E+00  0.00000000E+00
  0.00000000E+00  0.00000000E+00  0.00000000E+00
  0.00000000E+00  0.00000000E+00  0.00000000E+00
  0.00000000E+00  0.00000000E+00  0.00000000E+00
  0.00000000E+00  0.00000000E+00  0.00000000E+00
  0.00000000E+00  0.00000000E+00  0.00000000E+00
  0.00000000E+00  0.00000000E+00  0.00000000E+00
  0.00000000E+00  0.00000000E+00  0.00000000E+00
  0.00000000E+00  0.00000000E+00  0.00000000E+00
  0.00000000E+00  0.00000000E+00  0.00000000E+00
  0.00000000E+00  0.00000000E+00  0.00000000E+00
  0.00000000E+00  0.00000000E+00  0.00000000E+00
  0.00000000E+00  0.00000000E+00  0.00000000E+00
  0.00000000E+00  0.00000000E+00  0.00000000E+00
  0.00000000E+00  0.00000000E+00  0.00000000E+00
  0.00000000E+00  0.00000000E+00  0.00000000E+00
  0.00000000E+00  0.00000000E+00  0.00000000E+00
  0.00000000E+00  0.00000000E+00  0.00000000E+00
  0.00000000E+00  0.00000000E+00  0.00000000E+00
  0.00000000E+00  0.00000000E+00  0.00000000E+00
  0.00000000E+00  0.00000000E+00  0.00000000E+00
  0.00000000E+00  0.00000000E+00  0.00000000E+00
  0.00000000E+00  0.00000000E+00  0.00000000E+00
  0.00000000E+00  0.00000000E+00  0.00000000E+00
  0.00000000E+00  0.00000000E+00  0.00000000E+00
  0.00000000E+00  0.00000000E+00  0.00000000E+00
  0.00000000E+00  0.00000000E+00  0.00000000E+00
  0.00000000E+00  0.00000000E+00  0.00000000E+00
  0.00000000E+00  0.00000000E+00  0.00000000E+00
  0.00000000E+00  0.00000000E+00  0.00000000E+00
  0.00000000E+00  0.00000000E+00  0.00000000E+00
  0.00000000E+00  0.00000000E+00  0.00000000E+00
  0.00000000E+00  0.00000000E+00  0.00000000E+00
  0.00000000E+00  0.00000000E+00  0.00000000E+00
  0.00000000E+00  0.00000000E+00  0.00000000E+00
  0.00000000E+00  0.00000000E+00  0.00000000E+00
  0.00000000E+00  0.00000000E+00  0.00000000E+00
  0.00000000E+00  0.00000000E+00  0.00000000E+00
  0.00000000E+00  0.00000000E+00  0.00000000E+00
  0.00000000E+00  0.00000000E+00  0.00000000E+00
  0.00000000E+00  0.00000000E+00  0.00000000E+00
  0.00000000E+00  0.00000000E+00  0.00000000E+00
  0.00000000E+00  0.00000000E+00  0.00000000E+00
  0.00000000E+00  0.00000000E+00  0.00000000E+00
  0.00000000E+00  0.00000000E+00  0.00000000E+00
  0.00000000E+00  0.00000000E+00  0.00000000E+00
  0.00000000E+00  0.00000000E+00  0.00000000E+00
  0.00000000E+00  0.00000000E+00  0.00000000E+00
  0.00000000E+00  0.00000000E+00  0.00000000E+00
  0.00000000E+00  0.00000000E+00  0.00000000E+00
  0.00000000E+00  0.00000000E+00  0.00000000E+00
  0.00000000E+00  0.00000000E+00  0.00000000E+00
  0.00000000E+00  0.00000000E+00  0.00000000E+00
  0.00000000E+00  0.00000000E+00  0.00000000E+00
  0.00000000E+00  0.00000000E+00  0.00000000E+00
  0.00000000E+00  0.00000000E+00  0.00000000E+00
  0.00000000E+00  0.00000000E+00  0.00000000E+00
  0.00000000E+00  0.00000000E+00  0.00000000E+00
  0.00000000E+00  0.00000000E+00  0.00000000E+00
  0.00000000E+00  0.00000000E+00  0.00000000E+00
  0.00000000E+00  0.00000000E+00  0.00000000E+00
  0.00000000E+00  0.00000000E+00  0.00000000E+00
  0.00000000E+00  0.00000000E+00  0.00000000E+00
  0.00000000E+00  0.00000000E+00  0.00000000E+00
  0.00000000E+00  0.00000000E+00  0.00000000E+00
  0.00000000E+00  0.00000000E+00  0.00000000E+00
  0.00000000E+00  0.00000000E+00  0.00000000E+00
  0.00000000E+00  0.00000000E+00  0.00000000E+00
  0.00000000E+00  0.00000000E+00  0.00000000E+00
  0.00000000E+00  0.00000000E+00  0.00000000E+00
  0.00000000E+00  0.00000000E+00  0.00000000E+00
  0.00000000E+00  0.00000000E+00  0.00000000E+00
  0.00000000E+00  0.00000000E+00  0.00000000E+00
  0.00000000E+00  0.00000000E+00  0.00000000E+00
  0.00000000E+00  0.00000000E+00  0.00000000E+00
  0.00000000E+00  0.00000000E+00  0.00000000E+00
  0.00000000E+00  0.00000000E+00  0.00000000E+00
  0.00000000E+00  0.00000000E+00  0.00000000E+00
  0.00000000E+00  0.00000000E+00  0.00000000E+00
  0.00000000E+00  0.00000000E+00  0.00000000E+00
  0.00000000E+00  0.00000000E+00  0.00000000E+00
