SrTiFeO                                 
   1.00000000000000     
    11.1989999999999998    0.0000000000000000    0.0000000000000000
     0.0000000000000000   11.1989999999999998    0.0000000000000000
     0.0000000000000000    0.0000000000000000   15.9830000000000005
   Sr   Ti   Fe   O 
    32    29     3    94
Direct
  0.0002389959089690  0.2497317198918478  0.1250237996205251
  0.0001025066383612  0.2490507857170488  0.6226671036154967
  0.9994543792374820  0.7501910446321076  0.1261058947199845
  0.0036418000564300  0.7513585184394073  0.6205156772335654
  0.5003184423875343  0.2505547005054708  0.1250181897704986
  0.5001881383553115  0.2418087708708695  0.6220291884225603
  0.5013892882676706  0.7503592048343737  0.1258824127160410
  0.4977261245336942  0.7599508219279485  0.6189213417663566
  0.9999850525942842  0.2492724965124675  0.3767719277816804
  0.0001235356608883  0.2513493271389836  0.8753526032083031
  0.9969223041107336  0.7495153653898480  0.3771183116367298
  0.0077801328982085  0.7499023548140110  0.8763467771889051
  0.5003039257102916  0.2494084829214999  0.3750293837135937
  0.4986390173184791  0.2482807741730981  0.8753927886044250
  0.5018730950345963  0.7490507578242467  0.3761706579703812
  0.4954884721925520  0.7561114816164856  0.8795825319837070
  0.2493197586482038  0.0002723919049494  0.1252217264594277
  0.2483866624698526  0.0002925247528854  0.6229085051704427
  0.2511853819553426  0.4997163924105619  0.1243292355317202
  0.2439741151713509  0.5011251617147482  0.6240833065076008
  0.7505136177298900  0.9990220423297467  0.1252011871005616
  0.7500197286394195  0.0020526526362162  0.6228630429089868
  0.7509731772717496  0.4995275035969025  0.1272004947386311
  0.7600429262149164  0.5003703500741928  0.6188878935795076
  0.2494343350413661  0.9996899981820636  0.3762065255589100
  0.2500310835043736  0.0014892763825207  0.8746554614089659
  0.2495876066431602  0.4993445993813557  0.3753241801990895
  0.2484460524085103  0.5012829895237585  0.8750842724717147
  0.7507955682807078  0.9962084648054012  0.3778603733842166
  0.7485282657995747  0.0056884935425856  0.8754832056179422
  0.7490641670108117  0.5026330911228054  0.3768897386860682
  0.7516531878727860  0.4985260639731011  0.8785238148101320
  0.9995482606377772  0.0000559317213755  0.9991508364668785
  0.9983889577863969  0.9986079972408720  0.4997983226910872
  0.0001905305379744  0.5004751758777169  0.0003020979058970
  0.9993642898611845  0.5011823185143116  0.4990989577123370
  0.4999827453729554  0.0009197453531548  0.0005538016169145
  0.5012714953534975  0.9990225559618164  0.4986788796340557
  0.5015313249362966  0.5019964222144719  0.9995269997009026
  0.2505440604852690  0.2510014991011473  0.9993757368859590
  0.2508610018017085  0.2510925743723460  0.5007346189536915
  0.2506560983748682  0.7499209725932605  0.0008053190487615
  0.2514460249209366  0.7484148300842507  0.4998141194107709
  0.7493401372182830  0.2508831207180233  0.0002856943021724
  0.7481877157413093  0.2511633885960584  0.5000080381214094
  0.7494175320393256  0.7490768605171494  0.0009018811972585
  0.2506627071059073  0.2505989427143994  0.2500706032902439
  0.2519200695625394  0.2513937905037922  0.7479392952459472
  0.2501684480965799  0.7498536019273543  0.2502882503097021
  0.2532802186161505  0.7497769684916555  0.7479521584176708
  0.7497815296662655  0.2500261535683999  0.2504298313043736
  0.7486022525025575  0.2542953989833090  0.7483067137801630
  0.7500226669557620  0.7499950433595355  0.2520649570200406
  0.7634809263096939  0.7581337221759649  0.7509743411561542
  0.9992597477561437  0.9996653724005976  0.2509526529406752
  0.0042051927114495  0.0063946201426387  0.7505675028159291
  0.0001556562425985  0.5000064703659348  0.2501301248587646
  0.0000293936456998  0.4988551598943238  0.7500950816056328
  0.4998594038104285  0.0000314949484077  0.2500429329182506
  0.4990772553318459  0.0004273064492033  0.7500422266930701
  0.4995657503887669  0.4995390085008903  0.2475457572407034
  0.4944199905862110  0.4906165595290606  0.7574149507516510
  0.4994957541241533  0.4993111796659286  0.4900113309873608
  0.7463895109667908  0.7468314923676186  0.5019609648293558
  0.1090148207874062  0.1411552465543278  0.2510684241433040
  0.1073200396391876  0.1423127992828030  0.7531051360590442
  0.1087326459834479  0.6417453678248750  0.2509406588968546
  0.1125031580795400  0.6384725491440684  0.7494343723355160
  0.6081636293154299  0.1415155766786467  0.2492457738631245
  0.6095480403398726  0.1403764918986686  0.7502459768901809
  0.6089085747007073  0.6407821348231767  0.2472988340996502
  0.3914163620560966  0.3577215560956715  0.2486415940179606
  0.3874541025820276  0.3539882956024489  0.7366223451656772
  0.3912817012637139  0.8587385659294440  0.2500550810028012
  0.3893175665729083  0.8624294899668911  0.7504125688432621
  0.8915143432314919  0.3586637676169162  0.2498886539130399
  0.8929592022335779  0.3572809080541505  0.7499745294516058
  0.8911542497475788  0.8587788801057133  0.2515100472698256
  0.8947115094984733  0.8571429252512693  0.7507943625837156
  0.3581049072330069  0.1088240845306163  0.2499525409527761
  0.3584173135005632  0.1076119194587456  0.7495480002213841
  0.3581146149164227  0.6086540709587842  0.2479689300149860
  0.3763385838940546  0.6176196722364937  0.7354748804895804
  0.8582412168992271  0.1090706543440777  0.2509533182693430
  0.8581159972571801  0.1071748766724185  0.7516166062339572
  0.8590992519386924  0.6085719201415044  0.2496539239079377
  0.8538016277579228  0.6057563835496308  0.7517151971492462
  0.1414419827419290  0.3917557270866391  0.2493767082000771
  0.1408977376683197  0.3913109061524927  0.7508142945871011
  0.1411066695308542  0.8913426093563432  0.2512273480535518
  0.1412483250246252  0.8906282210833060  0.7528435974026091
  0.6415327529359179  0.3912200250814695  0.2492512163089351
  0.6407550099941712  0.8914736518646634  0.2502124410373241
  0.6361408807405100  0.8814246069219244  0.7525180067723749
  0.3601574953962963  0.3923332852057596  0.9963656483315684
  0.3597059323236036  0.8907240896341041  0.9980976924184962
  0.3622669150194111  0.8875894513297886  0.5011253765872520
  0.8600115510040335  0.3906593303935682  0.0002483063352614
  0.8628972562943089  0.3866892954819239  0.4990334767290590
  0.8587105860406372  0.8894472510162583  0.9939665884746972
  0.8621530248154742  0.8863364786525941  0.5057342785205700
  0.1402274604716927  0.1103079705844254  0.9994903732109570
  0.1376498184950875  0.1114277347888011  0.4957403208311641
  0.1410823989693156  0.6096676678531576  0.9993921371197054
  0.1375013980724500  0.6119513735258811  0.4998253822034889
  0.6405145178353319  0.1100332752205269  0.9999675733914823
  0.6383804935916828  0.1113784712810634  0.4997471991625530
  0.6426468753549697  0.6100380738111840  0.0094111941132324
  0.1099652270412707  0.3601074479796652  0.9994859830533507
  0.1123923219899819  0.3623723866071011  0.4996256951033263
  0.1102870372543059  0.8595800363903795  0.9987353548660183
  0.1118605515248502  0.8614767414033747  0.4973078613468984
  0.6092749292530728  0.3594592984556740  0.9998148450631384
  0.6094189364973756  0.8601561482125374  0.0000210937159978
  0.6103732840580335  0.8632029945545640  0.4991478985014969
  0.3909314328698621  0.1414088709377676  0.0001417610329874
  0.3881917622022077  0.1377485062549535  0.4997354004082511
  0.3909185523255720  0.6424314142993092  0.0038552666524614
  0.3864718075743685  0.6354141884002503  0.5091436242804105
  0.8895652250474760  0.1405707032997878  0.9982250946556487
  0.8877313620581246  0.1374569680029403  0.4986462213253002
  0.8912984449532089  0.6413886596982673  0.9979493319787890
  0.9977241878604991  0.9987190832101810  0.1243269326797333
  0.0035269343584057  0.0017506629240916  0.6260277299145454
  0.0002623642112623  0.5011471862620814  0.1246026841515154
  0.0005628471884532  0.4992815268669488  0.6255421235173392
  0.4989496435138572  0.9998017828827148  0.1246940650536992
  0.5017926528714919  0.9999669929598652  0.6253294265689022
  0.4974797095242924  0.4963553923271121  0.1251461948759272
  0.9963945806132924  0.9981069279644070  0.3747351114000843
  0.0008497499598489  1.0000087712316936  0.8751151938023503
  0.0000812201868919  0.5002728866244566  0.3746815637295234
  0.0013134508437964  0.5001138892200283  0.8750249650559179
  0.4988492298994752  0.0008853136633218  0.3744733354621541
  0.5003062036800855  0.0024570356594139  0.8753157527222796
  0.5125955267319918  0.5180705297195510  0.8789272017685273
  0.2543259654125127  0.2559661239303208  0.3753564924855448
  0.2537681652393235  0.2515731635927252  0.8740766747571905
  0.2551084163642092  0.7469825475494353  0.3755105561798893
  0.2545825765058395  0.7430036917029167  0.8739137848950198
  0.7460088314552786  0.2527166524089965  0.3753435310944582
  0.7460653622269995  0.2542151203913420  0.8738911836827022
  0.7475042421161621  0.7462167850074356  0.3746739099278065
  0.7340360637754925  0.7356255279043969  0.8720048181740097
  0.2501314252030857  0.2510416999906642  0.1242125028677971
  0.2392559267160652  0.2403244670157501  0.6243809328028731
  0.2479550138606009  0.7525387020068905  0.1250077591300195
  0.2427662891840740  0.7564345770200066  0.6246032940118803
  0.7509899291562206  0.2496907127487144  0.1246870421058785
  0.7547865281225415  0.2440553936622090  0.6249174090649992
  0.7549505147841162  0.7555274548041007  0.1246474831909447
  0.6436959153790367  0.3990449551626506  0.7398227140850426
  0.4971501520110624  0.4986927189164589  0.3719392808015891
  0.6111259391773760  0.3617803301813285  0.5084625844497047
  0.3645435833028979  0.3881987650345908  0.5124752647288494
  0.7349325615121031  0.7381567391817800  0.6333024343157748
  0.8876461246407277  0.6353895628228939  0.5022698944928200
  0.6318012609969296  0.6072800475062576  0.5087352906019639
 
  0.00000000E+00  0.00000000E+00  0.00000000E+00
  0.00000000E+00  0.00000000E+00  0.00000000E+00
  0.00000000E+00  0.00000000E+00  0.00000000E+00
  0.00000000E+00  0.00000000E+00  0.00000000E+00
  0.00000000E+00  0.00000000E+00  0.00000000E+00
  0.00000000E+00  0.00000000E+00  0.00000000E+00
  0.00000000E+00  0.00000000E+00  0.00000000E+00
  0.00000000E+00  0.00000000E+00  0.00000000E+00
  0.00000000E+00  0.00000000E+00  0.00000000E+00
  0.00000000E+00  0.00000000E+00  0.00000000E+00
  0.00000000E+00  0.00000000E+00  0.00000000E+00
  0.00000000E+00  0.00000000E+00  0.00000000E+00
  0.00000000E+00  0.00000000E+00  0.00000000E+00
  0.00000000E+00  0.00000000E+00  0.00000000E+00
  0.00000000E+00  0.00000000E+00  0.00000000E+00
  0.00000000E+00  0.00000000E+00  0.00000000E+00
  0.00000000E+00  0.00000000E+00  0.00000000E+00
  0.00000000E+00  0.00000000E+00  0.00000000E+00
  0.00000000E+00  0.00000000E+00  0.00000000E+00
  0.00000000E+00  0.00000000E+00  0.00000000E+00
  0.00000000E+00  0.00000000E+00  0.00000000E+00
  0.00000000E+00  0.00000000E+00  0.00000000E+00
  0.00000000E+00  0.00000000E+00  0.00000000E+00
  0.00000000E+00  0.00000000E+00  0.00000000E+00
  0.00000000E+00  0.00000000E+00  0.00000000E+00
  0.00000000E+00  0.00000000E+00  0.00000000E+00
  0.00000000E+00  0.00000000E+00  0.00000000E+00
  0.00000000E+00  0.00000000E+00  0.00000000E+00
  0.00000000E+00  0.00000000E+00  0.00000000E+00
  0.00000000E+00  0.00000000E+00  0.00000000E+00
  0.00000000E+00  0.00000000E+00  0.00000000E+00
  0.00000000E+00  0.00000000E+00  0.00000000E+00
  0.00000000E+00  0.00000000E+00  0.00000000E+00
  0.00000000E+00  0.00000000E+00  0.00000000E+00
  0.00000000E+00  0.00000000E+00  0.00000000E+00
  0.00000000E+00  0.00000000E+00  0.00000000E+00
  0.00000000E+00  0.00000000E+00  0.00000000E+00
  0.00000000E+00  0.00000000E+00  0.00000000E+00
  0.00000000E+00  0.00000000E+00  0.00000000E+00
  0.00000000E+00  0.00000000E+00  0.00000000E+00
  0.00000000E+00  0.00000000E+00  0.00000000E+00
  0.00000000E+00  0.00000000E+00  0.00000000E+00
  0.00000000E+00  0.00000000E+00  0.00000000E+00
  0.00000000E+00  0.00000000E+00  0.00000000E+00
  0.00000000E+00  0.00000000E+00  0.00000000E+00
  0.00000000E+00  0.00000000E+00  0.00000000E+00
  0.00000000E+00  0.00000000E+00  0.00000000E+00
  0.00000000E+00  0.00000000E+00  0.00000000E+00
  0.00000000E+00  0.00000000E+00  0.00000000E+00
  0.00000000E+00  0.00000000E+00  0.00000000E+00
  0.00000000E+00  0.00000000E+00  0.00000000E+00
  0.00000000E+00  0.00000000E+00  0.00000000E+00
  0.00000000E+00  0.00000000E+00  0.00000000E+00
  0.00000000E+00  0.00000000E+00  0.00000000E+00
  0.00000000E+00  0.00000000E+00  0.00000000E+00
  0.00000000E+00  0.00000000E+00  0.00000000E+00
  0.00000000E+00  0.00000000E+00  0.00000000E+00
  0.00000000E+00  0.00000000E+00  0.00000000E+00
  0.00000000E+00  0.00000000E+00  0.00000000E+00
  0.00000000E+00  0.00000000E+00  0.00000000E+00
  0.00000000E+00  0.00000000E+00  0.00000000E+00
  0.00000000E+00  0.00000000E+00  0.00000000E+00
  0.00000000E+00  0.00000000E+00  0.00000000E+00
  0.00000000E+00  0.00000000E+00  0.00000000E+00
  0.00000000E+00  0.00000000E+00  0.00000000E+00
  0.00000000E+00  0.00000000E+00  0.00000000E+00
  0.00000000E+00  0.00000000E+00  0.00000000E+00
  0.00000000E+00  0.00000000E+00  0.00000000E+00
  0.00000000E+00  0.00000000E+00  0.00000000E+00
  0.00000000E+00  0.00000000E+00  0.00000000E+00
  0.00000000E+00  0.00000000E+00  0.00000000E+00
  0.00000000E+00  0.00000000E+00  0.00000000E+00
  0.00000000E+00  0.00000000E+00  0.00000000E+00
  0.00000000E+00  0.00000000E+00  0.00000000E+00
  0.00000000E+00  0.00000000E+00  0.00000000E+00
  0.00000000E+00  0.00000000E+00  0.00000000E+00
  0.00000000E+00  0.00000000E+00  0.00000000E+00
  0.00000000E+00  0.00000000E+00  0.00000000E+00
  0.00000000E+00  0.00000000E+00  0.00000000E+00
  0.00000000E+00  0.00000000E+00  0.00000000E+00
  0.00000000E+00  0.00000000E+00  0.00000000E+00
  0.00000000E+00  0.00000000E+00  0.00000000E+00
  0.00000000E+00  0.00000000E+00  0.00000000E+00
  0.00000000E+00  0.00000000E+00  0.00000000E+00
  0.00000000E+00  0.00000000E+00  0.00000000E+00
  0.00000000E+00  0.00000000E+00  0.00000000E+00
  0.00000000E+00  0.00000000E+00  0.00000000E+00
  0.00000000E+00  0.00000000E+00  0.00000000E+00
  0.00000000E+00  0.00000000E+00  0.00000000E+00
  0.00000000E+00  0.00000000E+00  0.00000000E+00
  0.00000000E+00  0.00000000E+00  0.00000000E+00
  0.00000000E+00  0.00000000E+00  0.00000000E+00
  0.00000000E+00  0.00000000E+00  0.00000000E+00
  0.00000000E+00  0.00000000E+00  0.00000000E+00
  0.00000000E+00  0.00000000E+00  0.00000000E+00
  0.00000000E+00  0.00000000E+00  0.00000000E+00
  0.00000000E+00  0.00000000E+00  0.00000000E+00
  0.00000000E+00  0.00000000E+00  0.00000000E+00
  0.00000000E+00  0.00000000E+00  0.00000000E+00
  0.00000000E+00  0.00000000E+00  0.00000000E+00
  0.00000000E+00  0.00000000E+00  0.00000000E+00
  0.00000000E+00  0.00000000E+00  0.00000000E+00
  0.00000000E+00  0.00000000E+00  0.00000000E+00
  0.00000000E+00  0.00000000E+00  0.00000000E+00
  0.00000000E+00  0.00000000E+00  0.00000000E+00
  0.00000000E+00  0.00000000E+00  0.00000000E+00
  0.00000000E+00  0.00000000E+00  0.00000000E+00
  0.00000000E+00  0.00000000E+00  0.00000000E+00
  0.00000000E+00  0.00000000E+00  0.00000000E+00
  0.00000000E+00  0.00000000E+00  0.00000000E+00
  0.00000000E+00  0.00000000E+00  0.00000000E+00
  0.00000000E+00  0.00000000E+00  0.00000000E+00
  0.00000000E+00  0.00000000E+00  0.00000000E+00
  0.00000000E+00  0.00000000E+00  0.00000000E+00
  0.00000000E+00  0.00000000E+00  0.00000000E+00
  0.00000000E+00  0.00000000E+00  0.00000000E+00
  0.00000000E+00  0.00000000E+00  0.00000000E+00
  0.00000000E+00  0.00000000E+00  0.00000000E+00
  0.00000000E+00  0.00000000E+00  0.00000000E+00
  0.00000000E+00  0.00000000E+00  0.00000000E+00
  0.00000000E+00  0.00000000E+00  0.00000000E+00
  0.00000000E+00  0.00000000E+00  0.00000000E+00
  0.00000000E+00  0.00000000E+00  0.00000000E+00
  0.00000000E+00  0.00000000E+00  0.00000000E+00
  0.00000000E+00  0.00000000E+00  0.00000000E+00
  0.00000000E+00  0.00000000E+00  0.00000000E+00
  0.00000000E+00  0.00000000E+00  0.00000000E+00
  0.00000000E+00  0.00000000E+00  0.00000000E+00
  0.00000000E+00  0.00000000E+00  0.00000000E+00
  0.00000000E+00  0.00000000E+00  0.00000000E+00
  0.00000000E+00  0.00000000E+00  0.00000000E+00
  0.00000000E+00  0.00000000E+00  0.00000000E+00
  0.00000000E+00  0.00000000E+00  0.00000000E+00
  0.00000000E+00  0.00000000E+00  0.00000000E+00
  0.00000000E+00  0.00000000E+00  0.00000000E+00
  0.00000000E+00  0.00000000E+00  0.00000000E+00
  0.00000000E+00  0.00000000E+00  0.00000000E+00
  0.00000000E+00  0.00000000E+00  0.00000000E+00
  0.00000000E+00  0.00000000E+00  0.00000000E+00
  0.00000000E+00  0.00000000E+00  0.00000000E+00
  0.00000000E+00  0.00000000E+00  0.00000000E+00
  0.00000000E+00  0.00000000E+00  0.00000000E+00
  0.00000000E+00  0.00000000E+00  0.00000000E+00
  0.00000000E+00  0.00000000E+00  0.00000000E+00
  0.00000000E+00  0.00000000E+00  0.00000000E+00
  0.00000000E+00  0.00000000E+00  0.00000000E+00
  0.00000000E+00  0.00000000E+00  0.00000000E+00
  0.00000000E+00  0.00000000E+00  0.00000000E+00
  0.00000000E+00  0.00000000E+00  0.00000000E+00
  0.00000000E+00  0.00000000E+00  0.00000000E+00
  0.00000000E+00  0.00000000E+00  0.00000000E+00
  0.00000000E+00  0.00000000E+00  0.00000000E+00
  0.00000000E+00  0.00000000E+00  0.00000000E+00
  0.00000000E+00  0.00000000E+00  0.00000000E+00
  0.00000000E+00  0.00000000E+00  0.00000000E+00
  0.00000000E+00  0.00000000E+00  0.00000000E+00
  0.00000000E+00  0.00000000E+00  0.00000000E+00
  0.00000000E+00  0.00000000E+00  0.00000000E+00
