Sr   Ti   Fe   O                        
   1.00000000000000     
    11.1989999999999998    0.0000000000000000    0.0000000000000000
     0.0000000000000000   11.1989999999999998    0.0000000000000000
     0.0000000000000000    0.0000000000000000   15.9830000000000005
   Sr   Ti   Fe   O 
    32    30     2    94
Direct
  0.9990304208728180  0.2499185912531547  0.1235019022938058
  0.0027071397826839  0.2466700676172512  0.6289098562736001
  0.9986576632813887  0.7493605497139493  0.1259799564983448
  0.9942194112269871  0.7531445801237264  0.6241905109661130
  0.5018921481097548  0.2506763831960420  0.1249580283773520
  0.4949205723308381  0.2447145609401601  0.6277115593374889
  0.4997215320064919  0.7493580633401454  0.1238489819395068
  0.5009194810406297  0.7569893847562753  0.6295733250065915
  0.0027071397826839  0.2466700676172512  0.3710901437264008
  0.9990304208728180  0.2499185912531547  0.8764980977061941
  0.9942194112269871  0.7531445801237264  0.3758094890338863
  0.9986576632813887  0.7493605497139493  0.8740200435016554
  0.4949205723308381  0.2447145609401601  0.3722884406625100
  0.5018921481097548  0.2506763831960420  0.8750419716226474
  0.5009194810406297  0.7569893847562753  0.3704266749934097
  0.4997215320064919  0.7493580633401454  0.8761510180604931
  0.2494022784681119 -0.0005189432468910  0.1248398313315663
  0.2492999767208399  0.0004964963017381  0.6269303469831062
  0.2505187001920282  0.4998538241901124  0.1232624679745923
  0.2530459474868810  0.4972916482336159  0.6314838200214832
  0.7501657721525832  0.0010366040934219  0.1256531587778997
  0.7470564952456650  0.9969214400352033  0.6217432573415816
  0.7499362699138042  0.4999908075342562  0.1234597469769966
  0.7510539940334628  0.5033772854327060  0.6344971516378635
  0.2492999767208399  0.0004964963017381  0.3730696530168939
  0.2494022784681119 -0.0005189432468910  0.8751601686684347
  0.2530459474868810  0.4972916482336159  0.3685161799785162
  0.2505187001920282  0.4998538241901124  0.8767375320254069
  0.7470564952456650  0.9969214400352033  0.3782567426584196
  0.7501657721525832  0.0010366040934219  0.8743468412221007
  0.7510539940334628  0.5033772854327060  0.3655028483621360
  0.7499362699138042  0.4999908075342562  0.8765402530230040
  0.9990577911362993  0.9996871005751845  0.0000000000000000
  0.9978930742282167  0.0023994777262076  0.5000000000000000
  0.0006616927001525  0.5005319699199761  0.0000000000000000
  0.0185392143929094  0.5081279977592243  0.5000000000000000
  0.5003540594780712  0.0005818557229856  0.0000000000000000
  0.5014315800860226  0.9986836167135092  0.5000000000000000
  0.4996097177421425  0.5000125625429305  0.0000000000000000
  0.2503674122298920  0.2494199517034191  0.0000000000000000
  0.2479755004072146  0.2438801742416869  0.5000000000000000
  0.2489099746938462  0.7499611241378904  0.0000000000000000
  0.2526695044764594  0.7590000548147987  0.5000000000000000
  0.7500798077771730  0.2490318018115663  0.0000000000000000
  0.7496939574237749  0.7509304783427384  0.0000000000000000
  0.2495868409348012  0.2496753641929241  0.2481994098335309
  0.2495868409348012  0.2496753641929241  0.7518005901664693
  0.2488218634415997  0.7499487142984356  0.2499364052245939
  0.2488218634415997  0.7499487142984356  0.7500635947754055
  0.7496722993666382  0.2513266884564287  0.2527377083861981
  0.7496722993666382  0.2513266884564287  0.7472622916138008
  0.7489740801929602  0.7500911191350578  0.2506287539450427
  0.7489740801929602  0.7500911191350578  0.7493712460549568
  0.9989463664993184  0.9998394310526666  0.2504272259566979
  0.9989463664993184  0.9998394310526666  0.7495727740433022
  1.0000030224275844  0.4990011322774076  0.2493155052887115
  1.0000030224275844  0.4990011322774076  0.7506844947112886
  0.4996533178230024  0.0002835463612865  0.2494656333326131
  0.4996533178230024  0.0002835463612865  0.7505343666673875
  0.4991700667679155  0.5002713003109795  0.2490441575114656
  0.4991700667679155  0.5002713003109795  0.7509558424885348
  0.4898222327591483  0.5062560465708579  0.5000000000000000
  0.7533678889815020  0.2429778673067741  0.5000000000000000
  0.7540648876715633  0.7488908415809796  0.5000000000000000
  0.1100896595815243  0.1397559206160638  0.2478118369706605
  0.1100896595815243  0.1397559206160638  0.7521881630293393
  0.1091322024772988  0.6388079232742985  0.2555271442463262
  0.1091322024772988  0.6388079232742985  0.7444728557536746
  0.6100979734075395  0.1409788058369492  0.2537345472856523
  0.6100979734075395  0.1409788058369492  0.7462654527143473
  0.6090747165333464  0.6389754432296140  0.2473267784354445
  0.6090747165333464  0.6389754432296140  0.7526732215645549
  0.3892821431181354  0.3595790427211800  0.2492026613806514
  0.3892821431181354  0.3595790427211800  0.7507973386193486
  0.3889116271785137  0.8603809149943151  0.2468613563252554
  0.3889116271785137  0.8603809149943151  0.7531386436747444
  0.8900078990080439  0.3606748012375486  0.2458810548441293
  0.8900078990080439  0.3606748012375486  0.7541189451558705
  0.8885993339932690  0.8606921490331654  0.2517164691507407
  0.8885993339932690  0.8606921490331654  0.7482835308492594
  0.3601799915734784  0.1111212555141203  0.2495484049450470
  0.3601799915734784  0.1111212555141203  0.7504515950549512
  0.3586184279377053  0.6100515307235929  0.2476631851440247
  0.3586184279377053  0.6100515307235929  0.7523368148559749
  0.8590932209621059  0.1110075503215370  0.2557427402716700
  0.8590932209621059  0.1110075503215370  0.7442572597283303
  0.8623039316837818  0.6110779563366161  0.2466711108921151
  0.8623039316837818  0.6110779563366161  0.7533288891078849
  0.1404902764456315  0.3902081019866908  0.2485052378629015
  0.1404902764456315  0.3902081019866908  0.7514947621371043
  0.1390251361447785  0.8890597055547867  0.2483574784045936
  0.1390251361447785  0.8890597055547867  0.7516425215954068
  0.6385247938839406  0.3907512965811297  0.2458675300984690
  0.6385247938839406  0.3907512965811297  0.7541324699015385
  0.6391115591051539  0.8905468403855231  0.2506848573616156
  0.6391115591051539  0.8905468403855231  0.7493151426383834
  0.3590680361015133  0.3901389896693176  0.0000000000000000
  0.3588791670384540  0.8906890059747423  0.0000000000000000
  0.3502236740216374  0.8980740324821839  0.5000000000000000
  0.8603082378790976  0.3902238465096290  0.0000000000000000
  0.8585464727467562  0.8913836441990870  0.0000000000000000
  0.8630761664685530  0.8991201647196488  0.5000000000000000
  0.1402851123988436  0.1086721280659919  0.0000000000000000
  0.1490457859205340  0.1033362232188519  0.5000000000000000
  0.1408635860874504  0.6090627665257793  0.0000000000000000
  0.1565534082539916  0.6006168606115228  0.5000000000000000
  0.6410476724780894  0.1088225724185963  0.0000000000000000
  0.6299665958336376  0.1118340813052960  0.5000000000000000
  0.6399669987335306  0.6097234386994286  0.0000000000000000
  0.1096479084097417  0.3592001156107436  0.0000000000000000
  0.1017312346206117  0.3516288367264570  0.5000000000000000
  0.1081511919802137  0.8597088376187317  0.0000000000000000
  0.1070501062663411  0.8497767295169285  0.5000000000000000
  0.6102113028224214  0.3597231924047980  0.0000000000000000
  0.6081481192918479  0.8595871136603215  0.0000000000000000
  0.5997698051881718  0.8597924537122065  0.5000000000000000
  0.3910910488858538  0.1408488043058431  0.0000000000000000
  0.3892536031405604  0.1438141827550880  0.5000000000000000
  0.3897350272651747  0.6412120728415649  0.0000000000000000
  0.8910656981001988  0.1409247204730206  0.0000000000000000
  0.9062039483951643  0.1472871220345554  0.5000000000000000
  0.8904672631851392  0.6404303269212468  0.0000000000000000
  0.9963309697723047  0.0008448444814813  0.1254373635660341
  0.0064183050149508  0.9986755896634972  0.6258319095735420
  0.0030784692004612  0.5016827861103323  0.1247974971742606
  0.9940144024991850  0.4871904871506704  0.6229522201700712
  0.5013640364626305  0.0024950040950740  0.1249896432884056
  0.4947352933835571  0.9988011328148209  0.6265665560343228
  0.4974463142927903  0.5000019841139461  0.1238936704471374
  0.4947035554192755  0.5003615469870787  0.6262967132767827
  0.0064183050149508  0.9986755896634972  0.3741680904264582
  0.9963309697723047  0.0008448444814813  0.8745626364339663
  0.9940144024991850  0.4871904871506704  0.3770477798299284
  0.0030784692004612  0.5016827861103323  0.8752025028257394
  0.4947352933835571  0.9988011328148209  0.3734334439656775
  0.5013640364626305  0.0024950040950740  0.8750103567115942
  0.4974463142927903  0.5000019841139461  0.8761063295528624
  0.2489999374964244  0.2514491223723682  0.3741783529520581
  0.2501283858216662  0.2493089404781892  0.8756943447983303
  0.2541163613288333  0.7500435522012446  0.3751883225601390
  0.2462564739377303  0.7483841676757212  0.8750816674601449
  0.7498231102717869  0.2465016454215768  0.8746474254672196
  0.7494637069172388  0.7515238886619666  0.8755677471299530
  0.2501283858216662  0.2493089404781892  0.1243056552016697
  0.2489999374964244  0.2514491223723682  0.6258216470479425
  0.2462564739377303  0.7483841676757212  0.1249183325398545
  0.2541163613288333  0.7500435522012446  0.6248116774398610
  0.7498231102717869  0.2465016454215768  0.1253525745327802
  0.7498925623659981  0.2699276900309853  0.6229377823103835
  0.7494637069172388  0.7515238886619666  0.1244322528700474
  0.7447838100708061  0.7414080273954871  0.6271679469760068
  0.7498925623659981  0.2699276900309853  0.3770622176896153
  0.4099517465212276  0.6553183752558747  0.5000000000000000
  0.4947035554192755  0.5003615469870787  0.3737032867232159
  0.3681389406596505  0.3861852599925388  0.5000000000000000
  0.8961017861565159  0.6243283079115221  0.5000000000000000
  0.7447838100708061  0.7414080273954871  0.3728320530239932
  0.6554813598499929  0.4907315792366801  0.5000000000000000
 
  0.00000000E+00  0.00000000E+00  0.00000000E+00
  0.00000000E+00  0.00000000E+00  0.00000000E+00
  0.00000000E+00  0.00000000E+00  0.00000000E+00
  0.00000000E+00  0.00000000E+00  0.00000000E+00
  0.00000000E+00  0.00000000E+00  0.00000000E+00
  0.00000000E+00  0.00000000E+00  0.00000000E+00
  0.00000000E+00  0.00000000E+00  0.00000000E+00
  0.00000000E+00  0.00000000E+00  0.00000000E+00
  0.00000000E+00  0.00000000E+00  0.00000000E+00
  0.00000000E+00  0.00000000E+00  0.00000000E+00
  0.00000000E+00  0.00000000E+00  0.00000000E+00
  0.00000000E+00  0.00000000E+00  0.00000000E+00
  0.00000000E+00  0.00000000E+00  0.00000000E+00
  0.00000000E+00  0.00000000E+00  0.00000000E+00
  0.00000000E+00  0.00000000E+00  0.00000000E+00
  0.00000000E+00  0.00000000E+00  0.00000000E+00
  0.00000000E+00  0.00000000E+00  0.00000000E+00
  0.00000000E+00  0.00000000E+00  0.00000000E+00
  0.00000000E+00  0.00000000E+00  0.00000000E+00
  0.00000000E+00  0.00000000E+00  0.00000000E+00
  0.00000000E+00  0.00000000E+00  0.00000000E+00
  0.00000000E+00  0.00000000E+00  0.00000000E+00
  0.00000000E+00  0.00000000E+00  0.00000000E+00
  0.00000000E+00  0.00000000E+00  0.00000000E+00
  0.00000000E+00  0.00000000E+00  0.00000000E+00
  0.00000000E+00  0.00000000E+00  0.00000000E+00
  0.00000000E+00  0.00000000E+00  0.00000000E+00
  0.00000000E+00  0.00000000E+00  0.00000000E+00
  0.00000000E+00  0.00000000E+00  0.00000000E+00
  0.00000000E+00  0.00000000E+00  0.00000000E+00
  0.00000000E+00  0.00000000E+00  0.00000000E+00
  0.00000000E+00  0.00000000E+00  0.00000000E+00
  0.00000000E+00  0.00000000E+00  0.00000000E+00
  0.00000000E+00  0.00000000E+00  0.00000000E+00
  0.00000000E+00  0.00000000E+00  0.00000000E+00
  0.00000000E+00  0.00000000E+00  0.00000000E+00
  0.00000000E+00  0.00000000E+00  0.00000000E+00
  0.00000000E+00  0.00000000E+00  0.00000000E+00
  0.00000000E+00  0.00000000E+00  0.00000000E+00
  0.00000000E+00  0.00000000E+00  0.00000000E+00
  0.00000000E+00  0.00000000E+00  0.00000000E+00
  0.00000000E+00  0.00000000E+00  0.00000000E+00
  0.00000000E+00  0.00000000E+00  0.00000000E+00
  0.00000000E+00  0.00000000E+00  0.00000000E+00
  0.00000000E+00  0.00000000E+00  0.00000000E+00
  0.00000000E+00  0.00000000E+00  0.00000000E+00
  0.00000000E+00  0.00000000E+00  0.00000000E+00
  0.00000000E+00  0.00000000E+00  0.00000000E+00
  0.00000000E+00  0.00000000E+00  0.00000000E+00
  0.00000000E+00  0.00000000E+00  0.00000000E+00
  0.00000000E+00  0.00000000E+00  0.00000000E+00
  0.00000000E+00  0.00000000E+00  0.00000000E+00
  0.00000000E+00  0.00000000E+00  0.00000000E+00
  0.00000000E+00  0.00000000E+00  0.00000000E+00
  0.00000000E+00  0.00000000E+00  0.00000000E+00
  0.00000000E+00  0.00000000E+00  0.00000000E+00
  0.00000000E+00  0.00000000E+00  0.00000000E+00
  0.00000000E+00  0.00000000E+00  0.00000000E+00
  0.00000000E+00  0.00000000E+00  0.00000000E+00
  0.00000000E+00  0.00000000E+00  0.00000000E+00
  0.00000000E+00  0.00000000E+00  0.00000000E+00
  0.00000000E+00  0.00000000E+00  0.00000000E+00
  0.00000000E+00  0.00000000E+00  0.00000000E+00
  0.00000000E+00  0.00000000E+00  0.00000000E+00
  0.00000000E+00  0.00000000E+00  0.00000000E+00
  0.00000000E+00  0.00000000E+00  0.00000000E+00
  0.00000000E+00  0.00000000E+00  0.00000000E+00
  0.00000000E+00  0.00000000E+00  0.00000000E+00
  0.00000000E+00  0.00000000E+00  0.00000000E+00
  0.00000000E+00  0.00000000E+00  0.00000000E+00
  0.00000000E+00  0.00000000E+00  0.00000000E+00
  0.00000000E+00  0.00000000E+00  0.00000000E+00
  0.00000000E+00  0.00000000E+00  0.00000000E+00
  0.00000000E+00  0.00000000E+00  0.00000000E+00
  0.00000000E+00  0.00000000E+00  0.00000000E+00
  0.00000000E+00  0.00000000E+00  0.00000000E+00
  0.00000000E+00  0.00000000E+00  0.00000000E+00
  0.00000000E+00  0.00000000E+00  0.00000000E+00
  0.00000000E+00  0.00000000E+00  0.00000000E+00
  0.00000000E+00  0.00000000E+00  0.00000000E+00
  0.00000000E+00  0.00000000E+00  0.00000000E+00
  0.00000000E+00  0.00000000E+00  0.00000000E+00
  0.00000000E+00  0.00000000E+00  0.00000000E+00
  0.00000000E+00  0.00000000E+00  0.00000000E+00
  0.00000000E+00  0.00000000E+00  0.00000000E+00
  0.00000000E+00  0.00000000E+00  0.00000000E+00
  0.00000000E+00  0.00000000E+00  0.00000000E+00
  0.00000000E+00  0.00000000E+00  0.00000000E+00
  0.00000000E+00  0.00000000E+00  0.00000000E+00
  0.00000000E+00  0.00000000E+00  0.00000000E+00
  0.00000000E+00  0.00000000E+00  0.00000000E+00
  0.00000000E+00  0.00000000E+00  0.00000000E+00
  0.00000000E+00  0.00000000E+00  0.00000000E+00
  0.00000000E+00  0.00000000E+00  0.00000000E+00
  0.00000000E+00  0.00000000E+00  0.00000000E+00
  0.00000000E+00  0.00000000E+00  0.00000000E+00
  0.00000000E+00  0.00000000E+00  0.00000000E+00
  0.00000000E+00  0.00000000E+00  0.00000000E+00
  0.00000000E+00  0.00000000E+00  0.00000000E+00
  0.00000000E+00  0.00000000E+00  0.00000000E+00
  0.00000000E+00  0.00000000E+00  0.00000000E+00
  0.00000000E+00  0.00000000E+00  0.00000000E+00
  0.00000000E+00  0.00000000E+00  0.00000000E+00
  0.00000000E+00  0.00000000E+00  0.00000000E+00
  0.00000000E+00  0.00000000E+00  0.00000000E+00
  0.00000000E+00  0.00000000E+00  0.00000000E+00
  0.00000000E+00  0.00000000E+00  0.00000000E+00
  0.00000000E+00  0.00000000E+00  0.00000000E+00
  0.00000000E+00  0.00000000E+00  0.00000000E+00
  0.00000000E+00  0.00000000E+00  0.00000000E+00
  0.00000000E+00  0.00000000E+00  0.00000000E+00
  0.00000000E+00  0.00000000E+00  0.00000000E+00
  0.00000000E+00  0.00000000E+00  0.00000000E+00
  0.00000000E+00  0.00000000E+00  0.00000000E+00
  0.00000000E+00  0.00000000E+00  0.00000000E+00
  0.00000000E+00  0.00000000E+00  0.00000000E+00
  0.00000000E+00  0.00000000E+00  0.00000000E+00
  0.00000000E+00  0.00000000E+00  0.00000000E+00
  0.00000000E+00  0.00000000E+00  0.00000000E+00
  0.00000000E+00  0.00000000E+00  0.00000000E+00
  0.00000000E+00  0.00000000E+00  0.00000000E+00
  0.00000000E+00  0.00000000E+00  0.00000000E+00
  0.00000000E+00  0.00000000E+00  0.00000000E+00
  0.00000000E+00  0.00000000E+00  0.00000000E+00
  0.00000000E+00  0.00000000E+00  0.00000000E+00
  0.00000000E+00  0.00000000E+00  0.00000000E+00
  0.00000000E+00  0.00000000E+00  0.00000000E+00
  0.00000000E+00  0.00000000E+00  0.00000000E+00
  0.00000000E+00  0.00000000E+00  0.00000000E+00
  0.00000000E+00  0.00000000E+00  0.00000000E+00
  0.00000000E+00  0.00000000E+00  0.00000000E+00
  0.00000000E+00  0.00000000E+00  0.00000000E+00
  0.00000000E+00  0.00000000E+00  0.00000000E+00
  0.00000000E+00  0.00000000E+00  0.00000000E+00
  0.00000000E+00  0.00000000E+00  0.00000000E+00
  0.00000000E+00  0.00000000E+00  0.00000000E+00
  0.00000000E+00  0.00000000E+00  0.00000000E+00
  0.00000000E+00  0.00000000E+00  0.00000000E+00
  0.00000000E+00  0.00000000E+00  0.00000000E+00
  0.00000000E+00  0.00000000E+00  0.00000000E+00
  0.00000000E+00  0.00000000E+00  0.00000000E+00
  0.00000000E+00  0.00000000E+00  0.00000000E+00
  0.00000000E+00  0.00000000E+00  0.00000000E+00
  0.00000000E+00  0.00000000E+00  0.00000000E+00
  0.00000000E+00  0.00000000E+00  0.00000000E+00
  0.00000000E+00  0.00000000E+00  0.00000000E+00
  0.00000000E+00  0.00000000E+00  0.00000000E+00
  0.00000000E+00  0.00000000E+00  0.00000000E+00
  0.00000000E+00  0.00000000E+00  0.00000000E+00
  0.00000000E+00  0.00000000E+00  0.00000000E+00
  0.00000000E+00  0.00000000E+00  0.00000000E+00
  0.00000000E+00  0.00000000E+00  0.00000000E+00
  0.00000000E+00  0.00000000E+00  0.00000000E+00
  0.00000000E+00  0.00000000E+00  0.00000000E+00
  0.00000000E+00  0.00000000E+00  0.00000000E+00
  0.00000000E+00  0.00000000E+00  0.00000000E+00
  0.00000000E+00  0.00000000E+00  0.00000000E+00
  0.00000000E+00  0.00000000E+00  0.00000000E+00
