SrTiFeO                                 
   1.00000000000000     
    11.1989999999999998    0.0000000000000000    0.0000000000000000
     0.0000000000000000   11.1989999999999998    0.0000000000000000
     0.0000000000000000    0.0000000000000000   15.9830000000000005
   Sr   Ti   Fe   O 
    32    30     2    94
Direct
  0.0004610680600717  0.2492348510783764  0.1233656990253790
  0.0004250111745852  0.2447038275781870  0.6293383822588547
  0.9986764095301519  0.7493630139466639  0.1257924957794923
  0.9959457411882833  0.7527085672159065  0.6245185141285856
  0.5013235904698481  0.2506369860533361  0.1257924957794923
  0.5040542588117167  0.2472914327840935  0.6245185141285856
  0.4995389319399283  0.7507651489216236  0.1233656990253790
  0.4995749888254148  0.7552961724218129  0.6293383822588547
  0.0004250111745852  0.2447038275781870  0.3706616177411452
  0.0004610680600717  0.2492348510783764  0.8766343009746210
  0.9959457411882833  0.7527085672159065  0.3754814858714144
  0.9986764095301519  0.7493630139466639  0.8742075042205077
  0.5040542588117167  0.2472914327840935  0.3754814858714144
  0.5013235904698481  0.2506369860533361  0.8742075042205077
  0.4995749888254148  0.7552961724218129  0.3706616177411452
  0.4995389319399283  0.7507651489216236  0.8766343009746210
  0.2500000000000000  0.0000000000000000  0.1250126551487984
  0.2500000000000000  0.0000000000000000  0.6275274901172651
  0.2500000000000000  0.5000000000000000  0.1232818083403236
  0.2500000000000000  0.5000000000000000  0.6313094567524116
  0.7500000000000000  0.0000000000000000  0.1252853092405055
  0.7500000000000000  0.0000000000000000  0.6218100918149686
  0.7500000000000000  0.5000000000000000  0.1242761438756949
  0.7500000000000000  0.5000000000000000  0.6300615119537163
  0.2500000000000000  0.0000000000000000  0.3724725098827349
  0.2500000000000000  0.0000000000000000  0.8749873448512016
  0.2500000000000000  0.5000000000000000  0.3686905432475885
  0.2500000000000000  0.5000000000000000  0.8767181916596763
  0.7500000000000000  0.0000000000000000  0.3781899081850314
  0.7500000000000000  0.0000000000000000  0.8747146907594945
  0.7500000000000000  0.5000000000000000  0.3699384880462838
  0.7500000000000000  0.5000000000000000  0.8757238561243051
  0.9993881955089565  0.9992279534534082 -0.0000000000000000
  0.9972100575413729  0.0019605916787724  0.5000000000000000
  0.0004092084823325  0.5004623180862890 -0.0000000000000000
  0.0133618172320869  0.5024962258255159  0.5000000000000000
  0.5006118044910435  0.0007720465465919 -0.0000000000000000
  0.5027899424586271  0.9980394083212276  0.5000000000000000
  0.4995907915176675  0.4995376819137109 -0.0000000000000000
  0.2511699964296997  0.2501412441683632 -0.0000000000000000
  0.2464834981859267  0.2414572467328350  0.5000000000000000
  0.2488300035703002  0.7498587558316369 -0.0000000000000000
  0.2535165018140733  0.7585427532671650  0.5000000000000000
  0.7498238626909473  0.2493297187885668 -0.0000000000000000
  0.7501761373090527  0.7506702812114333 -0.0000000000000000
  0.2508735031170441  0.2501716848424800  0.2498570825370537
  0.2508735031170441  0.2501716848424800  0.7501429174629464
  0.2491264968829559  0.7498283151575201  0.2498570825370537
  0.2491264968829559  0.7498283151575201  0.7501429174629464
  0.7510598297657254  0.2506499165435322  0.2514252326933890
  0.7510598297657254  0.2506499165435322  0.7485747673066110
  0.7489401702342746  0.7493500834564677  0.2514252326933890
  0.7489401702342746  0.7493500834564677  0.7485747673066110
  0.9996411520559736  0.9992534116496600  0.2500187389060083
  0.9996411520559736  0.9992534116496600  0.7499812610939917
  0.9996770989812065  0.4987225452867974  0.2492453784757528
  0.9996770989812065  0.4987225452867974  0.7507546215242472
  0.5003588479440264  0.0007465883503401  0.2500187389060083
  0.5003588479440264  0.0007465883503401  0.7499812610939917
  0.5003229010187935  0.5012774547132026  0.2492453784757528
  0.5003229010187935  0.5012774547132026  0.7507546215242472
  0.4866381827679131  0.4975037741744841  0.5000000000000000
  0.7469702795637110  0.2503176083430279  0.5000000000000000
  0.7530297204362890  0.7496823916569720  0.5000000000000000
  0.1110413546351847  0.1396858541167108  0.2474479363865384
  0.1110413546351847  0.1396858541167108  0.7525520636134616
  0.1085865040164979  0.6391952748963827  0.2555868280593039
  0.1085865040164979  0.6391952748963827  0.7444131719406960
  0.6102338343420423  0.1412349706593552  0.2532412624439842
  0.6102338343420423  0.1412349706593552  0.7467587375560157
  0.6086443666378935  0.6402886213221843  0.2443617345138321
  0.6086443666378935  0.6402886213221843  0.7556382654861680
  0.3914134959835021  0.3608047251036173  0.2555868280593039
  0.3914134959835021  0.3608047251036173  0.7444131719406960
  0.3889586453648153  0.8603141458832892  0.2474479363865384
  0.3889586453648153  0.8603141458832892  0.7525520636134616
  0.8913556333621065  0.3597113786778156  0.2443617345138321
  0.8913556333621065  0.3597113786778156  0.7556382654861680
  0.8897661656579577  0.8587650293406448  0.2532412624439842
  0.8897661656579577  0.8587650293406448  0.7467587375560157
  0.3602937126544455  0.1111028616034093  0.2491104317672400
  0.3602937126544455  0.1111028616034093  0.7508895682327600
  0.3584865405476866  0.6093607814375516  0.2484761901759510
  0.3584865405476866  0.6093607814375516  0.7515238098240490
  0.8599827301382527  0.1091946473764474  0.2516317423128622
  0.8599827301382527  0.1091946473764474  0.7483682576871379
  0.8604731614915373  0.6087094199137177  0.2481644516954304
  0.8604731614915373  0.6087094199137177  0.7518355483045766
  0.1415134594523134  0.3906392185624485  0.2484761901759510
  0.1415134594523134  0.3906392185624485  0.7515238098240490
  0.1397062873455544  0.8888971383965907  0.2491104317672400
  0.1397062873455544  0.8888971383965907  0.7508895682327600
  0.6395268385084627  0.3912905800862823  0.2481644516954304
  0.6395268385084627  0.3912905800862823  0.7518355483045766
  0.6400172698617473  0.8908053526235525  0.2516317423128622
  0.6400172698617473  0.8908053526235525  0.7483682576871379
  0.3589483920421330  0.3909519596848641 -0.0000000000000000
  0.3592005327806503  0.8903505170894649 -0.0000000000000000
  0.3501305005549702  0.8985314726351391  0.5000000000000000
  0.8604606600167708  0.3902636520777616 -0.0000000000000000
  0.8590866278219950  0.8913521050524605 -0.0000000000000000
  0.8652547779111750  0.8937242290475528  0.5000000000000000
  0.1407994672193497  0.1096494829105351 -0.0000000000000000
  0.1498694994450298  0.1014685273648608  0.5000000000000000
  0.1410516079578670  0.6090480403151359 -0.0000000000000000
  0.1433767254113009  0.6054982159200356  0.5000000000000000
  0.6409133721780050  0.1086478949475394 -0.0000000000000000
  0.6347452220888250  0.1062757709524472  0.5000000000000000
  0.6395393399832292  0.6097363479222383 -0.0000000000000000
  0.1099360300640896  0.3591844505022977 -0.0000000000000000
  0.0957611936485330  0.3488560941167700  0.5000000000000000
  0.1087226631604259  0.8591232928222547 -0.0000000000000000
  0.1074622989070923  0.8507771595835013  0.5000000000000000
  0.6095840418553489  0.3597311091348406 -0.0000000000000000
  0.6088174232249459  0.8596528029897320 -0.0000000000000000
  0.5978543713367975  0.8571013770632548  0.5000000000000000
  0.3912773368395741  0.1408767071777453 -0.0000000000000000
  0.3925377010929077  0.1492228404164986  0.5000000000000000
  0.3900639699359104  0.6408155494977023 -0.0000000000000000
  0.8911825767750541  0.1403471970102680 -0.0000000000000000
  0.9021456286632025  0.1428986229367452  0.5000000000000000
  0.8904159581446511  0.6402688908651595 -0.0000000000000000
  0.9984582995283453  0.9984872421116280  0.1251243569651382
  0.0053214382579392  0.9998338416274097  0.6261923643727456
  0.0032687468366483  0.5025370013180522  0.1247028443320870
  0.9948617011296500  0.4871712479080541  0.6237931938238350
  0.5015417004716547  0.0015127578883721  0.1251243569651382
  0.4946785617420608  0.0001661583725903  0.6261923643727456
  0.4967312531633516  0.4974629986819478  0.1247028443320870
  0.5051382988703500  0.5128287520919459  0.6237931938238350
  0.0053214382579392  0.9998338416274097  0.3738076356272543
  0.9984582995283453  0.9984872421116280  0.8748756430348618
  0.9948617011296500  0.4871712479080541  0.3762068061761650
  0.0032687468366483  0.5025370013180522  0.8752971556679130
  0.4946785617420608  0.0001661583725903  0.3738076356272543
  0.5015417004716547  0.0015127578883721  0.8748756430348618
  0.4967312531633516  0.4974629986819478  0.8752971556679130
  0.2470312290027942  0.2507292814743046  0.3752047144699571
  0.2533438847673173  0.2519189180870586  0.8749024985700821
  0.2529687709972059  0.7492707185256954  0.3752047144699571
  0.2466561152326827  0.7480810819129413  0.8749024985700821
  0.7485868016049881  0.2476452020838997  0.8754025218178360
  0.7514131983950119  0.7523547979161003  0.8754025218178360
  0.2533438847673173  0.2519189180870586  0.1250975014299180
  0.2470312290027942  0.2507292814743046  0.6247952855300429
  0.2466561152326827  0.7480810819129413  0.1250975014299180
  0.2529687709972059  0.7492707185256954  0.6247952855300429
  0.7485868016049881  0.2476452020838997  0.1245974781821641
  0.7572726639011281  0.2625258718666482  0.6262054678725151
  0.7514131983950119  0.7523547979161003  0.1245974781821641
  0.7427273360988719  0.7374741281333518  0.6262054678725151
  0.7572726639011281  0.2625258718666482  0.3737945321274849
  0.4042388063514670  0.6511439058832299  0.5000000000000000
  0.5051382988703500  0.5128287520919459  0.3762068061761650
  0.3566232745886990  0.3945017840799644  0.5000000000000000
  0.8687602035554736  0.5956415531943976  0.5000000000000000
  0.7427273360988719  0.7374741281333518  0.3737945321274849
  0.6312397964445264  0.4043584468056024  0.5000000000000000
 
  0.00000000E+00  0.00000000E+00  0.00000000E+00
  0.00000000E+00  0.00000000E+00  0.00000000E+00
  0.00000000E+00  0.00000000E+00  0.00000000E+00
  0.00000000E+00  0.00000000E+00  0.00000000E+00
  0.00000000E+00  0.00000000E+00  0.00000000E+00
  0.00000000E+00  0.00000000E+00  0.00000000E+00
  0.00000000E+00  0.00000000E+00  0.00000000E+00
  0.00000000E+00  0.00000000E+00  0.00000000E+00
  0.00000000E+00  0.00000000E+00  0.00000000E+00
  0.00000000E+00  0.00000000E+00  0.00000000E+00
  0.00000000E+00  0.00000000E+00  0.00000000E+00
  0.00000000E+00  0.00000000E+00  0.00000000E+00
  0.00000000E+00  0.00000000E+00  0.00000000E+00
  0.00000000E+00  0.00000000E+00  0.00000000E+00
  0.00000000E+00  0.00000000E+00  0.00000000E+00
  0.00000000E+00  0.00000000E+00  0.00000000E+00
  0.00000000E+00  0.00000000E+00  0.00000000E+00
  0.00000000E+00  0.00000000E+00  0.00000000E+00
  0.00000000E+00  0.00000000E+00  0.00000000E+00
  0.00000000E+00  0.00000000E+00  0.00000000E+00
  0.00000000E+00  0.00000000E+00  0.00000000E+00
  0.00000000E+00  0.00000000E+00  0.00000000E+00
  0.00000000E+00  0.00000000E+00  0.00000000E+00
  0.00000000E+00  0.00000000E+00  0.00000000E+00
  0.00000000E+00  0.00000000E+00  0.00000000E+00
  0.00000000E+00  0.00000000E+00  0.00000000E+00
  0.00000000E+00  0.00000000E+00  0.00000000E+00
  0.00000000E+00  0.00000000E+00  0.00000000E+00
  0.00000000E+00  0.00000000E+00  0.00000000E+00
  0.00000000E+00  0.00000000E+00  0.00000000E+00
  0.00000000E+00  0.00000000E+00  0.00000000E+00
  0.00000000E+00  0.00000000E+00  0.00000000E+00
  0.00000000E+00  0.00000000E+00  0.00000000E+00
  0.00000000E+00  0.00000000E+00  0.00000000E+00
  0.00000000E+00  0.00000000E+00  0.00000000E+00
  0.00000000E+00  0.00000000E+00  0.00000000E+00
  0.00000000E+00  0.00000000E+00  0.00000000E+00
  0.00000000E+00  0.00000000E+00  0.00000000E+00
  0.00000000E+00  0.00000000E+00  0.00000000E+00
  0.00000000E+00  0.00000000E+00  0.00000000E+00
  0.00000000E+00  0.00000000E+00  0.00000000E+00
  0.00000000E+00  0.00000000E+00  0.00000000E+00
  0.00000000E+00  0.00000000E+00  0.00000000E+00
  0.00000000E+00  0.00000000E+00  0.00000000E+00
  0.00000000E+00  0.00000000E+00  0.00000000E+00
  0.00000000E+00  0.00000000E+00  0.00000000E+00
  0.00000000E+00  0.00000000E+00  0.00000000E+00
  0.00000000E+00  0.00000000E+00  0.00000000E+00
  0.00000000E+00  0.00000000E+00  0.00000000E+00
  0.00000000E+00  0.00000000E+00  0.00000000E+00
  0.00000000E+00  0.00000000E+00  0.00000000E+00
  0.00000000E+00  0.00000000E+00  0.00000000E+00
  0.00000000E+00  0.00000000E+00  0.00000000E+00
  0.00000000E+00  0.00000000E+00  0.00000000E+00
  0.00000000E+00  0.00000000E+00  0.00000000E+00
  0.00000000E+00  0.00000000E+00  0.00000000E+00
  0.00000000E+00  0.00000000E+00  0.00000000E+00
  0.00000000E+00  0.00000000E+00  0.00000000E+00
  0.00000000E+00  0.00000000E+00  0.00000000E+00
  0.00000000E+00  0.00000000E+00  0.00000000E+00
  0.00000000E+00  0.00000000E+00  0.00000000E+00
  0.00000000E+00  0.00000000E+00  0.00000000E+00
  0.00000000E+00  0.00000000E+00  0.00000000E+00
  0.00000000E+00  0.00000000E+00  0.00000000E+00
  0.00000000E+00  0.00000000E+00  0.00000000E+00
  0.00000000E+00  0.00000000E+00  0.00000000E+00
  0.00000000E+00  0.00000000E+00  0.00000000E+00
  0.00000000E+00  0.00000000E+00  0.00000000E+00
  0.00000000E+00  0.00000000E+00  0.00000000E+00
  0.00000000E+00  0.00000000E+00  0.00000000E+00
  0.00000000E+00  0.00000000E+00  0.00000000E+00
  0.00000000E+00  0.00000000E+00  0.00000000E+00
  0.00000000E+00  0.00000000E+00  0.00000000E+00
  0.00000000E+00  0.00000000E+00  0.00000000E+00
  0.00000000E+00  0.00000000E+00  0.00000000E+00
  0.00000000E+00  0.00000000E+00  0.00000000E+00
  0.00000000E+00  0.00000000E+00  0.00000000E+00
  0.00000000E+00  0.00000000E+00  0.00000000E+00
  0.00000000E+00  0.00000000E+00  0.00000000E+00
  0.00000000E+00  0.00000000E+00  0.00000000E+00
  0.00000000E+00  0.00000000E+00  0.00000000E+00
  0.00000000E+00  0.00000000E+00  0.00000000E+00
  0.00000000E+00  0.00000000E+00  0.00000000E+00
  0.00000000E+00  0.00000000E+00  0.00000000E+00
  0.00000000E+00  0.00000000E+00  0.00000000E+00
  0.00000000E+00  0.00000000E+00  0.00000000E+00
  0.00000000E+00  0.00000000E+00  0.00000000E+00
  0.00000000E+00  0.00000000E+00  0.00000000E+00
  0.00000000E+00  0.00000000E+00  0.00000000E+00
  0.00000000E+00  0.00000000E+00  0.00000000E+00
  0.00000000E+00  0.00000000E+00  0.00000000E+00
  0.00000000E+00  0.00000000E+00  0.00000000E+00
  0.00000000E+00  0.00000000E+00  0.00000000E+00
  0.00000000E+00  0.00000000E+00  0.00000000E+00
  0.00000000E+00  0.00000000E+00  0.00000000E+00
  0.00000000E+00  0.00000000E+00  0.00000000E+00
  0.00000000E+00  0.00000000E+00  0.00000000E+00
  0.00000000E+00  0.00000000E+00  0.00000000E+00
  0.00000000E+00  0.00000000E+00  0.00000000E+00
  0.00000000E+00  0.00000000E+00  0.00000000E+00
  0.00000000E+00  0.00000000E+00  0.00000000E+00
  0.00000000E+00  0.00000000E+00  0.00000000E+00
  0.00000000E+00  0.00000000E+00  0.00000000E+00
  0.00000000E+00  0.00000000E+00  0.00000000E+00
  0.00000000E+00  0.00000000E+00  0.00000000E+00
  0.00000000E+00  0.00000000E+00  0.00000000E+00
  0.00000000E+00  0.00000000E+00  0.00000000E+00
  0.00000000E+00  0.00000000E+00  0.00000000E+00
  0.00000000E+00  0.00000000E+00  0.00000000E+00
  0.00000000E+00  0.00000000E+00  0.00000000E+00
  0.00000000E+00  0.00000000E+00  0.00000000E+00
  0.00000000E+00  0.00000000E+00  0.00000000E+00
  0.00000000E+00  0.00000000E+00  0.00000000E+00
  0.00000000E+00  0.00000000E+00  0.00000000E+00
  0.00000000E+00  0.00000000E+00  0.00000000E+00
  0.00000000E+00  0.00000000E+00  0.00000000E+00
  0.00000000E+00  0.00000000E+00  0.00000000E+00
  0.00000000E+00  0.00000000E+00  0.00000000E+00
  0.00000000E+00  0.00000000E+00  0.00000000E+00
  0.00000000E+00  0.00000000E+00  0.00000000E+00
  0.00000000E+00  0.00000000E+00  0.00000000E+00
  0.00000000E+00  0.00000000E+00  0.00000000E+00
  0.00000000E+00  0.00000000E+00  0.00000000E+00
  0.00000000E+00  0.00000000E+00  0.00000000E+00
  0.00000000E+00  0.00000000E+00  0.00000000E+00
  0.00000000E+00  0.00000000E+00  0.00000000E+00
  0.00000000E+00  0.00000000E+00  0.00000000E+00
  0.00000000E+00  0.00000000E+00  0.00000000E+00
  0.00000000E+00  0.00000000E+00  0.00000000E+00
  0.00000000E+00  0.00000000E+00  0.00000000E+00
  0.00000000E+00  0.00000000E+00  0.00000000E+00
  0.00000000E+00  0.00000000E+00  0.00000000E+00
  0.00000000E+00  0.00000000E+00  0.00000000E+00
  0.00000000E+00  0.00000000E+00  0.00000000E+00
  0.00000000E+00  0.00000000E+00  0.00000000E+00
  0.00000000E+00  0.00000000E+00  0.00000000E+00
  0.00000000E+00  0.00000000E+00  0.00000000E+00
  0.00000000E+00  0.00000000E+00  0.00000000E+00
  0.00000000E+00  0.00000000E+00  0.00000000E+00
  0.00000000E+00  0.00000000E+00  0.00000000E+00
  0.00000000E+00  0.00000000E+00  0.00000000E+00
  0.00000000E+00  0.00000000E+00  0.00000000E+00
  0.00000000E+00  0.00000000E+00  0.00000000E+00
  0.00000000E+00  0.00000000E+00  0.00000000E+00
  0.00000000E+00  0.00000000E+00  0.00000000E+00
  0.00000000E+00  0.00000000E+00  0.00000000E+00
  0.00000000E+00  0.00000000E+00  0.00000000E+00
  0.00000000E+00  0.00000000E+00  0.00000000E+00
  0.00000000E+00  0.00000000E+00  0.00000000E+00
  0.00000000E+00  0.00000000E+00  0.00000000E+00
  0.00000000E+00  0.00000000E+00  0.00000000E+00
  0.00000000E+00  0.00000000E+00  0.00000000E+00
  0.00000000E+00  0.00000000E+00  0.00000000E+00
  0.00000000E+00  0.00000000E+00  0.00000000E+00
  0.00000000E+00  0.00000000E+00  0.00000000E+00
  0.00000000E+00  0.00000000E+00  0.00000000E+00
  0.00000000E+00  0.00000000E+00  0.00000000E+00
  0.00000000E+00  0.00000000E+00  0.00000000E+00
