Sr   Ti   Fe   O                        
   1.00000000000000     
    11.1989999999999998    0.0000000000000000    0.0000000000000000
     0.0000000000000000   11.1989999999999998    0.0000000000000000
     0.0000000000000000    0.0000000000000000   15.9830000000000005
   Sr   Ti   Fe   O 
    32    29     3    94
Direct
 -0.0004166246605816  0.2495673366613249  0.1252976682077581
  0.9991759831651299  0.2520041507889049  0.6248886926705357
  0.9973553383134446  0.7505172321161868  0.1257135124661752
  0.9999899912707318  0.7477097147668704  0.6242731872718686
  0.5015480808317729  0.2503176615196313  0.1230805036283468
  0.5014633944141914  0.2471480093270314  0.6319586344193912
  0.5000481945273535  0.7471714016176072  0.1251122496891371
  0.4973612607098201  0.7535998939918467  0.6272228295576844
  0.9991759831651299  0.2520041507889049  0.3751113073294660
 -0.0004166246605816  0.2495673366613249  0.8747023317922411
  0.9999899912707318  0.7477097147668704  0.3757268127281294
  0.9973553383134446  0.7505172321161868  0.8742864875338258
  0.5014633944141914  0.2471480093270314  0.3680413655806095
  0.5015480808317729  0.2503176615196313  0.8769194963716528
  0.4973612607098201  0.7535998939918467  0.3727771704423144
  0.5000481945273535  0.7471714016176072  0.8748877503108611
  0.2496380074211862 -0.0001543593784953  0.1242747718746756
  0.2490711457058452  0.9952759437945290  0.6285070740037969
  0.2518582687578683  0.4990363803915348  0.1240328697379543
  0.2446739479233452  0.5051598401597143  0.6282774000135103
  0.7491767578085340  0.9998887237686618  0.1260566381729245
  0.7484108044159079 -0.0003303125486734  0.6246244205771961
  0.7473910285786437  0.4998043095070527  0.1247507035460644
  0.7604037254709202  0.4959480640379533  0.6279205077012353
  0.2490711457058452  0.9952759437945290  0.3714929259962056
  0.2496380074211862 -0.0001543593784953  0.8757252281253254
  0.2446739479233452  0.5051598401597143  0.3717225999864898
  0.2518582687578683  0.4990363803915348  0.8759671302620472
  0.7484108044159079 -0.0003303125486734  0.3753755794227956
  0.7491767578085340  0.9998887237686618  0.8739433618270752
  0.7604037254709202  0.4959480640379533  0.3720794922987666
  0.7473910285786437  0.4998043095070527  0.8752492964539359
  0.9988425106608325  0.0000161272373570 -0.0000000000000000
  0.9974458369546076  0.9943712974720704  0.5000000000000000
 -0.0003360011948531  0.5000398980064609 -0.0000000000000000
  1.0017789144093399  0.5016505735989761  0.5000000000000000
  0.4996813628107170  0.9991247116955758 -0.0000000000000000
  0.5035964251233719  0.0001339036038732  0.5000000000000000
  0.4998555927096947  0.5002182388214473 -0.0000000000000000
  0.2487164813434125  0.2486629888030357 -0.0000000000000000
  0.2470935566458980  0.2385788952899758  0.5000000000000000
  0.2489534745150014  0.7498953145589876 -0.0000000000000000
  0.2508951397014378  0.7520362901637139  0.5000000000000000
  0.7507990678335676  0.2497342436432093 -0.0000000000000000
  0.7491151359545858  0.7501918436495844 -0.0000000000000000
  0.2506734481998901  0.2502963688880506  0.2492919538844508
  0.2506734481998901  0.2502963688880506  0.7507080461155480
  0.2489874711917936  0.7500437391098864  0.2485216489906735
  0.2489874711917936  0.7500437391098864  0.7514783510093256
  0.7493872495410535  0.2504388809840585  0.2516564547363955
  0.7493872495410535  0.2504388809840585  0.7483435452636039
  0.7483995541865067  0.7480760660294684  0.2525196520101382
  0.7483995541865067  0.7480760660294684  0.7474803479898644
  0.9990401265856487  1.0000368451189581  0.2510986961189155
  0.9990401265856487  1.0000368451189581  0.7489013038810844
  1.0006840550921838  0.4999968420184699  0.2484766636024733
  1.0006840550921838  0.4999968420184699  0.7515233363975324
  0.4995702733284325  0.9991911140571520  0.2493291168294122
  0.4995702733284325  0.9991911140571520  0.7506708831705882
  0.4976193457978585  0.4983472182886968  0.2528507571007332
  0.4976193457978585  0.4983472182886968  0.7471492428992675
  0.7636446013349260  0.2434571549977572  0.5000000000000000
  0.5004050926065094  0.5135684729671536  0.5000000000000000
  0.7568661619603539  0.7546624176828958  0.5000000000000000
  0.1100056813708534  0.1406512658975848  0.2545137040404883
  0.1100056813708534  0.1406512658975848  0.7454862959595115
  0.1098718848750747  0.6403090319327248  0.2499041374493226
  0.1098718848750747  0.6403090319327248  0.7500958625506786
  0.6104190938118129  0.1384635777331956  0.2489823330834388
  0.6104190938118129  0.1384635777331956  0.7510176669165615
  0.6078108860520166  0.6377572412896100  0.2522134905284181
  0.6078108860520166  0.6377572412896100  0.7477865094715819
  0.3888221674752311  0.3571788642771515  0.2415752849072576
  0.3888221674752311  0.3571788642771515  0.7584247150927429
  0.3890719592082247  0.8602339465290869  0.2491041868578769
  0.3890719592082247  0.8602339465290869  0.7508958131421235
  0.8899454323745764  0.3603827916227778  0.2513927522480561
  0.8899454323745764  0.3603827916227778  0.7486072477519478
  0.8874062079627005  0.8603843610268013  0.2537019460482635
  0.8874062079627005  0.8603843610268013  0.7462980539517304
  0.3596721470936892  0.1094407427742147  0.2511300694409055
  0.3596721470936892  0.1094407427742147  0.7488699305590953
  0.3579852692740023  0.6107554020771322  0.2480003962330968
  0.3579852692740023  0.6107554020771322  0.7519996037669032
  0.8594066547003495  0.1110585897399032  0.2544263694691491
  0.8594066547003495  0.1110585897399032  0.7455736305308525
  0.8616719942721909  0.6113089672047789  0.2473822299463308
  0.8616719942721909  0.6113089672047789  0.7526177700536698
  0.1404662323429941  0.3900438583943175  0.2489081308032907
  0.1404662323429941  0.3900438583943175  0.7510918691967107
  0.1385609232530618  0.8905585713647749  0.2475064982560710
  0.1385609232530618  0.8905585713647749  0.7524935017439305
  0.6379530037491971  0.3886513229930406  0.2492883949216861
  0.6379530037491971  0.3886513229930406  0.7507116050783144
  0.6384609070062661  0.8886080451375524  0.2520779078493906
  0.6384609070062661  0.8886080451375524  0.7479220921506107
  0.3589812117283843  0.3881993906192053 -0.0000000000000000
  0.3582943800637099  0.8908511937251034 -0.0000000000000000
  0.3552988030022495  0.8999406485808671  0.5000000000000000
  0.8589610832843370  0.3912022817985952 -0.0000000000000000
  0.8579539617003478  0.8912761457722099 -0.0000000000000000
  0.8584028954894786  0.8912707250780784  0.5000000000000000
  0.1394038814032093  0.1070117897844004 -0.0000000000000000
  0.1437963952576633  0.1099563171538937  0.5000000000000000
  0.1403138731265254  0.6087754011185585 -0.0000000000000000
  0.1379607344643442  0.6175825341586937  0.5000000000000000
  0.6404632874949004  0.1092667845046792 -0.0000000000000000
  0.6405343915788427  0.1117779100130000  0.5000000000000000
  0.6408576975077930  0.6098317164136139 -0.0000000000000000
  0.1089070653656201  0.3586008815802987 -0.0000000000000000
  0.1408265544067230  0.3761454051755173  0.5000000000000000
  0.1069582047866996  0.8593759670732272 -0.0000000000000000
  0.1081218814102191  0.8607055393779448  0.5000000000000000
  0.6103794514680165  0.3592769595001961 -0.0000000000000000
  0.6080959295574833  0.8589610016135688 -0.0000000000000000
  0.6041013575604586  0.8537629583443608  0.5000000000000000
  0.3900690085773607  0.1397100116018555 -0.0000000000000000
  0.4012905099206586  0.1595304932099119  0.5000000000000000
  0.3892544237057277  0.6405993340647427 -0.0000000000000000
  0.8910055696653685  0.1414155705202194 -0.0000000000000000
  0.8954021902162584  0.1352594800951143  0.5000000000000000
  0.8904566751854485  0.6412687567299643 -0.0000000000000000
  0.9962219186962759  0.0020798163370620  0.1262058423911541
  0.0027274850879877  0.9979758693669999  0.6243083943512601
  0.0004345250506343  0.4990900128588547  0.1246218593898102
  0.0038290340536610  0.5005750732073121  0.6261544260263786
  0.4999359504065860  0.9994887181239177  0.1250439875505250
  0.4986072947048305  0.0004623315921668  0.6250014213171508
  0.5002559117613987  0.5014813451741582  0.1239431700215961
  0.4790555831810526  0.4862493859117957  0.6261292093051006
  0.0027274850879877  0.9979758693669999  0.3756916056487402
  0.9962219186962759  0.0020798163370620  0.8737941576088465
  0.0038290340536610  0.5005750732073121  0.3738455739736223
  0.0004345250506343  0.4990900128588547  0.8753781406101889
  0.4986072947048305  0.0004623315921668  0.3749985786828484
  0.4999359504065860  0.9994887181239177  0.8749560124494840
  0.5002559117613987  0.5014813451741582  0.8760568299784008
  0.2605512033216448  0.2592099091057380  0.3766872891346647
  0.2451564345062830  0.2445501972069593  0.8753337617743027
  0.2487058561544501  0.7542333428996704  0.3736892833866733
  0.2483015953774902  0.7508183841328041  0.8757394155993850
  0.7516121037972547  0.2492308822989238  0.8744010173719625
  0.7478744860802309  0.7507937095363528  0.8741671583215115
  0.2451564345062830  0.2445501972069593  0.1246662382256961
  0.2605512033216448  0.2592099091057380  0.6233127108653357
  0.2483015953774902  0.7508183841328041  0.1242605844006145
  0.2487058561544501  0.7542333428996704  0.6263107166133257
  0.7516121037972547  0.2492308822989238  0.1255989826280376
  0.7429061181792379  0.2561828336527874  0.6229487366582886
  0.7478744860802309  0.7507937095363528  0.1258328416784901
  0.7431993809860251  0.7400827417853687  0.6227321479107272
  0.7429061181792379  0.2561828336527874  0.3770512633417100
  0.8868419690224115  0.3747051449535000  0.5000000000000000
  0.3853630917917913  0.6453864211822119  0.5000000000000000
  0.4790555831810526  0.4862493859117957  0.3738707906949004
  0.8891611607005331  0.6352604546870199  0.5000000000000000
  0.7431993809860251  0.7400827417853687  0.3772678520892754
  0.6614709397296950  0.4844410288420168  0.5000000000000000
 
  0.00000000E+00  0.00000000E+00  0.00000000E+00
  0.00000000E+00  0.00000000E+00  0.00000000E+00
  0.00000000E+00  0.00000000E+00  0.00000000E+00
  0.00000000E+00  0.00000000E+00  0.00000000E+00
  0.00000000E+00  0.00000000E+00  0.00000000E+00
  0.00000000E+00  0.00000000E+00  0.00000000E+00
  0.00000000E+00  0.00000000E+00  0.00000000E+00
  0.00000000E+00  0.00000000E+00  0.00000000E+00
  0.00000000E+00  0.00000000E+00  0.00000000E+00
  0.00000000E+00  0.00000000E+00  0.00000000E+00
  0.00000000E+00  0.00000000E+00  0.00000000E+00
  0.00000000E+00  0.00000000E+00  0.00000000E+00
  0.00000000E+00  0.00000000E+00  0.00000000E+00
  0.00000000E+00  0.00000000E+00  0.00000000E+00
  0.00000000E+00  0.00000000E+00  0.00000000E+00
  0.00000000E+00  0.00000000E+00  0.00000000E+00
  0.00000000E+00  0.00000000E+00  0.00000000E+00
  0.00000000E+00  0.00000000E+00  0.00000000E+00
  0.00000000E+00  0.00000000E+00  0.00000000E+00
  0.00000000E+00  0.00000000E+00  0.00000000E+00
  0.00000000E+00  0.00000000E+00  0.00000000E+00
  0.00000000E+00  0.00000000E+00  0.00000000E+00
  0.00000000E+00  0.00000000E+00  0.00000000E+00
  0.00000000E+00  0.00000000E+00  0.00000000E+00
  0.00000000E+00  0.00000000E+00  0.00000000E+00
  0.00000000E+00  0.00000000E+00  0.00000000E+00
  0.00000000E+00  0.00000000E+00  0.00000000E+00
  0.00000000E+00  0.00000000E+00  0.00000000E+00
  0.00000000E+00  0.00000000E+00  0.00000000E+00
  0.00000000E+00  0.00000000E+00  0.00000000E+00
  0.00000000E+00  0.00000000E+00  0.00000000E+00
  0.00000000E+00  0.00000000E+00  0.00000000E+00
  0.00000000E+00  0.00000000E+00  0.00000000E+00
  0.00000000E+00  0.00000000E+00  0.00000000E+00
  0.00000000E+00  0.00000000E+00  0.00000000E+00
  0.00000000E+00  0.00000000E+00  0.00000000E+00
  0.00000000E+00  0.00000000E+00  0.00000000E+00
  0.00000000E+00  0.00000000E+00  0.00000000E+00
  0.00000000E+00  0.00000000E+00  0.00000000E+00
  0.00000000E+00  0.00000000E+00  0.00000000E+00
  0.00000000E+00  0.00000000E+00  0.00000000E+00
  0.00000000E+00  0.00000000E+00  0.00000000E+00
  0.00000000E+00  0.00000000E+00  0.00000000E+00
  0.00000000E+00  0.00000000E+00  0.00000000E+00
  0.00000000E+00  0.00000000E+00  0.00000000E+00
  0.00000000E+00  0.00000000E+00  0.00000000E+00
  0.00000000E+00  0.00000000E+00  0.00000000E+00
  0.00000000E+00  0.00000000E+00  0.00000000E+00
  0.00000000E+00  0.00000000E+00  0.00000000E+00
  0.00000000E+00  0.00000000E+00  0.00000000E+00
  0.00000000E+00  0.00000000E+00  0.00000000E+00
  0.00000000E+00  0.00000000E+00  0.00000000E+00
  0.00000000E+00  0.00000000E+00  0.00000000E+00
  0.00000000E+00  0.00000000E+00  0.00000000E+00
  0.00000000E+00  0.00000000E+00  0.00000000E+00
  0.00000000E+00  0.00000000E+00  0.00000000E+00
  0.00000000E+00  0.00000000E+00  0.00000000E+00
  0.00000000E+00  0.00000000E+00  0.00000000E+00
  0.00000000E+00  0.00000000E+00  0.00000000E+00
  0.00000000E+00  0.00000000E+00  0.00000000E+00
  0.00000000E+00  0.00000000E+00  0.00000000E+00
  0.00000000E+00  0.00000000E+00  0.00000000E+00
  0.00000000E+00  0.00000000E+00  0.00000000E+00
  0.00000000E+00  0.00000000E+00  0.00000000E+00
  0.00000000E+00  0.00000000E+00  0.00000000E+00
  0.00000000E+00  0.00000000E+00  0.00000000E+00
  0.00000000E+00  0.00000000E+00  0.00000000E+00
  0.00000000E+00  0.00000000E+00  0.00000000E+00
  0.00000000E+00  0.00000000E+00  0.00000000E+00
  0.00000000E+00  0.00000000E+00  0.00000000E+00
  0.00000000E+00  0.00000000E+00  0.00000000E+00
  0.00000000E+00  0.00000000E+00  0.00000000E+00
  0.00000000E+00  0.00000000E+00  0.00000000E+00
  0.00000000E+00  0.00000000E+00  0.00000000E+00
  0.00000000E+00  0.00000000E+00  0.00000000E+00
  0.00000000E+00  0.00000000E+00  0.00000000E+00
  0.00000000E+00  0.00000000E+00  0.00000000E+00
  0.00000000E+00  0.00000000E+00  0.00000000E+00
  0.00000000E+00  0.00000000E+00  0.00000000E+00
  0.00000000E+00  0.00000000E+00  0.00000000E+00
  0.00000000E+00  0.00000000E+00  0.00000000E+00
  0.00000000E+00  0.00000000E+00  0.00000000E+00
  0.00000000E+00  0.00000000E+00  0.00000000E+00
  0.00000000E+00  0.00000000E+00  0.00000000E+00
  0.00000000E+00  0.00000000E+00  0.00000000E+00
  0.00000000E+00  0.00000000E+00  0.00000000E+00
  0.00000000E+00  0.00000000E+00  0.00000000E+00
  0.00000000E+00  0.00000000E+00  0.00000000E+00
  0.00000000E+00  0.00000000E+00  0.00000000E+00
  0.00000000E+00  0.00000000E+00  0.00000000E+00
  0.00000000E+00  0.00000000E+00  0.00000000E+00
  0.00000000E+00  0.00000000E+00  0.00000000E+00
  0.00000000E+00  0.00000000E+00  0.00000000E+00
  0.00000000E+00  0.00000000E+00  0.00000000E+00
  0.00000000E+00  0.00000000E+00  0.00000000E+00
  0.00000000E+00  0.00000000E+00  0.00000000E+00
  0.00000000E+00  0.00000000E+00  0.00000000E+00
  0.00000000E+00  0.00000000E+00  0.00000000E+00
  0.00000000E+00  0.00000000E+00  0.00000000E+00
  0.00000000E+00  0.00000000E+00  0.00000000E+00
  0.00000000E+00  0.00000000E+00  0.00000000E+00
  0.00000000E+00  0.00000000E+00  0.00000000E+00
  0.00000000E+00  0.00000000E+00  0.00000000E+00
  0.00000000E+00  0.00000000E+00  0.00000000E+00
  0.00000000E+00  0.00000000E+00  0.00000000E+00
  0.00000000E+00  0.00000000E+00  0.00000000E+00
  0.00000000E+00  0.00000000E+00  0.00000000E+00
  0.00000000E+00  0.00000000E+00  0.00000000E+00
  0.00000000E+00  0.00000000E+00  0.00000000E+00
  0.00000000E+00  0.00000000E+00  0.00000000E+00
  0.00000000E+00  0.00000000E+00  0.00000000E+00
  0.00000000E+00  0.00000000E+00  0.00000000E+00
  0.00000000E+00  0.00000000E+00  0.00000000E+00
  0.00000000E+00  0.00000000E+00  0.00000000E+00
  0.00000000E+00  0.00000000E+00  0.00000000E+00
  0.00000000E+00  0.00000000E+00  0.00000000E+00
  0.00000000E+00  0.00000000E+00  0.00000000E+00
  0.00000000E+00  0.00000000E+00  0.00000000E+00
  0.00000000E+00  0.00000000E+00  0.00000000E+00
  0.00000000E+00  0.00000000E+00  0.00000000E+00
  0.00000000E+00  0.00000000E+00  0.00000000E+00
  0.00000000E+00  0.00000000E+00  0.00000000E+00
  0.00000000E+00  0.00000000E+00  0.00000000E+00
  0.00000000E+00  0.00000000E+00  0.00000000E+00
  0.00000000E+00  0.00000000E+00  0.00000000E+00
  0.00000000E+00  0.00000000E+00  0.00000000E+00
  0.00000000E+00  0.00000000E+00  0.00000000E+00
  0.00000000E+00  0.00000000E+00  0.00000000E+00
  0.00000000E+00  0.00000000E+00  0.00000000E+00
  0.00000000E+00  0.00000000E+00  0.00000000E+00
  0.00000000E+00  0.00000000E+00  0.00000000E+00
  0.00000000E+00  0.00000000E+00  0.00000000E+00
  0.00000000E+00  0.00000000E+00  0.00000000E+00
  0.00000000E+00  0.00000000E+00  0.00000000E+00
  0.00000000E+00  0.00000000E+00  0.00000000E+00
  0.00000000E+00  0.00000000E+00  0.00000000E+00
  0.00000000E+00  0.00000000E+00  0.00000000E+00
  0.00000000E+00  0.00000000E+00  0.00000000E+00
  0.00000000E+00  0.00000000E+00  0.00000000E+00
  0.00000000E+00  0.00000000E+00  0.00000000E+00
  0.00000000E+00  0.00000000E+00  0.00000000E+00
  0.00000000E+00  0.00000000E+00  0.00000000E+00
  0.00000000E+00  0.00000000E+00  0.00000000E+00
  0.00000000E+00  0.00000000E+00  0.00000000E+00
  0.00000000E+00  0.00000000E+00  0.00000000E+00
  0.00000000E+00  0.00000000E+00  0.00000000E+00
  0.00000000E+00  0.00000000E+00  0.00000000E+00
  0.00000000E+00  0.00000000E+00  0.00000000E+00
  0.00000000E+00  0.00000000E+00  0.00000000E+00
  0.00000000E+00  0.00000000E+00  0.00000000E+00
  0.00000000E+00  0.00000000E+00  0.00000000E+00
  0.00000000E+00  0.00000000E+00  0.00000000E+00
  0.00000000E+00  0.00000000E+00  0.00000000E+00
  0.00000000E+00  0.00000000E+00  0.00000000E+00
  0.00000000E+00  0.00000000E+00  0.00000000E+00
  0.00000000E+00  0.00000000E+00  0.00000000E+00
  0.00000000E+00  0.00000000E+00  0.00000000E+00
  0.00000000E+00  0.00000000E+00  0.00000000E+00
