SrTiFeO                                 
   1.00000000000000     
    11.1989999999999998    0.0000000000000000    0.0000000000000000
     0.0000000000000000   11.1989999999999998    0.0000000000000000
     0.0000000000000000    0.0000000000000000   15.9830000000000005
   Sr   Ti   Fe   O 
    32    30     2    94
Direct
  0.9996627374817885  0.2499388069614016  0.1254483687777017
  0.9995573567424876  0.2490443670559880  0.6229382016211672
  0.0001238990233182  0.7498494861174865  0.1255610127178432
  0.9975100673359455  0.7516301491499006  0.6218691685660817
  0.4990371011320375  0.2445975664399103  0.1250708758730559
  0.5019353858177750  0.2423408165325707  0.6223380027503694
  0.5017105340370589  0.7553542731817570  0.1254294631167659
  0.5012807735430781  0.7551402813831394  0.6206989579634604
  0.9995573567424876  0.2490443670559880  0.3770617983788328
  0.9996627374817885  0.2499388069614016  0.8745516312222982
  0.9975100673359455  0.7516301491499006  0.3781308314339183
  0.0001238990233182  0.7498494861174865  0.8744389872821567
  0.5019353858177750  0.2423408165325707  0.3776619972496305
  0.4990371011320375  0.2445975664399103  0.8749291241269441
  0.5012807735430781  0.7551402813831394  0.3793010420365396
  0.5017105340370589  0.7553542731817570  0.8745705368832341
  0.2497801027817380  0.0004836365018270  0.1253781869437262
  0.2485932395503285  0.0000691087865144  0.6231644828428043
  0.2448723462779616  0.5008814779423179  0.1252166096071544
  0.2433736341014696  0.4976047076675978  0.6218888189718861
  0.7506732519788037  0.9993922753635074  0.1254982650124291
  0.7512542875800606  0.9948905974169936  0.6216660138002115
  0.7549761410743534  0.4995224382280633  0.1253419932122726
  0.7545181619095747  0.5083540637716552  0.6191114764973435
  0.2485932395503285  0.0000691087865144  0.3768355171571957
  0.2497801027817380  0.0004836365018270  0.8746218130562738
  0.2433736341014696  0.4976047076675978  0.3781111810281138
  0.2448723462779616  0.5008814779423179  0.8747833903928456
  0.7512542875800606  0.9948905974169936  0.3783339861997885
  0.7506732519788037  0.9993922753635074  0.8745017349875709
  0.7545181619095747  0.5083540637716552  0.3808885235026563
  0.7549761410743534  0.4995224382280633  0.8746580067877274
  0.0001591638524625  0.0001341824293580  0.0000000000000000
  0.9988763069249009  0.9992435530107695  0.5000000000000000
  0.0001067328048958  0.4998779918963339  0.0000000000000000
  0.9990735668025805  0.5013651052685597  0.5000000000000000
  0.4998797917305450  0.9998678950444243  0.0000000000000000
  0.5007609735324000  0.9984931409765784  0.5000000000000000
  0.4999923633350307  0.4997344486324877  0.0000000000000000
  0.2508086682542469  0.2513189320388133  0.0000000000000000
  0.2513011275824959  0.2503611315639580  0.5000000000000000
  0.2514297738602178  0.7492145496169789  0.0000000000000000
  0.2519365642116524  0.7482484038069928  0.5000000000000000
  0.7487298468147617  0.2507793484663646  0.0000000000000000
  0.7479909857031248  0.2516603415375468  0.5000000000000000
  0.7495234748360233  0.7488748869131754  0.0000000000000000
  0.2498375896689320  0.2503509547005945  0.2513340201007149
  0.2498375896689320  0.2503509547005945  0.7486659798992851
  0.2502639277070128  0.7500113165504250  0.2519834648188151
  0.2502639277070128  0.7500113165504250  0.7480165351811849
  0.7498089781464330  0.2500530643362807  0.2521901586015091
  0.7498089781464330  0.2500530643362807  0.7478098413984910
  0.7501870326054394  0.7499540120025893  0.2520105371090427
  0.7501870326054394  0.7499540120025893  0.7479894628909574
  0.9999955841868337  0.0000218159595068  0.2498970177554014
  0.9999955841868337  0.0000218159595068  0.7501029822445986
  0.9995409775483508  0.4999118927418633  0.2504125803886439
  0.9995409775483508  0.4999118927418633  0.7495874196113560
  0.5000788763072299  0.9999193156367807  0.2502371013560540
  0.5000788763072299  0.9999193156367807  0.7497628986439460
  0.5000433352964178  0.4997355406964590  0.2421367854899789
  0.5000433352964178  0.4997355406964590  0.7578632145100211
  0.4981697310500390  0.4977809329800344  0.5000000000000000
  0.7473781168307487  0.7485728410109377  0.5000000000000000
  0.1104410867652593  0.1415068462055107  0.2476750418094141
  0.1104410867652593  0.1415068462055107  0.7523249581905859
  0.1106906789295554  0.6399040763960160  0.2497266983841187
  0.1106906789295554  0.6399040763960160  0.7502733016158812
  0.6090018473222791  0.1413539405350802  0.2489740817310117
  0.6090018473222791  0.1413539405350802  0.7510259182689882
  0.6053139780201057  0.6368796529359936  0.2578958382465772
  0.3939083020726878  0.3629593559326364  0.2608322466111374
  0.3939083020726878  0.3629593559326364  0.7391677533888626
  0.3907958737787233  0.8590144696005270  0.2498439122552869
  0.3907958737787233  0.8590144696005270  0.7501560877447131
  0.8900228064592103  0.3593702806042486  0.2489444840638131
  0.8900228064592103  0.3593702806042486  0.7510555159361870
  0.8910564690157095  0.8603125230251119  0.2463091471516132
  0.8910564690157095  0.8603125230251119  0.7536908528483869
  0.3597587712403064  0.1107321733681714  0.2489425671584378
  0.3597587712403064  0.1107321733681714  0.7510574328415621
  0.3631240710390669  0.6059168568561308  0.2612430106278425
  0.3631240710390669  0.6059168568561308  0.7387569893721575
  0.8591282051677388  0.1101065560133284  0.2481280638896865
  0.8591282051677388  0.1101065560133284  0.7518719361103136
  0.8603986673314333  0.6084795511197808  0.2478274710314918
  0.8603986673314333  0.6084795511197808  0.7521725289685082
  0.1413194299922537  0.3907333411005565  0.2489343083949467
  0.1413194299922537  0.3907333411005565  0.7510656916050533
  0.1413997939019872  0.8901536396807515  0.2475076020631903
  0.1413997939019872  0.8901536396807515  0.7524923979368098
  0.6371099987129709  0.3943001218734568  0.2620687396315885
  0.6391915551601707  0.8908705791329320  0.2475226896393583
  0.6391915551601707  0.8908705791329320  0.7524773103606418
  0.3587794813626953  0.3943016758748199  0.0000000000000000
  0.3592288412011552  0.8904157200988732  0.0000000000000000
  0.3598350565830958  0.8896357002013576  0.5000000000000000
  0.8587552551242472  0.3908701614370108  0.0000000000000000
  0.8614908981363900  0.3877959377022374  0.5000000000000000
  0.8596326012961674  0.8893569526650285  0.0000000000000000
  0.8675187745133676  0.8930097200057183  0.5000000000000000
  0.1415993051234174  0.1114728554320623  0.0000000000000000
  0.1406257755529520  0.1122610332869149  0.5000000000000000
  0.1414169381386103  0.6091553322811947  0.0000000000000000
  0.1390126547500356  0.6109105934873071  0.5000000000000000
  0.6403876895325178  0.1096903293843013  0.0000000000000000
  0.6386571048587869  0.1116098663855064  0.5000000000000000
  0.6401961882632511  0.6052398271296281  0.0000000000000000
  0.1096243278214722  0.3592245629281828  0.0000000000000000
  0.1133038097571370  0.3616236102697207  0.5000000000000000
  0.1114894998024127  0.8589565146768607  0.0000000000000000
  0.1124248792686377  0.8616485125550206  0.5000000000000000
  0.6057526093973513  0.3589344435405633  0.0000000000000000
  0.6087577837417248  0.8594020037780948  0.0000000000000000
  0.6056866103496394  0.8658971870377147  0.5000000000000000
  0.3908910930464123  0.1415517266943707  0.0000000000000000
  0.3885541836876218  0.1395314551303340  0.5000000000000000
  0.3942070422584142  0.6407211395744034  0.0000000000000000
  0.3879506762385362  0.6370850663456034  0.5000000000000000
  0.8886558934274293  0.1413633722616902  0.0000000000000000
  0.8901521074250193  0.1403496130557359  0.5000000000000000
  0.8909606804515212  0.6400111990810552  0.0000000000000000
  0.0009715974900310  0.0014039955524247  0.1236141465442343
  0.0021062908827479  0.0014054345151640  0.6271268227043930
  0.0010395224966446  0.4993192784061983  0.1243815750574705
  0.0012785933783136  0.4979950972744356  0.6259512325431934
  0.4986379128450110  0.0005626138568340  0.1243317903585538
  0.4986927834707925  0.0016735081051867  0.6260729314623407
  0.4991603204584558  0.4980745363336761  0.1258387381973046
  0.0021062908827479  0.0014054345151640  0.3728731772956069
  0.0009715974900310  0.0014039955524247  0.8763858534557657
  0.0012785933783136  0.4979950972744356  0.3740487674568067
  0.0010395224966446  0.4993192784061983  0.8756184249425295
  0.4986927834707925  0.0016735081051867  0.3739270685376593
  0.4986379128450110  0.0005626138568340  0.8756682096414462
  0.4991603204584558  0.4980745363336761  0.8741612618026954
  0.2480612533182142  0.2490634879651472  0.3748097230342625
  0.2561466300146311  0.2553769342460087  0.8744200336036695
  0.2476736745766592  0.7530269714162720  0.3749350786066138
  0.2552807147060668  0.7439679074922755  0.8741893359696787
  0.7520079647714726  0.2463194461542393  0.3750330062249372
  0.7447774024164728  0.2561006715931158  0.8741823125003974
  0.7524169618608180  0.7514548674774052  0.3692422452109600
  0.7445553539675909  0.7451604253471688  0.8759069767742546
  0.2561466300146311  0.2553769342460087  0.1255799663963306
  0.2480612533182142  0.2490634879651472  0.6251902769657375
  0.2552807147060668  0.7439679074922755  0.1258106640303213
  0.2476736745766592  0.7530269714162720  0.6250649213933862
  0.7447774024164728  0.2561006715931158  0.1258176874996027
  0.7520079647714726  0.2463194461542393  0.6249669937750627
  0.7445553539675909  0.7451604253471688  0.1240930232257455
  0.6371099987129709  0.3943001218734568  0.7379312603684115
  0.6053139780201057  0.6368796529359936  0.7421041617534229
  0.6084106292694178  0.3601413075532273  0.5000000000000000
  0.3651772674270297  0.3906935209615021  0.5000000000000000
  0.7524169618608180  0.7514548674774052  0.6307577547890401
  0.8921330945494172  0.6332150257603895  0.5000000000000000
  0.6244463927223788  0.6032941377484363  0.5000000000000000
 
  0.00000000E+00  0.00000000E+00  0.00000000E+00
  0.00000000E+00  0.00000000E+00  0.00000000E+00
  0.00000000E+00  0.00000000E+00  0.00000000E+00
  0.00000000E+00  0.00000000E+00  0.00000000E+00
  0.00000000E+00  0.00000000E+00  0.00000000E+00
  0.00000000E+00  0.00000000E+00  0.00000000E+00
  0.00000000E+00  0.00000000E+00  0.00000000E+00
  0.00000000E+00  0.00000000E+00  0.00000000E+00
  0.00000000E+00  0.00000000E+00  0.00000000E+00
  0.00000000E+00  0.00000000E+00  0.00000000E+00
  0.00000000E+00  0.00000000E+00  0.00000000E+00
  0.00000000E+00  0.00000000E+00  0.00000000E+00
  0.00000000E+00  0.00000000E+00  0.00000000E+00
  0.00000000E+00  0.00000000E+00  0.00000000E+00
  0.00000000E+00  0.00000000E+00  0.00000000E+00
  0.00000000E+00  0.00000000E+00  0.00000000E+00
  0.00000000E+00  0.00000000E+00  0.00000000E+00
  0.00000000E+00  0.00000000E+00  0.00000000E+00
  0.00000000E+00  0.00000000E+00  0.00000000E+00
  0.00000000E+00  0.00000000E+00  0.00000000E+00
  0.00000000E+00  0.00000000E+00  0.00000000E+00
  0.00000000E+00  0.00000000E+00  0.00000000E+00
  0.00000000E+00  0.00000000E+00  0.00000000E+00
  0.00000000E+00  0.00000000E+00  0.00000000E+00
  0.00000000E+00  0.00000000E+00  0.00000000E+00
  0.00000000E+00  0.00000000E+00  0.00000000E+00
  0.00000000E+00  0.00000000E+00  0.00000000E+00
  0.00000000E+00  0.00000000E+00  0.00000000E+00
  0.00000000E+00  0.00000000E+00  0.00000000E+00
  0.00000000E+00  0.00000000E+00  0.00000000E+00
  0.00000000E+00  0.00000000E+00  0.00000000E+00
  0.00000000E+00  0.00000000E+00  0.00000000E+00
  0.00000000E+00  0.00000000E+00  0.00000000E+00
  0.00000000E+00  0.00000000E+00  0.00000000E+00
  0.00000000E+00  0.00000000E+00  0.00000000E+00
  0.00000000E+00  0.00000000E+00  0.00000000E+00
  0.00000000E+00  0.00000000E+00  0.00000000E+00
  0.00000000E+00  0.00000000E+00  0.00000000E+00
  0.00000000E+00  0.00000000E+00  0.00000000E+00
  0.00000000E+00  0.00000000E+00  0.00000000E+00
  0.00000000E+00  0.00000000E+00  0.00000000E+00
  0.00000000E+00  0.00000000E+00  0.00000000E+00
  0.00000000E+00  0.00000000E+00  0.00000000E+00
  0.00000000E+00  0.00000000E+00  0.00000000E+00
  0.00000000E+00  0.00000000E+00  0.00000000E+00
  0.00000000E+00  0.00000000E+00  0.00000000E+00
  0.00000000E+00  0.00000000E+00  0.00000000E+00
  0.00000000E+00  0.00000000E+00  0.00000000E+00
  0.00000000E+00  0.00000000E+00  0.00000000E+00
  0.00000000E+00  0.00000000E+00  0.00000000E+00
  0.00000000E+00  0.00000000E+00  0.00000000E+00
  0.00000000E+00  0.00000000E+00  0.00000000E+00
  0.00000000E+00  0.00000000E+00  0.00000000E+00
  0.00000000E+00  0.00000000E+00  0.00000000E+00
  0.00000000E+00  0.00000000E+00  0.00000000E+00
  0.00000000E+00  0.00000000E+00  0.00000000E+00
  0.00000000E+00  0.00000000E+00  0.00000000E+00
  0.00000000E+00  0.00000000E+00  0.00000000E+00
  0.00000000E+00  0.00000000E+00  0.00000000E+00
  0.00000000E+00  0.00000000E+00  0.00000000E+00
  0.00000000E+00  0.00000000E+00  0.00000000E+00
  0.00000000E+00  0.00000000E+00  0.00000000E+00
  0.00000000E+00  0.00000000E+00  0.00000000E+00
  0.00000000E+00  0.00000000E+00  0.00000000E+00
  0.00000000E+00  0.00000000E+00  0.00000000E+00
  0.00000000E+00  0.00000000E+00  0.00000000E+00
  0.00000000E+00  0.00000000E+00  0.00000000E+00
  0.00000000E+00  0.00000000E+00  0.00000000E+00
  0.00000000E+00  0.00000000E+00  0.00000000E+00
  0.00000000E+00  0.00000000E+00  0.00000000E+00
  0.00000000E+00  0.00000000E+00  0.00000000E+00
  0.00000000E+00  0.00000000E+00  0.00000000E+00
  0.00000000E+00  0.00000000E+00  0.00000000E+00
  0.00000000E+00  0.00000000E+00  0.00000000E+00
  0.00000000E+00  0.00000000E+00  0.00000000E+00
  0.00000000E+00  0.00000000E+00  0.00000000E+00
  0.00000000E+00  0.00000000E+00  0.00000000E+00
  0.00000000E+00  0.00000000E+00  0.00000000E+00
  0.00000000E+00  0.00000000E+00  0.00000000E+00
  0.00000000E+00  0.00000000E+00  0.00000000E+00
  0.00000000E+00  0.00000000E+00  0.00000000E+00
  0.00000000E+00  0.00000000E+00  0.00000000E+00
  0.00000000E+00  0.00000000E+00  0.00000000E+00
  0.00000000E+00  0.00000000E+00  0.00000000E+00
  0.00000000E+00  0.00000000E+00  0.00000000E+00
  0.00000000E+00  0.00000000E+00  0.00000000E+00
  0.00000000E+00  0.00000000E+00  0.00000000E+00
  0.00000000E+00  0.00000000E+00  0.00000000E+00
  0.00000000E+00  0.00000000E+00  0.00000000E+00
  0.00000000E+00  0.00000000E+00  0.00000000E+00
  0.00000000E+00  0.00000000E+00  0.00000000E+00
  0.00000000E+00  0.00000000E+00  0.00000000E+00
  0.00000000E+00  0.00000000E+00  0.00000000E+00
  0.00000000E+00  0.00000000E+00  0.00000000E+00
  0.00000000E+00  0.00000000E+00  0.00000000E+00
  0.00000000E+00  0.00000000E+00  0.00000000E+00
  0.00000000E+00  0.00000000E+00  0.00000000E+00
  0.00000000E+00  0.00000000E+00  0.00000000E+00
  0.00000000E+00  0.00000000E+00  0.00000000E+00
  0.00000000E+00  0.00000000E+00  0.00000000E+00
  0.00000000E+00  0.00000000E+00  0.00000000E+00
  0.00000000E+00  0.00000000E+00  0.00000000E+00
  0.00000000E+00  0.00000000E+00  0.00000000E+00
  0.00000000E+00  0.00000000E+00  0.00000000E+00
  0.00000000E+00  0.00000000E+00  0.00000000E+00
  0.00000000E+00  0.00000000E+00  0.00000000E+00
  0.00000000E+00  0.00000000E+00  0.00000000E+00
  0.00000000E+00  0.00000000E+00  0.00000000E+00
  0.00000000E+00  0.00000000E+00  0.00000000E+00
  0.00000000E+00  0.00000000E+00  0.00000000E+00
  0.00000000E+00  0.00000000E+00  0.00000000E+00
  0.00000000E+00  0.00000000E+00  0.00000000E+00
  0.00000000E+00  0.00000000E+00  0.00000000E+00
  0.00000000E+00  0.00000000E+00  0.00000000E+00
  0.00000000E+00  0.00000000E+00  0.00000000E+00
  0.00000000E+00  0.00000000E+00  0.00000000E+00
  0.00000000E+00  0.00000000E+00  0.00000000E+00
  0.00000000E+00  0.00000000E+00  0.00000000E+00
  0.00000000E+00  0.00000000E+00  0.00000000E+00
  0.00000000E+00  0.00000000E+00  0.00000000E+00
  0.00000000E+00  0.00000000E+00  0.00000000E+00
  0.00000000E+00  0.00000000E+00  0.00000000E+00
  0.00000000E+00  0.00000000E+00  0.00000000E+00
  0.00000000E+00  0.00000000E+00  0.00000000E+00
  0.00000000E+00  0.00000000E+00  0.00000000E+00
  0.00000000E+00  0.00000000E+00  0.00000000E+00
  0.00000000E+00  0.00000000E+00  0.00000000E+00
  0.00000000E+00  0.00000000E+00  0.00000000E+00
  0.00000000E+00  0.00000000E+00  0.00000000E+00
  0.00000000E+00  0.00000000E+00  0.00000000E+00
  0.00000000E+00  0.00000000E+00  0.00000000E+00
  0.00000000E+00  0.00000000E+00  0.00000000E+00
  0.00000000E+00  0.00000000E+00  0.00000000E+00
  0.00000000E+00  0.00000000E+00  0.00000000E+00
  0.00000000E+00  0.00000000E+00  0.00000000E+00
  0.00000000E+00  0.00000000E+00  0.00000000E+00
  0.00000000E+00  0.00000000E+00  0.00000000E+00
  0.00000000E+00  0.00000000E+00  0.00000000E+00
  0.00000000E+00  0.00000000E+00  0.00000000E+00
  0.00000000E+00  0.00000000E+00  0.00000000E+00
  0.00000000E+00  0.00000000E+00  0.00000000E+00
  0.00000000E+00  0.00000000E+00  0.00000000E+00
  0.00000000E+00  0.00000000E+00  0.00000000E+00
  0.00000000E+00  0.00000000E+00  0.00000000E+00
  0.00000000E+00  0.00000000E+00  0.00000000E+00
  0.00000000E+00  0.00000000E+00  0.00000000E+00
  0.00000000E+00  0.00000000E+00  0.00000000E+00
  0.00000000E+00  0.00000000E+00  0.00000000E+00
  0.00000000E+00  0.00000000E+00  0.00000000E+00
  0.00000000E+00  0.00000000E+00  0.00000000E+00
  0.00000000E+00  0.00000000E+00  0.00000000E+00
  0.00000000E+00  0.00000000E+00  0.00000000E+00
  0.00000000E+00  0.00000000E+00  0.00000000E+00
  0.00000000E+00  0.00000000E+00  0.00000000E+00
  0.00000000E+00  0.00000000E+00  0.00000000E+00
  0.00000000E+00  0.00000000E+00  0.00000000E+00
  0.00000000E+00  0.00000000E+00  0.00000000E+00
  0.00000000E+00  0.00000000E+00  0.00000000E+00
