SrTiFeO                                 
   1.00000000000000     
    11.1989999999999998    0.0000000000000000    0.0000000000000000
     0.0000000000000000   11.1989999999999998    0.0000000000000000
     0.0000000000000000    0.0000000000000000   15.9830000000000005
   Sr   Ti   Fe   O 
    32    30     2    94
Direct
  0.0041749550902417  0.2501703221498810  0.1231396296857863
  0.0016711085667172  0.2484201510658979  0.6244762170581303
  0.0006171613593006  0.7504114338148985  0.1254760022263594
  0.9968036757245107  0.7505239765747245  0.6240097018553491
  0.4973277116550190  0.2500827927635728  0.1229087259406287
  0.4934273709360152  0.2454737616513161  0.6289411290898519
  0.5002102124183372  0.7473787503223435  0.1256149835244300
  0.5022981685200529  0.7571395415692199  0.6255935515086011
  0.0098077993738351  0.2490745187804939  0.3745639467630736
  0.0000177225471206  0.2500928340715328  0.8741989206696021
  0.9988068697064981  0.7508023902360522  0.3755584456871844
  0.9998945832868920  0.7501836717673110  0.8745626298582804
  0.4872769211758901  0.2448987185147816  0.3726776823364090
  0.4990551318187759  0.2517047523377353  0.8750560436762220
  0.5005038245972446  0.7557445808112897  0.3738766155724818
  0.5003484932743320  0.7493274104319981  0.8752276704627924
  0.2505192459084650  0.9988668126236733  0.1252226173464200
  0.2483542098738282  0.9996950745295335  0.6240577476950815
  0.2529609444296529  0.5009876458267324  0.1262381463475421
  0.2446208023621511  0.4983360601772030  0.6253660475522933
  0.7507350296587102  0.9954438743166480  0.1236538272363391
  0.7491791269029326  0.9955013210735665  0.6237377037019701
  0.7489224974329829  0.5040422959228600  0.1236614249608736
  0.7515940403752570  0.5040878406989240  0.6277384970721904
  0.2495254716139302  0.9979259517359208  0.3752426081952738
  0.2495502498226360  0.9991501452312173  0.8750790791747424
  0.2469513397656719  0.4996557014748346  0.3753376506980157
  0.2510332430403710  0.5009932797123895  0.8749447074332943
  0.7484195538475981  0.9904060856480844  0.3773967877874035
  0.7502928588918879  0.0000568603095359  0.8733014578910552
  0.7526391597633721  0.5148351533286158  0.3736013902480061
  0.7505986882963213  0.5020382319870687  0.8760101059600773
  0.9994898901917263  0.0006760118658218  0.9998984441537765
  0.9969428784921608  0.0003721747017984  0.4986413065864959
  0.0000530598721863  0.4996585361700564  0.0000378739330955
  0.9948787715605949  0.5001174212662695  0.4988052711166518
  0.5003346417443379  0.0001125458471677  0.9998796001932306
  0.5014028735663982  0.0017108645960372  0.4988984282371079
  0.5000003362223712  0.5000233669868036  0.0011784861195890
  0.2500079970849968  0.2497583248137806  0.9994914335526329
  0.2492533340915914  0.2487076123494161  0.5007512317373853
  0.2505452328672819  0.7493883688309639  0.0005827815281999
  0.2443770334981159  0.7536858080856828  0.5007019610358513
  0.7507074732296368  0.2494920639180372  0.9945005803080726
  0.7499571922869376  0.7502438200669925  0.9995610729002756
  0.2498098154180695  0.2502369706928163  0.2488232986992952
  0.2487666562147882  0.2500384221942833  0.7505274353245610
  0.2510243973941765  0.7477628388657590  0.2499159534640472
  0.2498351619118659  0.7496683516303203  0.7489416823514564
  0.7518651421017997  0.2488097145212880  0.2404405304361573
  0.7479436151832844  0.2515969522730108  0.7475921253339312
  0.7498164768265471  0.7506872804704664  0.2504963773074677
  0.7495425452044352  0.7505073875840581  0.7489433873488709
  0.0012968238568153  0.9990136712164726  0.2509428227619790
  0.9990456407969140  0.0005834673822152  0.7492500032013635
  0.0000498343782240  0.4999627728798195  0.2500955603432613
  0.9990883535417434  0.4995540684484474  0.7500292334547155
  0.5000320593510164  0.9998999623028981  0.2499602103267928
  0.5000772305884177  0.0009935496639336  0.7506123423556669
  0.5031717351336551  0.4966402075949009  0.2533864133432772
  0.5008526392192085  0.4993230918995404  0.7506909828966239
  0.4934696476746078  0.5131591926556865  0.5018182381402414
  0.7586566114400276  0.2448046016170637  0.5065781297375412
  0.7510489794733541  0.7496994551228789  0.5008305880897646
  0.1103971795695923  0.1402503888340525  0.2489173347943503
  0.1080275276469141  0.1416739239015943  0.7501333632552706
  0.1090640694651433  0.6399657741205589  0.2479850605255486
  0.1090329643085930  0.6398023652196948  0.7481312187710984
  0.6144279064331214  0.1404759742819497  0.2596376401330979
  0.6073450726142400  0.1415122183071424  0.7539927215603919
  0.6120252202653232  0.6392298414030988  0.2519552587602730
  0.6084038210891168  0.6410899135425404  0.7485004883476601
  0.3894968387883579  0.3578654751750895  0.2486969646364006
  0.3897334565300941  0.3588437858600841  0.7505788045887714
  0.3901084776858809  0.8606737890098097  0.2467954702005334
  0.3908984632280302  0.8601656720416558  0.7488166371043758
  0.8896402426036877  0.3566060154322996  0.2590902783765960
  0.8907260524272680  0.3588243835145392  0.7499260598123575
  0.8889247756176835  0.8616487085474632  0.2486775621399997
  0.8903537231126127  0.8604518044116980  0.7507074299282086
  0.3612348570064252  0.1111913550697713  0.2510233329012198
  0.3587471931854946  0.1094103870337427  0.7483565366621453
  0.3578048496596214  0.6118581453299669  0.2538245772980809
  0.3600292480712931  0.6086004329633846  0.7445324091923055
  0.8590137497406566  0.1134741378853396  0.2642163593228305
  0.8572820268513447  0.1101162326729855  0.7453529009356883
  0.8610012522402745  0.6101148814044692  0.2479455132823077
  0.8596081266988637  0.6096720133446901  0.7510989317119208
  0.1404527936696381  0.3899709190252308  0.2492598458921856
  0.1403173691571102  0.3909926890947524  0.7509998189702807
  0.1395124166040098  0.8902867700375084  0.2452479548219370
  0.1399259406942985  0.8910040743835472  0.7501915454246270
  0.6485610856548757  0.3820930285707981  0.2604325926254574
  0.6404272410431294  0.3925816433469962  0.7591909328327606
  0.6391667623188755  0.8898721665785038  0.2489640133067166
  0.6401502177510187  0.8916050133975580  0.7500750787663170
  0.3591709237469785  0.3897740691933623  0.9997966057300536
  0.3595638865021138  0.8910282197986800  0.0011521260400294
  0.3609829513299255  0.8895466925699600  0.5022288913540482
  0.8585063054811839  0.3907691626326878  0.9998746935970588
  0.8590744707315988  0.8909382027691353  0.9993283688066205
  0.8620847731989989  0.8905053981212507  0.5004318709365581
  0.1407008601556918  0.1090085714464704  0.0007632052754521
  0.1411023507133487  0.1100126251391823  0.4998378770981836
  0.1399308688569837  0.6087742168127674  0.0011601266806978
  0.1424057153371561  0.6087742286396984  0.5013795418393511
  0.6418407207611988  0.1088897183465767  0.9993156195810364
  0.6307247079572189  0.1281962230041663  0.4852963719562287
  0.6408062791013935  0.6095978440031041  0.9989967647484727
  0.1092401623819917  0.3588224144449379  0.9993154158734029
  0.1118698146008486  0.3609118127963405  0.4999397080759848
  0.1088890838801732  0.8603403100490342  0.0002371570262204
  0.1099809870075345  0.8588133419718569  0.5026128366757768
  0.6102736373708805  0.3580015474493720  0.9977642563281118
  0.6088612881917209  0.8597072659179867  0.0011697102330410
  0.6118595186018539  0.8659515477306042  0.4993756621824343
  0.3909725207051760  0.1408794763720511  0.9997313826314846
  0.3855513798765355  0.1369382144622478  0.5007224136682872
  0.3901264518328517  0.6411540578086363  0.0002649163512172
  0.8915342051637581  0.1419522350798765  0.9998478004716084
  0.8949611238448220  0.1369844913309288  0.4876274644981783
  0.8906114118968830  0.6404595669255501  0.0007116560231348
  0.9932208733870194  0.0051085866779786  0.1255713080710934
  0.9995020345688785  0.0030572155154593  0.6245284169875519
  0.9966670533120497  0.4941817086004360  0.1255632521167751
  0.9965188169699515  0.4951448183098887  0.6244058641140827
  0.5030880635497136  0.0067456131703392  0.1256992784639162
  0.5067116890313047  0.0050550439537334  0.6244375081679341
  0.5030528490544072  0.4982713780173636  0.1227332922039689
  0.5129649756026050  0.4838836665258021  0.6231842013443557
  0.0102238841139249  0.9908024172484158  0.3738068202093311
  0.9983378576694674  0.0024073897023189  0.8746391361398048
  0.0058029509881271  0.5041443755289580  0.3740829885027337
  0.9998397056275531  0.5006042589771920  0.8752421418125723
  0.4937852946099288  0.9939409252301271  0.3738595841261285
  0.4982318890197499  0.9988788656764879  0.8754230359336075
  0.4948973386475321  0.5039438956191487  0.8744218587953150
  0.2501691201587130  0.2516074615503252  0.3748285454333747
  0.2496924496912709  0.2481938763512906  0.8749686382157054
  0.2479940500799691  0.7538301715738117  0.3757844355495402
  0.2503922756999805  0.7482352494184237  0.8741844172975627
  0.7541429296473240  0.2467910419652164  0.8748957864995179
  0.7490251339743292  0.7504432315790625  0.8751699501029191
  0.2500671513954066  0.2491746915465640  0.1243708451403868
  0.2472527374648999  0.2507433830737327  0.6257685073693249
  0.2503762160110397  0.7482537843514869  0.1240491560913133
  0.2497240670377521  0.7514282733343086  0.6251309666803276
  0.7514570891629283  0.2477060291958085  0.1245501690032092
  0.7315040549506241  0.2631599866762296  0.6283210227322414
  0.7490410693957705  0.7498087583904330  0.1243311858128211
  0.7504843456733205  0.7517264774696912  0.6268508494258771
  0.8527281632699255  0.3919865504265891  0.4898415813190378
  0.3914245008955022  0.6429207773620828  0.5008220567781154
  0.5106825845007020  0.4843591888236133  0.3836205326264154
  0.3711665026303247  0.3829314398910684  0.5026703471185340
  0.8930506672307544  0.6397414593614816  0.4997736829162798
  0.7505105483228407  0.7505027637972879  0.3735465882775989
  0.6423194932391670  0.6022890465743453  0.5025094865211911
 
  0.00000000E+00  0.00000000E+00  0.00000000E+00
  0.00000000E+00  0.00000000E+00  0.00000000E+00
  0.00000000E+00  0.00000000E+00  0.00000000E+00
  0.00000000E+00  0.00000000E+00  0.00000000E+00
  0.00000000E+00  0.00000000E+00  0.00000000E+00
  0.00000000E+00  0.00000000E+00  0.00000000E+00
  0.00000000E+00  0.00000000E+00  0.00000000E+00
  0.00000000E+00  0.00000000E+00  0.00000000E+00
  0.00000000E+00  0.00000000E+00  0.00000000E+00
  0.00000000E+00  0.00000000E+00  0.00000000E+00
  0.00000000E+00  0.00000000E+00  0.00000000E+00
  0.00000000E+00  0.00000000E+00  0.00000000E+00
  0.00000000E+00  0.00000000E+00  0.00000000E+00
  0.00000000E+00  0.00000000E+00  0.00000000E+00
  0.00000000E+00  0.00000000E+00  0.00000000E+00
  0.00000000E+00  0.00000000E+00  0.00000000E+00
  0.00000000E+00  0.00000000E+00  0.00000000E+00
  0.00000000E+00  0.00000000E+00  0.00000000E+00
  0.00000000E+00  0.00000000E+00  0.00000000E+00
  0.00000000E+00  0.00000000E+00  0.00000000E+00
  0.00000000E+00  0.00000000E+00  0.00000000E+00
  0.00000000E+00  0.00000000E+00  0.00000000E+00
  0.00000000E+00  0.00000000E+00  0.00000000E+00
  0.00000000E+00  0.00000000E+00  0.00000000E+00
  0.00000000E+00  0.00000000E+00  0.00000000E+00
  0.00000000E+00  0.00000000E+00  0.00000000E+00
  0.00000000E+00  0.00000000E+00  0.00000000E+00
  0.00000000E+00  0.00000000E+00  0.00000000E+00
  0.00000000E+00  0.00000000E+00  0.00000000E+00
  0.00000000E+00  0.00000000E+00  0.00000000E+00
  0.00000000E+00  0.00000000E+00  0.00000000E+00
  0.00000000E+00  0.00000000E+00  0.00000000E+00
  0.00000000E+00  0.00000000E+00  0.00000000E+00
  0.00000000E+00  0.00000000E+00  0.00000000E+00
  0.00000000E+00  0.00000000E+00  0.00000000E+00
  0.00000000E+00  0.00000000E+00  0.00000000E+00
  0.00000000E+00  0.00000000E+00  0.00000000E+00
  0.00000000E+00  0.00000000E+00  0.00000000E+00
  0.00000000E+00  0.00000000E+00  0.00000000E+00
  0.00000000E+00  0.00000000E+00  0.00000000E+00
  0.00000000E+00  0.00000000E+00  0.00000000E+00
  0.00000000E+00  0.00000000E+00  0.00000000E+00
  0.00000000E+00  0.00000000E+00  0.00000000E+00
  0.00000000E+00  0.00000000E+00  0.00000000E+00
  0.00000000E+00  0.00000000E+00  0.00000000E+00
  0.00000000E+00  0.00000000E+00  0.00000000E+00
  0.00000000E+00  0.00000000E+00  0.00000000E+00
  0.00000000E+00  0.00000000E+00  0.00000000E+00
  0.00000000E+00  0.00000000E+00  0.00000000E+00
  0.00000000E+00  0.00000000E+00  0.00000000E+00
  0.00000000E+00  0.00000000E+00  0.00000000E+00
  0.00000000E+00  0.00000000E+00  0.00000000E+00
  0.00000000E+00  0.00000000E+00  0.00000000E+00
  0.00000000E+00  0.00000000E+00  0.00000000E+00
  0.00000000E+00  0.00000000E+00  0.00000000E+00
  0.00000000E+00  0.00000000E+00  0.00000000E+00
  0.00000000E+00  0.00000000E+00  0.00000000E+00
  0.00000000E+00  0.00000000E+00  0.00000000E+00
  0.00000000E+00  0.00000000E+00  0.00000000E+00
  0.00000000E+00  0.00000000E+00  0.00000000E+00
  0.00000000E+00  0.00000000E+00  0.00000000E+00
  0.00000000E+00  0.00000000E+00  0.00000000E+00
  0.00000000E+00  0.00000000E+00  0.00000000E+00
  0.00000000E+00  0.00000000E+00  0.00000000E+00
  0.00000000E+00  0.00000000E+00  0.00000000E+00
  0.00000000E+00  0.00000000E+00  0.00000000E+00
  0.00000000E+00  0.00000000E+00  0.00000000E+00
  0.00000000E+00  0.00000000E+00  0.00000000E+00
  0.00000000E+00  0.00000000E+00  0.00000000E+00
  0.00000000E+00  0.00000000E+00  0.00000000E+00
  0.00000000E+00  0.00000000E+00  0.00000000E+00
  0.00000000E+00  0.00000000E+00  0.00000000E+00
  0.00000000E+00  0.00000000E+00  0.00000000E+00
  0.00000000E+00  0.00000000E+00  0.00000000E+00
  0.00000000E+00  0.00000000E+00  0.00000000E+00
  0.00000000E+00  0.00000000E+00  0.00000000E+00
  0.00000000E+00  0.00000000E+00  0.00000000E+00
  0.00000000E+00  0.00000000E+00  0.00000000E+00
  0.00000000E+00  0.00000000E+00  0.00000000E+00
  0.00000000E+00  0.00000000E+00  0.00000000E+00
  0.00000000E+00  0.00000000E+00  0.00000000E+00
  0.00000000E+00  0.00000000E+00  0.00000000E+00
  0.00000000E+00  0.00000000E+00  0.00000000E+00
  0.00000000E+00  0.00000000E+00  0.00000000E+00
  0.00000000E+00  0.00000000E+00  0.00000000E+00
  0.00000000E+00  0.00000000E+00  0.00000000E+00
  0.00000000E+00  0.00000000E+00  0.00000000E+00
  0.00000000E+00  0.00000000E+00  0.00000000E+00
  0.00000000E+00  0.00000000E+00  0.00000000E+00
  0.00000000E+00  0.00000000E+00  0.00000000E+00
  0.00000000E+00  0.00000000E+00  0.00000000E+00
  0.00000000E+00  0.00000000E+00  0.00000000E+00
  0.00000000E+00  0.00000000E+00  0.00000000E+00
  0.00000000E+00  0.00000000E+00  0.00000000E+00
  0.00000000E+00  0.00000000E+00  0.00000000E+00
  0.00000000E+00  0.00000000E+00  0.00000000E+00
  0.00000000E+00  0.00000000E+00  0.00000000E+00
  0.00000000E+00  0.00000000E+00  0.00000000E+00
  0.00000000E+00  0.00000000E+00  0.00000000E+00
  0.00000000E+00  0.00000000E+00  0.00000000E+00
  0.00000000E+00  0.00000000E+00  0.00000000E+00
  0.00000000E+00  0.00000000E+00  0.00000000E+00
  0.00000000E+00  0.00000000E+00  0.00000000E+00
  0.00000000E+00  0.00000000E+00  0.00000000E+00
  0.00000000E+00  0.00000000E+00  0.00000000E+00
  0.00000000E+00  0.00000000E+00  0.00000000E+00
  0.00000000E+00  0.00000000E+00  0.00000000E+00
  0.00000000E+00  0.00000000E+00  0.00000000E+00
  0.00000000E+00  0.00000000E+00  0.00000000E+00
  0.00000000E+00  0.00000000E+00  0.00000000E+00
  0.00000000E+00  0.00000000E+00  0.00000000E+00
  0.00000000E+00  0.00000000E+00  0.00000000E+00
  0.00000000E+00  0.00000000E+00  0.00000000E+00
  0.00000000E+00  0.00000000E+00  0.00000000E+00
  0.00000000E+00  0.00000000E+00  0.00000000E+00
  0.00000000E+00  0.00000000E+00  0.00000000E+00
  0.00000000E+00  0.00000000E+00  0.00000000E+00
  0.00000000E+00  0.00000000E+00  0.00000000E+00
  0.00000000E+00  0.00000000E+00  0.00000000E+00
  0.00000000E+00  0.00000000E+00  0.00000000E+00
  0.00000000E+00  0.00000000E+00  0.00000000E+00
  0.00000000E+00  0.00000000E+00  0.00000000E+00
  0.00000000E+00  0.00000000E+00  0.00000000E+00
  0.00000000E+00  0.00000000E+00  0.00000000E+00
  0.00000000E+00  0.00000000E+00  0.00000000E+00
  0.00000000E+00  0.00000000E+00  0.00000000E+00
  0.00000000E+00  0.00000000E+00  0.00000000E+00
  0.00000000E+00  0.00000000E+00  0.00000000E+00
  0.00000000E+00  0.00000000E+00  0.00000000E+00
  0.00000000E+00  0.00000000E+00  0.00000000E+00
  0.00000000E+00  0.00000000E+00  0.00000000E+00
  0.00000000E+00  0.00000000E+00  0.00000000E+00
  0.00000000E+00  0.00000000E+00  0.00000000E+00
  0.00000000E+00  0.00000000E+00  0.00000000E+00
  0.00000000E+00  0.00000000E+00  0.00000000E+00
  0.00000000E+00  0.00000000E+00  0.00000000E+00
  0.00000000E+00  0.00000000E+00  0.00000000E+00
  0.00000000E+00  0.00000000E+00  0.00000000E+00
  0.00000000E+00  0.00000000E+00  0.00000000E+00
  0.00000000E+00  0.00000000E+00  0.00000000E+00
  0.00000000E+00  0.00000000E+00  0.00000000E+00
  0.00000000E+00  0.00000000E+00  0.00000000E+00
  0.00000000E+00  0.00000000E+00  0.00000000E+00
  0.00000000E+00  0.00000000E+00  0.00000000E+00
  0.00000000E+00  0.00000000E+00  0.00000000E+00
  0.00000000E+00  0.00000000E+00  0.00000000E+00
  0.00000000E+00  0.00000000E+00  0.00000000E+00
  0.00000000E+00  0.00000000E+00  0.00000000E+00
  0.00000000E+00  0.00000000E+00  0.00000000E+00
  0.00000000E+00  0.00000000E+00  0.00000000E+00
  0.00000000E+00  0.00000000E+00  0.00000000E+00
  0.00000000E+00  0.00000000E+00  0.00000000E+00
  0.00000000E+00  0.00000000E+00  0.00000000E+00
  0.00000000E+00  0.00000000E+00  0.00000000E+00
  0.00000000E+00  0.00000000E+00  0.00000000E+00
  0.00000000E+00  0.00000000E+00  0.00000000E+00
  0.00000000E+00  0.00000000E+00  0.00000000E+00
  0.00000000E+00  0.00000000E+00  0.00000000E+00
