SrTiFeO                                 
   1.00000000000000     
    11.1989999999999998    0.0000000000000000    0.0000000000000000
     0.0000000000000000   11.1989999999999998    0.0000000000000000
     0.0000000000000000    0.0000000000000000   15.9830000000000005
   Sr   Ti   Fe   O 
    32    30     2    94
Direct
  0.0043657832028772  0.2496666537062642  0.1241267388796570
  0.0015054884042838  0.2487035595930052  0.6247378638044813
  0.9992120549952680  0.7512537669780476  0.1257735504776165
  0.0004689212491199  0.7476866489770954  0.6227717655095586
  0.4992196706664777  0.2516627496405702  0.1249606687588977
  0.5002945558162222  0.2490209342415600  0.6255429020461168
  0.4992070793188724  0.7498143794920060  0.1235636259986333
  0.4986946625103695  0.7509992376865268  0.6265480187874916
  0.0098205579756031  0.2484854253238406  0.3771563382252834
  0.0003124800393463  0.2499213344344446  0.8752969161483771
  0.0024542441104680  0.7486615076897822  0.3770941101315622
  0.9987647645878304  0.7503716516492236  0.8741356727786368
  0.4941210045224917  0.2449299212227703  0.3754575836191260
  0.4991898224357749  0.2517017534346798  0.8744620069947391
  0.4968134739969937  0.7537425795772348  0.3714997573918657
  0.4995061137951233  0.7497539849782188  0.8755144329679433
  0.2510070897912763  1.0000372576765577  0.1256078742018210
  0.2491733604644613  0.9996640895758618  0.6245119570102512
  0.2515813908668656  0.5009605882204127  0.1251593346873749
  0.2466171459942296  0.5005127543200435  0.6247601480861902
  0.7501847912482341  0.9961996852705145  0.1242916543610224
  0.7504602352566083  0.0005746562608462  0.6252659522573301
  0.7481624494129093  0.5026582757126183  0.1238270027283580
  0.7547690160587572  0.4966337547419254  0.6278630805009532
  0.2502953273160468  0.9983362181932518  0.3753064635268628
  0.2493830765970705  0.9999825982949686  0.8748443220596503
  0.2472785000122909  0.5023253161944892  0.3743029295699690
  0.2512758118819313  0.5008525284515616  0.8747291164104384
  0.7500814732991840  0.9896820113203876  0.3767068083570884
  0.7496126842163923  0.9987244010633577  0.8751236096402311
  0.7560663930481207  0.5035713226541437  0.3723170884643591
  0.7484492689662766  0.5014721854033120  0.8752946948071659
  0.9992071762645127  0.0003412848172622  0.0003400648808522
  0.0008913048817368  0.0019139103658581  0.4995712883488977
  0.9995112989738488  0.4996052926313145  0.9999879585243496
  0.9962881854682188  0.4973272920008339  0.4989215605672729
  0.5005145457614911  0.0008098928107785  0.9998823281345488
  0.5019089089074967  0.9991089438122730  0.4994553687359439
  0.4995390411483334  0.4992417957765387  0.9989712006273355
  0.2506006025057420  0.2505529367087938  0.9996047227125123
  0.2500938881484732  0.2494198343654745  0.5010205024263704
  0.2496564882018793  0.7500094978876528  0.0002386920824358
  0.2512201938754501  0.7503040927992312  0.5005874787526586
  0.7499993528410520  0.2504249301506529  0.9994573548154351
  0.7505164446488417  0.7505340222059025  0.9996113328990814
  0.2510149042182809  0.2504077588463916  0.2500732280815025
  0.2503177402255382  0.2498271785275580  0.7496098211712733
  0.2504193663171860  0.7495076974658529  0.2489144771680658
  0.2495595862491890  0.7499951758531479  0.7493291707285330
  0.7531495308109828  0.2478554229165935  0.2442081519217960
  0.7499795964291308  0.2496060492556372  0.7525794528202046
  0.7494593698596063  0.7487231798933294  0.2508501915763694
  0.7488441861722237  0.7487587628212600  0.7478125303969557
  0.0006660421105321  0.9991830374359572  0.2519219977135207
  0.9992377700705154  0.0003477830567462  0.7496985783423882
  0.0007690129090462  0.5000652264681487  0.2502260353930910
  0.0000583945842850  0.4990295641502042  0.7503681652257431
  0.5011822689478190  0.0002761544496839  0.2504551508265062
  0.5006758199460635  0.0006122711638027  0.7500205962017685
  0.5036853221188696  0.5001222215336147  0.2499342737605166
  0.5011048032518836  0.5003927150963068  0.7475849260543439
  0.4958644759935650  0.4932896688590001  0.4960389770080122
  0.7515348152958784  0.2489721640632832  0.5090594537361957
  0.7570382408968556  0.7596909794575433  0.5007816118666731
  0.1114409700928939  0.1396815330004388  0.2490904085787075
  0.1082487084143604  0.1405068916804453  0.7524282408905087
  0.1092146137835524  0.6401875664353492  0.2478082484014513
  0.1086199166194848  0.6400664999143567  0.7484783406234369
  0.6136004176320886  0.1394452629344314  0.2607348224266687
  0.6084740608755568  0.1416026691904802  0.7517960693740310
  0.6099138930712545  0.6417263009720087  0.2434717091132662
  0.6090203508688161  0.6415688130087628  0.7553614344918154
  0.3900447195823075  0.3623499583685517  0.2546589320038371
  0.3907612188162516  0.3591240274369725  0.7465432617699658
  0.3892623025530119  0.8613864454099861  0.2471730777737520
  0.3904147002928034  0.8604625214416917  0.7486341062673297
  0.8880757206028009  0.3588436557924753  0.2633909156297270
  0.8911619483749980  0.3583029428718507  0.7500097024982217
  0.8891723858710650  0.8588404555599207  0.2549209627978658
  0.8894340621238475  0.8582770091754917  0.7440823093186910
  0.3623554556145516  0.1123793136435732  0.2499487874507967
  0.3596062036470142  0.1091141045581458  0.7496581767619445
  0.3589814859711685  0.6112718949181111  0.2498120739481655
  0.3594107144813097  0.6096548506691648  0.7468066581571475
  0.8608013305897336  0.1097855987081489  0.2621695165931706
  0.8577498575460721  0.1079370614611082  0.7512453989049133
  0.8596855815486794  0.6090485661255022  0.2486673922152983
  0.8591593211477108  0.6082425968659926  0.7503584550948879
  0.1396594102675997  0.3898638739366665  0.2500739493268904
  0.1409168637264215  0.3909993942737439  0.7501529571834215
  0.1399990249521877  0.8896430609145595  0.2468623368495612
  0.1394424360440741  0.8906299116722722  0.7490592352025102
  0.6387409722337831  0.3921594052412570  0.2555597765118252
  0.6419131418239994  0.3905794902688781  0.7525911594342690
  0.6399869518549081  0.8899134239206217  0.2507673170478254
  0.6410129226706585  0.8912076979966548  0.7487807491714215
  0.3578745339695354  0.3909785649254828  0.0002992399145554
  0.3596367849139824  0.8913065507454081  0.0010715433724345
  0.3591511866212447  0.8920831903111972  0.5019205899220235
  0.8584950367951878  0.3915868720814144  0.9989143338069428
  0.8589862723207118  0.8916536891051969  0.0002039925108145
  0.8636850912936631  0.8888917945844679  0.5017820699681139
  0.1404965096857263  0.1093667517816097  0.0011167788792035
  0.1387806576139401  0.1112052836261463  0.4997416124983950
  0.1397664757216157  0.6087999853463362  0.0012310452357078
  0.1352463020382239  0.6133197682029399  0.5016764664013738
  0.6413955832279704  0.1090850786392297  0.9992269825613054
  0.6387162309324637  0.1159228401419352  0.4881768063532367
  0.6401010735447275  0.6105169594060862  1.0000488758822532
  0.1086746950300886  0.3586031363469456  1.0001280453527366
  0.1114149170108509  0.3613366392383137  0.5002957402653456
  0.1088483542172040  0.8598148179801710  0.0010084701064240
  0.1109155378137554  0.8612497187725432  0.5027865847031032
  0.6077559167032336  0.3600442305743112  0.9970510797692048
  0.6093949216944745  0.8599528679445586  0.0006250326343719
  0.6080629066064676  0.8567983496550896  0.4995367720020213
  0.3912215462143560  0.1412683884290631  1.0003121302203937
  0.3899090636356576  0.1405802444219618  0.5010412885716498
  0.3897003996505609  0.6410807966532380  0.0000057996813453
  0.8916558097184267  0.1415914190075633  1.0002177747555676
  0.8858701208162045  0.1370625895752033  0.4897138058192367
  0.8907695373951463  0.6406129970023433  0.0007927865038212
  0.9934298929716255  0.0019185335701841  0.1266939492856347
  0.9981753620553655  0.0076153409688795  0.6245526090428761
  0.9957808421754333  0.4935054356657450  0.1261015822953055
  0.9959970491035901  0.4959160750899704  0.6243984581541333
  0.5041903732458958  0.0048561125206548  0.1258821639018834
  0.5060497981474192  0.0049632341846638  0.6242054782577328
  0.4993017046749296  0.4964783390442947  0.1246242407598448
  0.5145866063528870  0.5017872381796741  0.6245745429925725
  0.0087930519774423  0.9942350818868286  0.3754299792800897
  0.9983519188782621  0.9970915111711439  0.8749501714613893
  0.0063056895605337  0.5072035983981047  0.3745326686301739
  0.0005771956102819  0.5002245079024973  0.8751379756005426
  0.4934839292277362  0.9956340375085501  0.3747800883030125
  0.4995591661979402  0.9988544933262171  0.8750515652386301
  0.4953453135266717  0.4998652323423580  0.8747259891812752
  0.2500166776039602  0.2498249462188292  0.3753779234653480
  0.2513234712218167  0.2503439480547255  0.8753068033713488
  0.2481515978104520  0.7516186593383928  0.3747519739503128
  0.2494452530454016  0.7498758736750303  0.8745429082672379
  0.7513613090251208  0.2495588211253184  0.8750525403122973
  0.7527814868409579  0.7524721769656463  0.8749453425446270
  0.2517087353119800  0.2518939523948717  0.1255091328253838
  0.2461861356791405  0.2463918024192986  0.6261699434967521
  0.2501790330488632  0.7493745685988253  0.1241226301180059
  0.2490847158854033  0.7502617984312874  0.6253498467174932
  0.7444501517283388  0.2554365281294918  0.1224009171795016
  0.7486843891858667  0.2489442775597526  0.6269674078719062
  0.7529583262586116  0.7532384859545918  0.1249101787138461
  0.7378420929650418  0.7370019588414923  0.6232216333120972
  0.8648648077320540  0.3802235631482976  0.4882737292712177
  0.3924987886477700  0.6432509574604272  0.5007291600017488
  0.5088506261215449  0.5196934285667010  0.3759756338890562
  0.3562575392063274  0.3889788655428877  0.5054243051608909
  0.8738825111564014  0.6274942947190104  0.5001062862423294
  0.7400811402028166  0.7398291215427996  0.3765324650494002
  0.6227988186434774  0.3708064070600415  0.4879950136589578
 
  0.00000000E+00  0.00000000E+00  0.00000000E+00
  0.00000000E+00  0.00000000E+00  0.00000000E+00
  0.00000000E+00  0.00000000E+00  0.00000000E+00
  0.00000000E+00  0.00000000E+00  0.00000000E+00
  0.00000000E+00  0.00000000E+00  0.00000000E+00
  0.00000000E+00  0.00000000E+00  0.00000000E+00
  0.00000000E+00  0.00000000E+00  0.00000000E+00
  0.00000000E+00  0.00000000E+00  0.00000000E+00
  0.00000000E+00  0.00000000E+00  0.00000000E+00
  0.00000000E+00  0.00000000E+00  0.00000000E+00
  0.00000000E+00  0.00000000E+00  0.00000000E+00
  0.00000000E+00  0.00000000E+00  0.00000000E+00
  0.00000000E+00  0.00000000E+00  0.00000000E+00
  0.00000000E+00  0.00000000E+00  0.00000000E+00
  0.00000000E+00  0.00000000E+00  0.00000000E+00
  0.00000000E+00  0.00000000E+00  0.00000000E+00
  0.00000000E+00  0.00000000E+00  0.00000000E+00
  0.00000000E+00  0.00000000E+00  0.00000000E+00
  0.00000000E+00  0.00000000E+00  0.00000000E+00
  0.00000000E+00  0.00000000E+00  0.00000000E+00
  0.00000000E+00  0.00000000E+00  0.00000000E+00
  0.00000000E+00  0.00000000E+00  0.00000000E+00
  0.00000000E+00  0.00000000E+00  0.00000000E+00
  0.00000000E+00  0.00000000E+00  0.00000000E+00
  0.00000000E+00  0.00000000E+00  0.00000000E+00
  0.00000000E+00  0.00000000E+00  0.00000000E+00
  0.00000000E+00  0.00000000E+00  0.00000000E+00
  0.00000000E+00  0.00000000E+00  0.00000000E+00
  0.00000000E+00  0.00000000E+00  0.00000000E+00
  0.00000000E+00  0.00000000E+00  0.00000000E+00
  0.00000000E+00  0.00000000E+00  0.00000000E+00
  0.00000000E+00  0.00000000E+00  0.00000000E+00
  0.00000000E+00  0.00000000E+00  0.00000000E+00
  0.00000000E+00  0.00000000E+00  0.00000000E+00
  0.00000000E+00  0.00000000E+00  0.00000000E+00
  0.00000000E+00  0.00000000E+00  0.00000000E+00
  0.00000000E+00  0.00000000E+00  0.00000000E+00
  0.00000000E+00  0.00000000E+00  0.00000000E+00
  0.00000000E+00  0.00000000E+00  0.00000000E+00
  0.00000000E+00  0.00000000E+00  0.00000000E+00
  0.00000000E+00  0.00000000E+00  0.00000000E+00
  0.00000000E+00  0.00000000E+00  0.00000000E+00
  0.00000000E+00  0.00000000E+00  0.00000000E+00
  0.00000000E+00  0.00000000E+00  0.00000000E+00
  0.00000000E+00  0.00000000E+00  0.00000000E+00
  0.00000000E+00  0.00000000E+00  0.00000000E+00
  0.00000000E+00  0.00000000E+00  0.00000000E+00
  0.00000000E+00  0.00000000E+00  0.00000000E+00
  0.00000000E+00  0.00000000E+00  0.00000000E+00
  0.00000000E+00  0.00000000E+00  0.00000000E+00
  0.00000000E+00  0.00000000E+00  0.00000000E+00
  0.00000000E+00  0.00000000E+00  0.00000000E+00
  0.00000000E+00  0.00000000E+00  0.00000000E+00
  0.00000000E+00  0.00000000E+00  0.00000000E+00
  0.00000000E+00  0.00000000E+00  0.00000000E+00
  0.00000000E+00  0.00000000E+00  0.00000000E+00
  0.00000000E+00  0.00000000E+00  0.00000000E+00
  0.00000000E+00  0.00000000E+00  0.00000000E+00
  0.00000000E+00  0.00000000E+00  0.00000000E+00
  0.00000000E+00  0.00000000E+00  0.00000000E+00
  0.00000000E+00  0.00000000E+00  0.00000000E+00
  0.00000000E+00  0.00000000E+00  0.00000000E+00
  0.00000000E+00  0.00000000E+00  0.00000000E+00
  0.00000000E+00  0.00000000E+00  0.00000000E+00
  0.00000000E+00  0.00000000E+00  0.00000000E+00
  0.00000000E+00  0.00000000E+00  0.00000000E+00
  0.00000000E+00  0.00000000E+00  0.00000000E+00
  0.00000000E+00  0.00000000E+00  0.00000000E+00
  0.00000000E+00  0.00000000E+00  0.00000000E+00
  0.00000000E+00  0.00000000E+00  0.00000000E+00
  0.00000000E+00  0.00000000E+00  0.00000000E+00
  0.00000000E+00  0.00000000E+00  0.00000000E+00
  0.00000000E+00  0.00000000E+00  0.00000000E+00
  0.00000000E+00  0.00000000E+00  0.00000000E+00
  0.00000000E+00  0.00000000E+00  0.00000000E+00
  0.00000000E+00  0.00000000E+00  0.00000000E+00
  0.00000000E+00  0.00000000E+00  0.00000000E+00
  0.00000000E+00  0.00000000E+00  0.00000000E+00
  0.00000000E+00  0.00000000E+00  0.00000000E+00
  0.00000000E+00  0.00000000E+00  0.00000000E+00
  0.00000000E+00  0.00000000E+00  0.00000000E+00
  0.00000000E+00  0.00000000E+00  0.00000000E+00
  0.00000000E+00  0.00000000E+00  0.00000000E+00
  0.00000000E+00  0.00000000E+00  0.00000000E+00
  0.00000000E+00  0.00000000E+00  0.00000000E+00
  0.00000000E+00  0.00000000E+00  0.00000000E+00
  0.00000000E+00  0.00000000E+00  0.00000000E+00
  0.00000000E+00  0.00000000E+00  0.00000000E+00
  0.00000000E+00  0.00000000E+00  0.00000000E+00
  0.00000000E+00  0.00000000E+00  0.00000000E+00
  0.00000000E+00  0.00000000E+00  0.00000000E+00
  0.00000000E+00  0.00000000E+00  0.00000000E+00
  0.00000000E+00  0.00000000E+00  0.00000000E+00
  0.00000000E+00  0.00000000E+00  0.00000000E+00
  0.00000000E+00  0.00000000E+00  0.00000000E+00
  0.00000000E+00  0.00000000E+00  0.00000000E+00
  0.00000000E+00  0.00000000E+00  0.00000000E+00
  0.00000000E+00  0.00000000E+00  0.00000000E+00
  0.00000000E+00  0.00000000E+00  0.00000000E+00
  0.00000000E+00  0.00000000E+00  0.00000000E+00
  0.00000000E+00  0.00000000E+00  0.00000000E+00
  0.00000000E+00  0.00000000E+00  0.00000000E+00
  0.00000000E+00  0.00000000E+00  0.00000000E+00
  0.00000000E+00  0.00000000E+00  0.00000000E+00
  0.00000000E+00  0.00000000E+00  0.00000000E+00
  0.00000000E+00  0.00000000E+00  0.00000000E+00
  0.00000000E+00  0.00000000E+00  0.00000000E+00
  0.00000000E+00  0.00000000E+00  0.00000000E+00
  0.00000000E+00  0.00000000E+00  0.00000000E+00
  0.00000000E+00  0.00000000E+00  0.00000000E+00
  0.00000000E+00  0.00000000E+00  0.00000000E+00
  0.00000000E+00  0.00000000E+00  0.00000000E+00
  0.00000000E+00  0.00000000E+00  0.00000000E+00
  0.00000000E+00  0.00000000E+00  0.00000000E+00
  0.00000000E+00  0.00000000E+00  0.00000000E+00
  0.00000000E+00  0.00000000E+00  0.00000000E+00
  0.00000000E+00  0.00000000E+00  0.00000000E+00
  0.00000000E+00  0.00000000E+00  0.00000000E+00
  0.00000000E+00  0.00000000E+00  0.00000000E+00
  0.00000000E+00  0.00000000E+00  0.00000000E+00
  0.00000000E+00  0.00000000E+00  0.00000000E+00
  0.00000000E+00  0.00000000E+00  0.00000000E+00
  0.00000000E+00  0.00000000E+00  0.00000000E+00
  0.00000000E+00  0.00000000E+00  0.00000000E+00
  0.00000000E+00  0.00000000E+00  0.00000000E+00
  0.00000000E+00  0.00000000E+00  0.00000000E+00
  0.00000000E+00  0.00000000E+00  0.00000000E+00
  0.00000000E+00  0.00000000E+00  0.00000000E+00
  0.00000000E+00  0.00000000E+00  0.00000000E+00
  0.00000000E+00  0.00000000E+00  0.00000000E+00
  0.00000000E+00  0.00000000E+00  0.00000000E+00
  0.00000000E+00  0.00000000E+00  0.00000000E+00
  0.00000000E+00  0.00000000E+00  0.00000000E+00
  0.00000000E+00  0.00000000E+00  0.00000000E+00
  0.00000000E+00  0.00000000E+00  0.00000000E+00
  0.00000000E+00  0.00000000E+00  0.00000000E+00
  0.00000000E+00  0.00000000E+00  0.00000000E+00
  0.00000000E+00  0.00000000E+00  0.00000000E+00
  0.00000000E+00  0.00000000E+00  0.00000000E+00
  0.00000000E+00  0.00000000E+00  0.00000000E+00
  0.00000000E+00  0.00000000E+00  0.00000000E+00
  0.00000000E+00  0.00000000E+00  0.00000000E+00
  0.00000000E+00  0.00000000E+00  0.00000000E+00
  0.00000000E+00  0.00000000E+00  0.00000000E+00
  0.00000000E+00  0.00000000E+00  0.00000000E+00
  0.00000000E+00  0.00000000E+00  0.00000000E+00
  0.00000000E+00  0.00000000E+00  0.00000000E+00
  0.00000000E+00  0.00000000E+00  0.00000000E+00
  0.00000000E+00  0.00000000E+00  0.00000000E+00
  0.00000000E+00  0.00000000E+00  0.00000000E+00
  0.00000000E+00  0.00000000E+00  0.00000000E+00
  0.00000000E+00  0.00000000E+00  0.00000000E+00
  0.00000000E+00  0.00000000E+00  0.00000000E+00
  0.00000000E+00  0.00000000E+00  0.00000000E+00
  0.00000000E+00  0.00000000E+00  0.00000000E+00
  0.00000000E+00  0.00000000E+00  0.00000000E+00
  0.00000000E+00  0.00000000E+00  0.00000000E+00
  0.00000000E+00  0.00000000E+00  0.00000000E+00
