Sr   Ti   Fe   O                        
   1.00000000000000     
    11.1989999999999998    0.0000000000000000    0.0000000000000000
     0.0000000000000000   11.1989999999999998    0.0000000000000000
     0.0000000000000000    0.0000000000000000   15.9830000000000005
   Sr   Ti   Fe   O 
    32    30     2    94
Direct
  0.0040387699705114  0.2501059149299371  0.1232921216315085
  0.0019657472322866  0.2494805595637929  0.6227038888905695
  0.9986900170709108  0.7510542260319921  0.1256487038191666
  0.9960280729482289  0.7487880658598514  0.6214818359887819
  0.4953481593034012  0.2502131319568728  0.1227887636289552
  0.4957564047400269  0.2452152435662453  0.6280208819987236
  0.5001137164002437  0.7486416677129641  0.1247546916927344
  0.4995985508193598  0.7577000125018005  0.6291463580899883
  0.0103787169505660  0.2498433450137247  0.3765035147053289
  0.9992505773219524  0.2504442492736044  0.8736273925068831
  0.0009141888702570  0.7496646315272413  0.3771633977853888
  0.9974759401976627  0.7510123843556806  0.8736670153020245
  0.4888522245498828  0.2449684031758949  0.3728778216941015
  0.4981241588774712  0.2521126442439613  0.8747699965556679
  0.4996951015428600  0.7562458347764387  0.3712048743389171
  0.4981283393067970  0.7501415964096924  0.8763328177279167
  0.2497035671199476  0.9996972177815658  0.1249432677297572
  0.2485267055081704  0.9995981646738821  0.6238022597449067
  0.2502803827307230  0.5003647470117962  0.1245195035822445
  0.2459681579823215  0.4992749970888617  0.6284951716082752
  0.7498574976923731  0.9949469479587685  0.1241637458230484
  0.7486986559717028  0.9960252945464156  0.6230807094360247
  0.7486500059320847  0.5056450004685865  0.1227042436378834
  0.7552472283256504  0.4973984735494682  0.6283516929023034
  0.2506117332448112  0.9978809672233043  0.3757371296073530
  0.2487938966447653  0.9995592867922722  0.8745411643923516
  0.2464219594817473  0.5002439685017813  0.3722577464891016
  0.2493066814889611  0.5000000571123211  0.8763603595287827
  0.7494523076009277  0.9882085332981708  0.3800783503514258
  0.7494440744832955  0.9995679931902709  0.8730502178551507
  0.7640414739922747  0.5077343620350668  0.3716410382283193
  0.7483944423993896  0.5023027562994353  0.8750771042015285
  0.9984442796911637  0.0007404039799895  0.9999097798699790
  0.9977181973033301  0.9993580947181105  0.4986981841911604
  0.9990381731844642  0.4996679958548056  0.9997877017119722
  0.9998614182538981  0.4983562156741189  0.4991323947459997
  0.4999897471304893  0.0004509790591406  0.9998421970896092
  0.5027246251070556  0.0011136130815064  0.4990913524333756
  0.4995295552412575  0.4992309229972117  0.0002651484002642
  0.2492709772567634  0.2494898956743020  0.9994789490679882
  0.2500098498209425  0.2459325624568125  0.5007266016039099
  0.2486798749443380  0.7504592779145920  0.0004167015915320
  0.2507914047773118  0.7523681837331253  0.5007609141339411
  0.7500026126970386  0.2500194866483367  0.9944296374298520
  0.7496015272586177  0.7510021123881885  0.9993099862915095
  0.2499564436016455  0.2491739447091832  0.2488785464321872
  0.2487352631749540  0.2498895517048747  0.7504465995730328
  0.2498949663678472  0.7504545021800469  0.2483359727899519
  0.2485880592213498  0.7500262742120436  0.7499317957382348
  0.7500195917567688  0.2495910199848812  0.2414829275696106
  0.7474395912103188  0.2509645063937601  0.7468464879701360
  0.7499131927403720  0.7489060506705297  0.2508075838504281
  0.7479292458708301  0.7489271911170543  0.7480482206148835
  1.0000511185795871  0.9997538378418795  0.2519179777329876
  0.9984548920120605  0.0007116291158028  0.7481552834957128
  0.0013575482153194  0.5002053736102816  0.2494512053972917
  0.9989338815674786  0.4998886937028180  0.7502928240715452
  0.5009318297298319  0.9997619636789897  0.2499552880111592
  0.4997832479112491  0.0012674832359319  0.7507846454545685
  0.4992589917356468  0.4997363729001829  0.2522116711400642
  0.4987463792679075  0.5012392982456604  0.7505553698510461
  0.4878742932409794  0.5052966566676118  0.5006970970464438
  0.7622872700054086  0.2453718560555546  0.5052929143617386
  0.7533659289722376  0.7500577602084225  0.5007959268089740
  0.1106156169712001  0.1395459713492732  0.2491407876158619
  0.1078282839470056  0.1418583614263579  0.7516403334931824
  0.1113818250997605  0.6390775781462876  0.2474708277178952
  0.1080994804429352  0.6407400222734612  0.7490712187287674
  0.6146457946956499  0.1403010565765549  0.2594369329491799
  0.6071223012118931  0.1415977251403828  0.7549622221053736
  0.6111785793548584  0.6352187283759655  0.2467590062491458
  0.6065143205982202  0.6407666111347208  0.7564965699510549
  0.3889099823645075  0.3597137060916296  0.2477160810065690
  0.3886264771765718  0.3596369393976923  0.7497700247512852
  0.3896200248064857  0.8608072389996473  0.2460058212596554
  0.3887701227227747  0.8616585558270540  0.7501892032426205
  0.8850418907524010  0.3591789310856598  0.2615222972160463
  0.8893043016970176  0.3599646660352961  0.7481599478952463
  0.8878901307991725  0.8621205192802260  0.2510736915378123
  0.8883931573476405  0.8607553095130690  0.7453525279707859
  0.3621649335514840  0.1117556571279367  0.2496005861020552
  0.3585528755366293  0.1100793277005719  0.7489859278988860
  0.3605003501868600  0.6106174394964363  0.2450143587876228
  0.3568552407199163  0.6104884031101605  0.7537767758353897
  0.8582232019933166  0.1151840787160163  0.2644432215641020
  0.8566779767703525  0.1103801513859650  0.7461465030294454
  0.8634090160293054  0.6112269316210125  0.2448660576959210
  0.8601462137661681  0.6100815771029289  0.7525393113663397
  0.1390528827602220  0.3883064581859175  0.2487708046156599
  0.1396131754683259  0.3907398128804735  0.7517567527000730
  0.1397174844423651  0.8894230753445143  0.2457410658336006
  0.1383959517442822  0.8909930961959087  0.7494336592805162
  0.6406237292870131  0.3821313326481320  0.2668826345458535
  0.6377934933536927  0.3928926348298534  0.7555891232206319
  0.6380462432368111  0.8881307363904284  0.2497213626268970
  0.6388510042977821  0.8914013482120233  0.7500644853897837
  0.3587407603051609  0.3893921692964936  0.0021732014808061
  0.3593579636513851  0.8908738936556995  0.0016399465126636
  0.3592086733266550  0.8933737406453267  0.5020843999315041
  0.8575865725401913  0.3912306939242747  0.0004472790187959
  0.8584516345977632  0.8920128687592729  0.0004557413486126
  0.8688068198785710  0.8908567301870223  0.5021930263931378
  0.1397115817618947  0.1088500118763261  0.0001713632622093
  0.1404066426497508  0.1126632675572465  0.4986955530748095
  0.1390131662903576  0.6091420951009484  0.0011008078630274
  0.1482794677568318  0.6093943919163273  0.5007087540264920
  0.6418316524865472  0.1095834349820126  0.9993896765165002
  0.6322487728121129  0.1281223617539943  0.4866343521358850
  0.6392730876683929  0.6099905998861660  0.9995434447221455
  0.1089890313245048  0.3588105331131524  0.9990953309523677
  0.1232936607106055  0.3652168863551939  0.4993506287656226
  0.1075425140024450  0.8607339401610011  0.0012571412461796
  0.1142698154325657  0.8588332262597295  0.5024366460951604
  0.6095742488643785  0.3580577140629362  0.9990497483896089
  0.6083520933257405  0.8601263476500228  0.0006867903506443
  0.6091157102845026  0.8658962274335257  0.4999240777454360
  0.3903578573217237  0.1406192211182633  0.0002935585305399
  0.3859923913324115  0.1365866948433876  0.5007752468544032
  0.3891380848499674  0.6393851163225127  0.0027970686226157
  0.8907832469755104  0.1428983970745119  0.0005482422598242
  0.8912644569498321  0.1333157163855997  0.4850743787058920
  0.8900755381142688  0.6402790001784796  0.0012063013163466
  0.9926752664102767  0.0050760094190533  0.1264462890032235
  0.0020306094174640  0.0079369641280014  0.6243451051848783
  0.9977874712025206  0.4925128200975755  0.1253709323103629
  1.0004575344792119  0.4968165105060478  0.6249814541278635
  0.5043587642625202  0.0060518329046143  0.1257074971398983
  0.5057804882489989  0.0064189791565848  0.6253369319039990
  0.5068846292475586  0.4923330107239286  0.1262184881559982
  0.4952047094782598  0.5055944434614281  0.6270206871538050
  0.0121315209376681  0.9907595510728867  0.3734919794052523
  0.9960011664347266  0.0003287163394370  0.8744774301138000
  0.0080356471428120  0.5054070306347772  0.3728239375155737
  0.9991033388736867  0.4992664942661103  0.8755137399729094
  0.4934687111292179  0.9957862757234809  0.3733534004972903
  0.4976575005443731  0.9993487295258662  0.8758869711851809
  0.4944351223580624  0.4988305298865586  0.8773979069362843
  0.2526672758952250  0.2509763101976403  0.3740619734834981
  0.2508190190807246  0.2492197840774637  0.8754592198101430
  0.2524562253050413  0.7504606592605750  0.3738790687182690
  0.2478054542170814  0.7519099979118239  0.8760873826552346
  0.7532117644811661  0.2499143347943572  0.8749510454258542
  0.7516395918237178  0.7527501426529360  0.8758937898019833
  0.2485016618849696  0.2482249846542498  0.1243757617234596
  0.2476684351916043  0.2500517680242555  0.6258388697682888
  0.2482308219236260  0.7505196585902533  0.1238935685365802
  0.2529960899847807  0.7480353890206621  0.6260086655816148
  0.7496721587762289  0.2509984882739366  0.1262340152765735
  0.7318937012929967  0.2597274276381203  0.6280735337217205
  0.7491582566213073  0.7514779228656039  0.1238967994113294
  0.7384780632387881  0.7390995972172315  0.6282979673450210
  0.8757458259580273  0.3767503634842398  0.4899472985717326
  0.4069611970400606  0.6548531831923604  0.5008835029175842
  0.4847032232621452  0.5067893982134373  0.3744064367204596
  0.3787995896876273  0.3766248727567985  0.5020371406735801
  0.8920475560972148  0.6306853212293566  0.4984875360607372
  0.7455114679254922  0.7406320906979450  0.3712423964779693
  0.6496423554183566  0.4835289296571067  0.4973127784613048
 
  0.00000000E+00  0.00000000E+00  0.00000000E+00
  0.00000000E+00  0.00000000E+00  0.00000000E+00
  0.00000000E+00  0.00000000E+00  0.00000000E+00
  0.00000000E+00  0.00000000E+00  0.00000000E+00
  0.00000000E+00  0.00000000E+00  0.00000000E+00
  0.00000000E+00  0.00000000E+00  0.00000000E+00
  0.00000000E+00  0.00000000E+00  0.00000000E+00
  0.00000000E+00  0.00000000E+00  0.00000000E+00
  0.00000000E+00  0.00000000E+00  0.00000000E+00
  0.00000000E+00  0.00000000E+00  0.00000000E+00
  0.00000000E+00  0.00000000E+00  0.00000000E+00
  0.00000000E+00  0.00000000E+00  0.00000000E+00
  0.00000000E+00  0.00000000E+00  0.00000000E+00
  0.00000000E+00  0.00000000E+00  0.00000000E+00
  0.00000000E+00  0.00000000E+00  0.00000000E+00
  0.00000000E+00  0.00000000E+00  0.00000000E+00
  0.00000000E+00  0.00000000E+00  0.00000000E+00
  0.00000000E+00  0.00000000E+00  0.00000000E+00
  0.00000000E+00  0.00000000E+00  0.00000000E+00
  0.00000000E+00  0.00000000E+00  0.00000000E+00
  0.00000000E+00  0.00000000E+00  0.00000000E+00
  0.00000000E+00  0.00000000E+00  0.00000000E+00
  0.00000000E+00  0.00000000E+00  0.00000000E+00
  0.00000000E+00  0.00000000E+00  0.00000000E+00
  0.00000000E+00  0.00000000E+00  0.00000000E+00
  0.00000000E+00  0.00000000E+00  0.00000000E+00
  0.00000000E+00  0.00000000E+00  0.00000000E+00
  0.00000000E+00  0.00000000E+00  0.00000000E+00
  0.00000000E+00  0.00000000E+00  0.00000000E+00
  0.00000000E+00  0.00000000E+00  0.00000000E+00
  0.00000000E+00  0.00000000E+00  0.00000000E+00
  0.00000000E+00  0.00000000E+00  0.00000000E+00
  0.00000000E+00  0.00000000E+00  0.00000000E+00
  0.00000000E+00  0.00000000E+00  0.00000000E+00
  0.00000000E+00  0.00000000E+00  0.00000000E+00
  0.00000000E+00  0.00000000E+00  0.00000000E+00
  0.00000000E+00  0.00000000E+00  0.00000000E+00
  0.00000000E+00  0.00000000E+00  0.00000000E+00
  0.00000000E+00  0.00000000E+00  0.00000000E+00
  0.00000000E+00  0.00000000E+00  0.00000000E+00
  0.00000000E+00  0.00000000E+00  0.00000000E+00
  0.00000000E+00  0.00000000E+00  0.00000000E+00
  0.00000000E+00  0.00000000E+00  0.00000000E+00
  0.00000000E+00  0.00000000E+00  0.00000000E+00
  0.00000000E+00  0.00000000E+00  0.00000000E+00
  0.00000000E+00  0.00000000E+00  0.00000000E+00
  0.00000000E+00  0.00000000E+00  0.00000000E+00
  0.00000000E+00  0.00000000E+00  0.00000000E+00
  0.00000000E+00  0.00000000E+00  0.00000000E+00
  0.00000000E+00  0.00000000E+00  0.00000000E+00
  0.00000000E+00  0.00000000E+00  0.00000000E+00
  0.00000000E+00  0.00000000E+00  0.00000000E+00
  0.00000000E+00  0.00000000E+00  0.00000000E+00
  0.00000000E+00  0.00000000E+00  0.00000000E+00
  0.00000000E+00  0.00000000E+00  0.00000000E+00
  0.00000000E+00  0.00000000E+00  0.00000000E+00
  0.00000000E+00  0.00000000E+00  0.00000000E+00
  0.00000000E+00  0.00000000E+00  0.00000000E+00
  0.00000000E+00  0.00000000E+00  0.00000000E+00
  0.00000000E+00  0.00000000E+00  0.00000000E+00
  0.00000000E+00  0.00000000E+00  0.00000000E+00
  0.00000000E+00  0.00000000E+00  0.00000000E+00
  0.00000000E+00  0.00000000E+00  0.00000000E+00
  0.00000000E+00  0.00000000E+00  0.00000000E+00
  0.00000000E+00  0.00000000E+00  0.00000000E+00
  0.00000000E+00  0.00000000E+00  0.00000000E+00
  0.00000000E+00  0.00000000E+00  0.00000000E+00
  0.00000000E+00  0.00000000E+00  0.00000000E+00
  0.00000000E+00  0.00000000E+00  0.00000000E+00
  0.00000000E+00  0.00000000E+00  0.00000000E+00
  0.00000000E+00  0.00000000E+00  0.00000000E+00
  0.00000000E+00  0.00000000E+00  0.00000000E+00
  0.00000000E+00  0.00000000E+00  0.00000000E+00
  0.00000000E+00  0.00000000E+00  0.00000000E+00
  0.00000000E+00  0.00000000E+00  0.00000000E+00
  0.00000000E+00  0.00000000E+00  0.00000000E+00
  0.00000000E+00  0.00000000E+00  0.00000000E+00
  0.00000000E+00  0.00000000E+00  0.00000000E+00
  0.00000000E+00  0.00000000E+00  0.00000000E+00
  0.00000000E+00  0.00000000E+00  0.00000000E+00
  0.00000000E+00  0.00000000E+00  0.00000000E+00
  0.00000000E+00  0.00000000E+00  0.00000000E+00
  0.00000000E+00  0.00000000E+00  0.00000000E+00
  0.00000000E+00  0.00000000E+00  0.00000000E+00
  0.00000000E+00  0.00000000E+00  0.00000000E+00
  0.00000000E+00  0.00000000E+00  0.00000000E+00
  0.00000000E+00  0.00000000E+00  0.00000000E+00
  0.00000000E+00  0.00000000E+00  0.00000000E+00
  0.00000000E+00  0.00000000E+00  0.00000000E+00
  0.00000000E+00  0.00000000E+00  0.00000000E+00
  0.00000000E+00  0.00000000E+00  0.00000000E+00
  0.00000000E+00  0.00000000E+00  0.00000000E+00
  0.00000000E+00  0.00000000E+00  0.00000000E+00
  0.00000000E+00  0.00000000E+00  0.00000000E+00
  0.00000000E+00  0.00000000E+00  0.00000000E+00
  0.00000000E+00  0.00000000E+00  0.00000000E+00
  0.00000000E+00  0.00000000E+00  0.00000000E+00
  0.00000000E+00  0.00000000E+00  0.00000000E+00
  0.00000000E+00  0.00000000E+00  0.00000000E+00
  0.00000000E+00  0.00000000E+00  0.00000000E+00
  0.00000000E+00  0.00000000E+00  0.00000000E+00
  0.00000000E+00  0.00000000E+00  0.00000000E+00
  0.00000000E+00  0.00000000E+00  0.00000000E+00
  0.00000000E+00  0.00000000E+00  0.00000000E+00
  0.00000000E+00  0.00000000E+00  0.00000000E+00
  0.00000000E+00  0.00000000E+00  0.00000000E+00
  0.00000000E+00  0.00000000E+00  0.00000000E+00
  0.00000000E+00  0.00000000E+00  0.00000000E+00
  0.00000000E+00  0.00000000E+00  0.00000000E+00
  0.00000000E+00  0.00000000E+00  0.00000000E+00
  0.00000000E+00  0.00000000E+00  0.00000000E+00
  0.00000000E+00  0.00000000E+00  0.00000000E+00
  0.00000000E+00  0.00000000E+00  0.00000000E+00
  0.00000000E+00  0.00000000E+00  0.00000000E+00
  0.00000000E+00  0.00000000E+00  0.00000000E+00
  0.00000000E+00  0.00000000E+00  0.00000000E+00
  0.00000000E+00  0.00000000E+00  0.00000000E+00
  0.00000000E+00  0.00000000E+00  0.00000000E+00
  0.00000000E+00  0.00000000E+00  0.00000000E+00
  0.00000000E+00  0.00000000E+00  0.00000000E+00
  0.00000000E+00  0.00000000E+00  0.00000000E+00
  0.00000000E+00  0.00000000E+00  0.00000000E+00
  0.00000000E+00  0.00000000E+00  0.00000000E+00
  0.00000000E+00  0.00000000E+00  0.00000000E+00
  0.00000000E+00  0.00000000E+00  0.00000000E+00
  0.00000000E+00  0.00000000E+00  0.00000000E+00
  0.00000000E+00  0.00000000E+00  0.00000000E+00
  0.00000000E+00  0.00000000E+00  0.00000000E+00
  0.00000000E+00  0.00000000E+00  0.00000000E+00
  0.00000000E+00  0.00000000E+00  0.00000000E+00
  0.00000000E+00  0.00000000E+00  0.00000000E+00
  0.00000000E+00  0.00000000E+00  0.00000000E+00
  0.00000000E+00  0.00000000E+00  0.00000000E+00
  0.00000000E+00  0.00000000E+00  0.00000000E+00
  0.00000000E+00  0.00000000E+00  0.00000000E+00
  0.00000000E+00  0.00000000E+00  0.00000000E+00
  0.00000000E+00  0.00000000E+00  0.00000000E+00
  0.00000000E+00  0.00000000E+00  0.00000000E+00
  0.00000000E+00  0.00000000E+00  0.00000000E+00
  0.00000000E+00  0.00000000E+00  0.00000000E+00
  0.00000000E+00  0.00000000E+00  0.00000000E+00
  0.00000000E+00  0.00000000E+00  0.00000000E+00
  0.00000000E+00  0.00000000E+00  0.00000000E+00
  0.00000000E+00  0.00000000E+00  0.00000000E+00
  0.00000000E+00  0.00000000E+00  0.00000000E+00
  0.00000000E+00  0.00000000E+00  0.00000000E+00
  0.00000000E+00  0.00000000E+00  0.00000000E+00
  0.00000000E+00  0.00000000E+00  0.00000000E+00
  0.00000000E+00  0.00000000E+00  0.00000000E+00
  0.00000000E+00  0.00000000E+00  0.00000000E+00
  0.00000000E+00  0.00000000E+00  0.00000000E+00
  0.00000000E+00  0.00000000E+00  0.00000000E+00
  0.00000000E+00  0.00000000E+00  0.00000000E+00
  0.00000000E+00  0.00000000E+00  0.00000000E+00
  0.00000000E+00  0.00000000E+00  0.00000000E+00
  0.00000000E+00  0.00000000E+00  0.00000000E+00
  0.00000000E+00  0.00000000E+00  0.00000000E+00
  0.00000000E+00  0.00000000E+00  0.00000000E+00
