Sr   Ti   Fe   O                        
   1.00000000000000     
    11.1989999999999998    0.0000000000000000    0.0000000000000000
     0.0000000000000000   11.1989999999999998    0.0000000000000000
     0.0000000000000000    0.0000000000000000   15.9830000000000005
   Sr   Ti   Fe   O 
    32    31     1    94
Direct
  0.9995090494431049  0.2492579938932171  0.1246692130520515
  0.0026441761689673  0.2476997767416353  0.6268174246323707
  0.9990307349953167  0.7511751531835505  0.1251829311276606
  0.9950639868819235  0.7507320448546180  0.6244575534093885
  0.5005618550531618  0.2495340975893028  0.1249439966415358
  0.4979113493348470  0.2365564892366600  0.6267195680656391
  0.4999035155079163  0.7520829789561340  0.1235197703124785
  0.5023227262990629  0.7523203714790639  0.6260500519052775
  0.0028438194053237  0.2492916550656582  0.3740790281167080
  0.9990013089123085  0.2498130898286547  0.8752215100932017
  0.9955655938435365  0.7495989006662453  0.3758252682805502
  0.9995863837612839  0.7508294164430305  0.8748040354665273
  0.4979673552516199  0.2386437764572653  0.3711258608024339
  0.5004821578463341  0.2464136701869209  0.8763344613323308
  0.4999436543311455  0.7574131594689254  0.3692673190585732
  0.5011995839965064  0.7546774657822863  0.8769941557259247
  0.2493222659397214 -0.0000362563802595  0.1247441993469255
  0.2488680894326030  0.9985737209786568  0.6253852075307454
  0.2493137309267237  0.5013737676994386  0.1250763872154518
  0.2358535590115135  0.4985452187318310  0.6271732702166984
  0.7507548669031683  0.9998808039691139  0.1250850058682155
  0.7488454756959581  0.9950709955100467  0.6250571418484712
  0.7510495898849786  0.5008652391966641  0.1233220004226621
  0.7697724557784222  0.4972206614876563  0.6325633826049839
  0.2484459788519706  0.9988640875118346  0.3738700984160979
  0.2493466263971728 -0.0000289643165386  0.8749264579875103
  0.2365206803174927  0.5014400312961720  0.3716695199036609
  0.2473746459990799  0.5008439250953030  0.8770643610486731
  0.7483152347434406  0.9939992960222488  0.3751680667098627
  0.7514418854766728  1.0001953852267547  0.8749115975448524
  0.7600704949263422  0.4984190253761570  0.3688161842390454
  0.7532180379253369  0.5008165511855184  0.8769874663741842
  0.9998564891039937  0.0004811089046381  0.9997214306064458
 -0.0023022275693780  0.9985360507371940  0.4995658525701275
  0.0003300096708145  0.4998813851696015  0.0003168621473040
  0.9970655192311699  0.5010997793851123  0.4995407748370333
  0.4998221540094813  0.0005085102252245 -0.0000147235807065
  0.4991359445179291  0.9956374973708739  0.4996717752411147
  0.4990748587069824  0.5000475456219584  0.0034271211242625
  0.2507850738333690  0.2506433486106026  0.0001626732186081
  0.2474968371666264  0.2448071003062279  0.5009929553954746
  0.2504853934270245  0.7496208675806236 -0.0002053237631981
  0.2439046585064323  0.7535620181090233  0.4992511515202098
  0.7502635879380867  0.2499320798934673 -0.0000200231572667
  0.7556711931201503  0.2452935990585418  0.4994461025699635
  0.7503357855180233  0.7507275442925747  1.0002061076391546
  0.2506883518757564  0.2507019726700930  0.2499492004962912
  0.2507623647544460  0.2496344597321677  0.7499754153327299
  0.2488158984652075  0.7501055365237571  0.2499058622541342
  0.2508106181819840  0.7499554703186898  0.7486159858582110
  0.7489522372953389  0.2498313377958069  0.2496919484356323
  0.7487228138503897  0.2497736014542461  0.7493507379689119
  0.7488791885679328  0.7484915817430613  0.2509015070602839
  0.7498576212178100  0.7502760525356794  0.7498017695436699
  0.9993569789860203  1.0000176034915433  0.2505411611820457
  1.0000488143611876  0.9999493345839565  0.7501778894265898
 -0.0001528404926249  0.4994166212285046  0.2480124833530511
  0.0015048020497362  0.4999301793062639  0.7524012834092066
  0.4997804823808413  0.9995443748678094  0.2483817122926384
  0.5001788940717968  0.9988388593045072  0.7508032310563858
  0.5015251946896412  0.5001812983170474  0.2482391365495426
  0.5011099402164367  0.5004115305920891  0.7595025680120442
  0.4828545895321874  0.5059342089104670  0.4910500731813157
  0.7516076163272395  0.7524884302998700  0.5015982316829811
  0.1111773286581244  0.1417173295674520  0.2503168574736754
  0.1109722072651556  0.1406709189232091  0.7539944420352380
  0.1099582275810408  0.6389700551396589  0.2502142817680158
  0.1129608295000663  0.6379529491813855  0.7497818103279105
  0.6089504717686230  0.1401361669581924  0.2486432495648765
  0.6095172130809878  0.1401447741538629  0.7512849386604110
  0.6073406943741236  0.6403624271654218  0.2435578934807488
  0.3926998842944666  0.3606491972657129  0.2534771966114617
  0.3927608690608008  0.3639050383089662  0.7380095494969029
  0.3894069045378164  0.8601648778229084  0.2485892676440641
  0.3902106571584714  0.8599902171285760  0.7500563935143894
  0.8900747336849640  0.3595322074340463  0.2515537965581006
  0.8891755472678047  0.3611780019655805  0.7487128100767924
  0.8892091208744985  0.8601953769450053  0.2519187318324322
  0.8908511200014303  0.8618713897179084  0.7524945913925152
  0.3599696602953458  0.1109013856353919  0.2514844921830651
  0.3612306680431128  0.1115157244134007  0.7495666515044148
  0.3606775389866523  0.6084108661272349  0.2564963893165138
  0.3659059430712507  0.6077422023068906  0.7369476734740174
  0.8589385717246114  0.1103345674708794  0.2541131590471115
  0.8596364129085501  0.1115134718494557  0.7472809608676544
  0.8608405890728188  0.6087207960818082  0.2465764754752406
  0.8637033205013280  0.6115422714536305  0.7545552680771839
  0.1410331264255334  0.3903342654022054  0.2483815549039064
  0.1407112172281525  0.3893079210677579  0.7522044178227822
  0.1394290520424799  0.8902095128983932  0.2471202189883594
  0.1409766733700148  0.8892079464058378  0.7515315614210031
  0.6411864941170254  0.3914408516733459  0.2444555278321864
  0.6390713905774300  0.8901651160485803  0.2493481945504900
  0.6393022107137095  0.8910061541286641  0.7526478030353166
  0.3584955419370048  0.3919269357358942  0.0010704525840696
  0.3592981733032063  0.8905647516822102  0.9996581625944931
  0.3551187181229734  0.8923981567635005  0.4996922278449862
  0.8595735401515040  0.3906602853347192  0.9999719695446803
  0.8548923072385024  0.3923620346544340  0.4989196208215801
  0.8600441662135405  0.8910131133180086  0.9999354297544788
  0.8608809504773730  0.9011364693805299  0.4981566999324521
  0.1416284635689200  0.1105430130900450  0.9994343894646461
  0.1437051871109565  0.1088792805083399  0.4981815139857955
  0.1405973021978329  0.6091187869370671  0.9999160944936096
  0.1397889775738052  0.6095787868543893  0.4990156660591024
  0.6403848316309781  0.1098267985132697  0.9992640229345042
  0.6366884850860698  0.1150647746786300  0.4995031863160236
  0.6392203656629940  0.6085850177425125 -0.0003073906234670
  0.1100696389606212  0.3586954967849980  0.9996294928012115
  0.1129081054722244  0.3605890415406718  0.5004058458535015
  0.1103729655733709  0.8596403313699644  0.9994280647241145
  0.1060275543176600  0.8581458866840389  0.5001148460113131
  0.6086110576356966  0.3602608309526975  0.0007525996169882
  0.6091037479424278  0.8603275663406373  0.0004732775569672
  0.6021226181315417  0.8577634945997533  0.5001777681211377
  0.3910183996335254  0.1414453046092884  0.0003104329645373
  0.3898908632267947  0.1403898511385863  0.4995325058644913
  0.3916067948253190  0.6407484881701822  0.9998530784950942
  0.3878101565905859  0.6430509679358201  0.4942740045382467
  0.8906391117460357  0.1410015603887827  0.9987739999437810
  0.8977410068979762  0.1459631034998153  0.4997045146781593
  0.8906964491183420  0.6398080002201242  0.9997192187488981
  0.9982295278661938  0.0023832034731672  0.1251619118453102
  0.0036632016334886  0.0017835214886341  0.6257379392596734
  0.0008778557373044  0.4981231988227457  0.1243855289474405
  0.0027234403100477  0.4988564824472826  0.6259588072210098
  0.4986575101552685  0.0009239700235796  0.1246450064771213
  0.4999616344458753  0.0006400049360701  0.6255534975536824
  0.4943634523422936  0.4998222693319966  0.1253546470042496
  0.0045735192329380  0.0014490744793588  0.3742899540994520
  0.9994981215264842  0.0014101807670540  0.8752977059586160
  0.0017221779420620  0.4982097926665590  0.3738166195244060
  0.0012636825036142  0.4981465526079784  0.8757937149305401
  0.4996226557475760 -0.0005945914974465  0.3740149254607995
  0.4980308988622169  0.0006576677962016  0.8754535154061696
  0.4927787287166965  0.4967546571375097  0.8754522706763284
  0.2532652219268897  0.2572794798456101  0.3763182951017825
  0.2576441593310995  0.2541595197500693  0.8743794521704182
  0.2455571680535912  0.7541770887416005  0.3744649032813985
  0.2546892321849954  0.7442243353141489  0.8733065846046417
  0.7385821579836931  0.2576859648626075  0.3762089198516876
  0.7487035019599211  0.2529945292035257  0.8739441742825158
  0.7420838416567824  0.7380790356155986  0.3706246229983647
  0.7488873912204480  0.7504553249546457  0.8767869493908169
  0.2530405532211635  0.2508737846546697  0.1255390085881671
  0.2430463090496602  0.2444085545738262  0.6260679405302125
  0.2515910101000298  0.7466878106826369  0.1250673493414766
  0.2477007198155814  0.7516533595624354  0.6235504932996021
  0.7524604798561007  0.2477351821480894  0.1248651928180595
  0.7414044380284511  0.2551994415467817  0.6231205001237642
  0.7512902219404631  0.7510868462560636  0.1236846018052703
  0.6373553694613115  0.3933903676109670  0.7463581820752305
  0.6085092406213715  0.6385011118107156  0.7523758669694045
  0.5262477725357209  0.4997150472597372  0.3776127142377660
  0.3731708109713477  0.3854662833142183  0.5167895872367889
  0.7512059126447890  0.7529073115704702  0.6314125043039247
  0.8886106332594691  0.6344990918912944  0.4996956839558813
  0.5911786519130864  0.5551462671919798  0.5678354821784650
 
  0.00000000E+00  0.00000000E+00  0.00000000E+00
  0.00000000E+00  0.00000000E+00  0.00000000E+00
  0.00000000E+00  0.00000000E+00  0.00000000E+00
  0.00000000E+00  0.00000000E+00  0.00000000E+00
  0.00000000E+00  0.00000000E+00  0.00000000E+00
  0.00000000E+00  0.00000000E+00  0.00000000E+00
  0.00000000E+00  0.00000000E+00  0.00000000E+00
  0.00000000E+00  0.00000000E+00  0.00000000E+00
  0.00000000E+00  0.00000000E+00  0.00000000E+00
  0.00000000E+00  0.00000000E+00  0.00000000E+00
  0.00000000E+00  0.00000000E+00  0.00000000E+00
  0.00000000E+00  0.00000000E+00  0.00000000E+00
  0.00000000E+00  0.00000000E+00  0.00000000E+00
  0.00000000E+00  0.00000000E+00  0.00000000E+00
  0.00000000E+00  0.00000000E+00  0.00000000E+00
  0.00000000E+00  0.00000000E+00  0.00000000E+00
  0.00000000E+00  0.00000000E+00  0.00000000E+00
  0.00000000E+00  0.00000000E+00  0.00000000E+00
  0.00000000E+00  0.00000000E+00  0.00000000E+00
  0.00000000E+00  0.00000000E+00  0.00000000E+00
  0.00000000E+00  0.00000000E+00  0.00000000E+00
  0.00000000E+00  0.00000000E+00  0.00000000E+00
  0.00000000E+00  0.00000000E+00  0.00000000E+00
  0.00000000E+00  0.00000000E+00  0.00000000E+00
  0.00000000E+00  0.00000000E+00  0.00000000E+00
  0.00000000E+00  0.00000000E+00  0.00000000E+00
  0.00000000E+00  0.00000000E+00  0.00000000E+00
  0.00000000E+00  0.00000000E+00  0.00000000E+00
  0.00000000E+00  0.00000000E+00  0.00000000E+00
  0.00000000E+00  0.00000000E+00  0.00000000E+00
  0.00000000E+00  0.00000000E+00  0.00000000E+00
  0.00000000E+00  0.00000000E+00  0.00000000E+00
  0.00000000E+00  0.00000000E+00  0.00000000E+00
  0.00000000E+00  0.00000000E+00  0.00000000E+00
  0.00000000E+00  0.00000000E+00  0.00000000E+00
  0.00000000E+00  0.00000000E+00  0.00000000E+00
  0.00000000E+00  0.00000000E+00  0.00000000E+00
  0.00000000E+00  0.00000000E+00  0.00000000E+00
  0.00000000E+00  0.00000000E+00  0.00000000E+00
  0.00000000E+00  0.00000000E+00  0.00000000E+00
  0.00000000E+00  0.00000000E+00  0.00000000E+00
  0.00000000E+00  0.00000000E+00  0.00000000E+00
  0.00000000E+00  0.00000000E+00  0.00000000E+00
  0.00000000E+00  0.00000000E+00  0.00000000E+00
  0.00000000E+00  0.00000000E+00  0.00000000E+00
  0.00000000E+00  0.00000000E+00  0.00000000E+00
  0.00000000E+00  0.00000000E+00  0.00000000E+00
  0.00000000E+00  0.00000000E+00  0.00000000E+00
  0.00000000E+00  0.00000000E+00  0.00000000E+00
  0.00000000E+00  0.00000000E+00  0.00000000E+00
  0.00000000E+00  0.00000000E+00  0.00000000E+00
  0.00000000E+00  0.00000000E+00  0.00000000E+00
  0.00000000E+00  0.00000000E+00  0.00000000E+00
  0.00000000E+00  0.00000000E+00  0.00000000E+00
  0.00000000E+00  0.00000000E+00  0.00000000E+00
  0.00000000E+00  0.00000000E+00  0.00000000E+00
  0.00000000E+00  0.00000000E+00  0.00000000E+00
  0.00000000E+00  0.00000000E+00  0.00000000E+00
  0.00000000E+00  0.00000000E+00  0.00000000E+00
  0.00000000E+00  0.00000000E+00  0.00000000E+00
  0.00000000E+00  0.00000000E+00  0.00000000E+00
  0.00000000E+00  0.00000000E+00  0.00000000E+00
  0.00000000E+00  0.00000000E+00  0.00000000E+00
  0.00000000E+00  0.00000000E+00  0.00000000E+00
  0.00000000E+00  0.00000000E+00  0.00000000E+00
  0.00000000E+00  0.00000000E+00  0.00000000E+00
  0.00000000E+00  0.00000000E+00  0.00000000E+00
  0.00000000E+00  0.00000000E+00  0.00000000E+00
  0.00000000E+00  0.00000000E+00  0.00000000E+00
  0.00000000E+00  0.00000000E+00  0.00000000E+00
  0.00000000E+00  0.00000000E+00  0.00000000E+00
  0.00000000E+00  0.00000000E+00  0.00000000E+00
  0.00000000E+00  0.00000000E+00  0.00000000E+00
  0.00000000E+00  0.00000000E+00  0.00000000E+00
  0.00000000E+00  0.00000000E+00  0.00000000E+00
  0.00000000E+00  0.00000000E+00  0.00000000E+00
  0.00000000E+00  0.00000000E+00  0.00000000E+00
  0.00000000E+00  0.00000000E+00  0.00000000E+00
  0.00000000E+00  0.00000000E+00  0.00000000E+00
  0.00000000E+00  0.00000000E+00  0.00000000E+00
  0.00000000E+00  0.00000000E+00  0.00000000E+00
  0.00000000E+00  0.00000000E+00  0.00000000E+00
  0.00000000E+00  0.00000000E+00  0.00000000E+00
  0.00000000E+00  0.00000000E+00  0.00000000E+00
  0.00000000E+00  0.00000000E+00  0.00000000E+00
  0.00000000E+00  0.00000000E+00  0.00000000E+00
  0.00000000E+00  0.00000000E+00  0.00000000E+00
  0.00000000E+00  0.00000000E+00  0.00000000E+00
  0.00000000E+00  0.00000000E+00  0.00000000E+00
  0.00000000E+00  0.00000000E+00  0.00000000E+00
  0.00000000E+00  0.00000000E+00  0.00000000E+00
  0.00000000E+00  0.00000000E+00  0.00000000E+00
  0.00000000E+00  0.00000000E+00  0.00000000E+00
  0.00000000E+00  0.00000000E+00  0.00000000E+00
  0.00000000E+00  0.00000000E+00  0.00000000E+00
  0.00000000E+00  0.00000000E+00  0.00000000E+00
  0.00000000E+00  0.00000000E+00  0.00000000E+00
  0.00000000E+00  0.00000000E+00  0.00000000E+00
  0.00000000E+00  0.00000000E+00  0.00000000E+00
  0.00000000E+00  0.00000000E+00  0.00000000E+00
  0.00000000E+00  0.00000000E+00  0.00000000E+00
  0.00000000E+00  0.00000000E+00  0.00000000E+00
  0.00000000E+00  0.00000000E+00  0.00000000E+00
  0.00000000E+00  0.00000000E+00  0.00000000E+00
  0.00000000E+00  0.00000000E+00  0.00000000E+00
  0.00000000E+00  0.00000000E+00  0.00000000E+00
  0.00000000E+00  0.00000000E+00  0.00000000E+00
  0.00000000E+00  0.00000000E+00  0.00000000E+00
  0.00000000E+00  0.00000000E+00  0.00000000E+00
  0.00000000E+00  0.00000000E+00  0.00000000E+00
  0.00000000E+00  0.00000000E+00  0.00000000E+00
  0.00000000E+00  0.00000000E+00  0.00000000E+00
  0.00000000E+00  0.00000000E+00  0.00000000E+00
  0.00000000E+00  0.00000000E+00  0.00000000E+00
  0.00000000E+00  0.00000000E+00  0.00000000E+00
  0.00000000E+00  0.00000000E+00  0.00000000E+00
  0.00000000E+00  0.00000000E+00  0.00000000E+00
  0.00000000E+00  0.00000000E+00  0.00000000E+00
  0.00000000E+00  0.00000000E+00  0.00000000E+00
  0.00000000E+00  0.00000000E+00  0.00000000E+00
  0.00000000E+00  0.00000000E+00  0.00000000E+00
  0.00000000E+00  0.00000000E+00  0.00000000E+00
  0.00000000E+00  0.00000000E+00  0.00000000E+00
  0.00000000E+00  0.00000000E+00  0.00000000E+00
  0.00000000E+00  0.00000000E+00  0.00000000E+00
  0.00000000E+00  0.00000000E+00  0.00000000E+00
  0.00000000E+00  0.00000000E+00  0.00000000E+00
  0.00000000E+00  0.00000000E+00  0.00000000E+00
  0.00000000E+00  0.00000000E+00  0.00000000E+00
  0.00000000E+00  0.00000000E+00  0.00000000E+00
  0.00000000E+00  0.00000000E+00  0.00000000E+00
  0.00000000E+00  0.00000000E+00  0.00000000E+00
  0.00000000E+00  0.00000000E+00  0.00000000E+00
  0.00000000E+00  0.00000000E+00  0.00000000E+00
  0.00000000E+00  0.00000000E+00  0.00000000E+00
  0.00000000E+00  0.00000000E+00  0.00000000E+00
  0.00000000E+00  0.00000000E+00  0.00000000E+00
  0.00000000E+00  0.00000000E+00  0.00000000E+00
  0.00000000E+00  0.00000000E+00  0.00000000E+00
  0.00000000E+00  0.00000000E+00  0.00000000E+00
  0.00000000E+00  0.00000000E+00  0.00000000E+00
  0.00000000E+00  0.00000000E+00  0.00000000E+00
  0.00000000E+00  0.00000000E+00  0.00000000E+00
  0.00000000E+00  0.00000000E+00  0.00000000E+00
  0.00000000E+00  0.00000000E+00  0.00000000E+00
  0.00000000E+00  0.00000000E+00  0.00000000E+00
  0.00000000E+00  0.00000000E+00  0.00000000E+00
  0.00000000E+00  0.00000000E+00  0.00000000E+00
  0.00000000E+00  0.00000000E+00  0.00000000E+00
  0.00000000E+00  0.00000000E+00  0.00000000E+00
  0.00000000E+00  0.00000000E+00  0.00000000E+00
  0.00000000E+00  0.00000000E+00  0.00000000E+00
  0.00000000E+00  0.00000000E+00  0.00000000E+00
  0.00000000E+00  0.00000000E+00  0.00000000E+00
  0.00000000E+00  0.00000000E+00  0.00000000E+00
  0.00000000E+00  0.00000000E+00  0.00000000E+00
  0.00000000E+00  0.00000000E+00  0.00000000E+00
  0.00000000E+00  0.00000000E+00  0.00000000E+00
