SrTiFeO                                 
   1.00000000000000     
    11.1989999999999998    0.0000000000000000    0.0000000000000000
     0.0000000000000000   11.1989999999999998    0.0000000000000000
     0.0000000000000000    0.0000000000000000   15.9830000000000005
   Sr   Ti   Fe   O 
    32    31     1    94
Direct
  0.9996947352221127  0.2499733037335607  0.1249206475752263
  0.0027131912619720  0.2484849473748720  0.6256122132303222
  0.9995202905569338  0.7505596208860078  0.1252798248876948
  0.9989256824152321  0.7513042648029059  0.6242954690316114
  0.5008516639328567  0.2500920034365177  0.1248942728569130
  0.4962670047273501  0.2381678346380705  0.6268752755138036
  0.5003113244340955  0.7498676873266208  0.1253834870032971
  0.5016446868909630  0.7568762505665998  0.6241444126413026
  0.0035929690589316  0.2501014804867119  0.3746737289463307
  0.9991535579350651  0.2505734604742370  0.8750556078030829
  0.9982628437156513  0.7498394781351571  0.3758228548796897
  0.9994961165210773  0.7503789842877975  0.8747296138921611
  0.4966652984492578  0.2443872302284921  0.3717586274898355
  0.4997204938738400  0.2483114010866572  0.8761170809808460
  0.5011365894377526  0.7504322003702956  0.3755261881212129
  0.5011382924464138  0.7514408684157776  0.8757443954657635
  0.2496170368096004  0.9999849326249369  0.1249460514277384
  0.2483920905921852  0.9986931456883006  0.6243011524922205
  0.2503790691260952  0.5003831501427649  0.1255578719399933
  0.2429775382191026  0.4983246257950242  0.6250760025040328
  0.7504646865728944  1.0000535331714779  0.1253567177556064
  0.7498234862251689  0.9955233368331975  0.6238385567105408
  0.7506526755272818  0.5013101599769602  0.1246392884558904
  0.7612106429769946  0.5035687173239589  0.6276762382124694
  0.2493094839050390  0.9982968771996733  0.3753383024361354
  0.2494925801448625  0.9999359241660487  0.8750015200635618
  0.2496635010970250  0.4990722544085341  0.3756302553417828
  0.2487939197097016  0.5011184201156043  0.8759688724951864
  0.7489709945132854  0.9946796627280888  0.3754823679606905
  0.7507575772547315  0.0001190014497359  0.8743015524884898
  0.7525882803851188  0.5034442872387385  0.3736749424132672
  0.7517578465802510  0.5003671047310334  0.8762381846343335
  0.9995804840687870  0.0004085223225820  0.9996566154378924
  0.0002979929531125  0.9954969582296155  0.4993270228344412
  0.0003050974887078  0.5000830702758122  0.0003245710517424
  0.9987464112364552  0.5020251266894545  0.4995773467218196
  0.4997472181754185  0.0000090104778870  0.0002363207202840
  0.5000384712085771  0.9978292879508378  0.4993148847080571
  0.4996573847413067  0.5004212943824864  0.0027958158731306
  0.2502108797486535  0.2502675647144333  0.0000581842651284
  0.2500188169982718  0.2480027151240836  0.5008321574401812
  0.2503747840234328  0.7499364549574901  0.0000919126554710
  0.2510830094032445  0.7486370864364643  0.5004118545618852
  0.7501160290107088  0.2501006952695298  0.0000114672373792
  0.7564940968686269  0.2457991176242106  0.4996275636197132
  0.7497158390972622  0.7500568165109535 -0.0000070002620378
  0.2505817132359335  0.2503611341257585  0.2496521405926254
  0.2497686394755210  0.2494516908303311  0.7499980579558584
  0.2500211356975823  0.7490882365152922  0.2504991058518554
  0.2501535894826550  0.7496415248805586  0.7492893824889468
  0.7494064007025416  0.2507921405879798  0.2501708432602897
  0.7488892044104507  0.2504804105201087  0.7487257661687388
  0.7495889853244351  0.7494689294636109  0.2511730659066319
  0.7501774760481469  0.7502203940256108  0.7483830294553384
  0.9999120342490594  0.0001356911791261  0.2505473534652788
  0.9999776121001830  0.0000327364551744  0.7501661186495410
  0.0004412716369905  0.4998346875878920  0.2499379430938395
  0.0008664740842358  0.4999845173540284  0.7507690350815975
  0.4999374877651129  0.9989619960231760  0.2495363534785558
  0.4999247221719333  0.9990912427231567  0.7507760346015245
  0.5006537713773911  0.4991978921887865  0.2511941971602727
  0.5001524778716325  0.4998514948029162  0.7545883642403476
  0.5014870153002143  0.5016080300101512  0.5002713484564403
  0.7508897939770118  0.7482785787525424  0.5009298860119216
  0.1096303943558308  0.1417033142830913  0.2509593208843122
  0.1090469345639840  0.1410425745473669  0.7528249181392338
  0.1086730703546568  0.6409654784881161  0.2499519920566763
  0.1101284265870575  0.6398000637786652  0.7502780251849005
  0.6088460844080856  0.1407697143825951  0.2491530832216686
  0.6091450407848054  0.1405431811480500  0.7512051766827347
  0.6084738686643797  0.6406562545014854  0.2490326640724475
  0.3913771305860724  0.3580937216597522  0.2475651194612571
  0.3913397984833366  0.3612105326644146  0.7422498757721273
  0.3911091974121443  0.8587311928007620  0.2499235915338808
  0.3904527132140603  0.8596579633510472  0.7503698166412149
  0.8913175231914446  0.3587770770725061  0.2510765046267687
  0.8894626369544638  0.3604289942050996  0.7483724403884331
  0.8899882923624312  0.8600589074460110  0.2504121076580927
  0.8900929080621908  0.8612114189054949  0.7522078581084352
  0.3591495973757295  0.1092942871600159  0.2513506723053874
  0.3601622485215327  0.1101256301848944  0.7493162094913226
  0.3583270705847658  0.6084743700635902  0.2512946950347162
  0.3606953093314357  0.6086627319368491  0.7424115977139035
  0.8584454396322888  0.1103327442614219  0.2538487666077521
  0.8584678613292569  0.1112324790747733  0.7466375351629904
  0.8598448357560806  0.6090004508057255  0.2489821624035380
  0.8611788368868901  0.6104726411807275  0.7520681209567087
  0.1416188164737770  0.3913025080208602  0.2499963178865911
  0.1405351407909486  0.3902217527071168  0.7510873234702657
  0.1403781422258604  0.8911485308701883  0.2486965670732585
  0.1398834668888404  0.8909326707801120  0.7525583266823112
  0.6420712383597375  0.3911907132373164  0.2448115450033046
  0.6404501929121403  0.8909026254660474  0.2489257855271688
  0.6395303407923778  0.8903993301684541  0.7508080071955415
  0.3589841929098528  0.3911802906920827  0.0004145613013517
  0.3588292452386598  0.8910242377026470  0.9994886809496362
  0.3595829757392338  0.8905789662705471  0.5001692168427148
  0.8592526917568818  0.3908343269658733  0.9999795942305594
  0.8561268026183689  0.3923408097255308  0.4998289690829519
  0.8590901519930283  0.8907133907269813  0.9992162536838312
  0.8608358260829165  0.8928847151664258  0.4988919333302122
  0.1407928952849352  0.1096196340440675  0.9989941251997611
  0.1401834510075656  0.1102803392705513  0.4981465933004078
  0.1406360914389954  0.6091559433750857  0.9999695719361210
  0.1413901319940675  0.6089963302419119  0.4996713439005356
  0.6405463350185761  0.1095702769497596  0.9991889148270957
  0.6348015646139069  0.1187902789074859  0.4996621255106694
  0.6404614282239871  0.6088288283286987  0.0000222661676918
  0.1094712882998982  0.3591031822704817  0.9993448819826928
  0.1126991659248289  0.3612792162937057  0.5004578467395167
  0.1091941926889057  0.8597153353331209  0.9991602802064590
  0.1094846270818711  0.8596468011575918  0.4990682695994085
  0.6090484959940637  0.3595006864659929  0.0002144314932483
  0.6086807088604551  0.8595864036810006  0.0002356945245209
  0.6097726425882247  0.8623004449627126  0.4999941953407335
  0.3908156326354991  0.1410311766204914  0.0001725089120983
  0.3878914265806555  0.1370039522053152  0.4995767177565948
  0.3910157343912691  0.6414609578847468  0.9999384106475350
  0.3885136195444757  0.6431720555597265  0.5040353724377946
  0.8903509706283845  0.1413672504181130  0.9987768150286030
  0.8925069515375906  0.1419442073117305  0.4990349254847061
  0.8907558541524494  0.6404548837130835  0.9994318937607014
  0.9980464022036327  0.0024104278937538  0.1249329077393385
  0.0019617477010331  0.0003461475668805  0.6252306727813327
  0.0003653801116255  0.4989692589746657  0.1248515132021983
  0.0011979650361865  0.4995789679866905  0.6254801534365363
  0.4987653696985168  0.0005212118671929  0.1247875242460579
  0.5007849902336460  0.0002367771985768  0.6254180033305096
  0.4977548856939352  0.5017383961099868  0.1244854025962368
  0.0015759676189149  0.9998893525697088  0.3745112061140428
  0.9975797880921020  0.0021077483937044  0.8751225033348988
  0.0008590763885311  0.4992023655051095  0.3747310890186314
  0.0001547368616706  0.4988363545764372  0.8752457326881173
  0.5008999397338976  0.9995194236971501  0.3744160593970766
  0.4988968851717324  0.0003367311560317  0.8752509374926363
  0.4975109516158664  0.5013919297059016  0.8752997487909747
  0.2537660651266843  0.2560119557919993  0.3756654589882364
  0.2546895606613117  0.2522969259987821  0.8744739408031503
  0.2500562363436357  0.7507664141405109  0.3747902127832909
  0.2522878781007877  0.7466091811277008  0.8743896682979760
  0.7396292420772906  0.2589701878560783  0.3764662812534805
  0.7488487375413302  0.2529494202520182  0.8737778941422690
  0.7470322610536322  0.7468379928563458  0.3739195614434805
  0.7462589696698199  0.7479417217043276  0.8748477546153041
  0.2491789061976894  0.2489739939319638  0.1247925793528099
  0.2439478527091745  0.2445042581957872  0.6259617760465840
  0.2500791968656020  0.7496368335436691  0.1246719076365713
  0.2449271541111595  0.7552734517921621  0.6255995396809302
  0.7522423807052372  0.2476740209766563  0.1246595020667391
  0.7424707443358922  0.2550522196287743  0.6227529364610421
  0.7504584486658644  0.7499468863700389  0.1244183618358828
  0.6383438576638156  0.3926428943545119  0.7454473990874441
  0.6084087773903069  0.6385779350727681  0.7429688405667279
  0.5036485049149015  0.4924876679070720  0.3730290791991098
  0.3718890809097463  0.3820628434995541  0.5120227059933979
  0.7548049711010765  0.7544433955489979  0.6270321742847301
  0.8937425829525213  0.6401011115772504  0.5001693111436841
  0.6432343816126350  0.6012236184368056  0.5091888185877648
 
  0.00000000E+00  0.00000000E+00  0.00000000E+00
  0.00000000E+00  0.00000000E+00  0.00000000E+00
  0.00000000E+00  0.00000000E+00  0.00000000E+00
  0.00000000E+00  0.00000000E+00  0.00000000E+00
  0.00000000E+00  0.00000000E+00  0.00000000E+00
  0.00000000E+00  0.00000000E+00  0.00000000E+00
  0.00000000E+00  0.00000000E+00  0.00000000E+00
  0.00000000E+00  0.00000000E+00  0.00000000E+00
  0.00000000E+00  0.00000000E+00  0.00000000E+00
  0.00000000E+00  0.00000000E+00  0.00000000E+00
  0.00000000E+00  0.00000000E+00  0.00000000E+00
  0.00000000E+00  0.00000000E+00  0.00000000E+00
  0.00000000E+00  0.00000000E+00  0.00000000E+00
  0.00000000E+00  0.00000000E+00  0.00000000E+00
  0.00000000E+00  0.00000000E+00  0.00000000E+00
  0.00000000E+00  0.00000000E+00  0.00000000E+00
  0.00000000E+00  0.00000000E+00  0.00000000E+00
  0.00000000E+00  0.00000000E+00  0.00000000E+00
  0.00000000E+00  0.00000000E+00  0.00000000E+00
  0.00000000E+00  0.00000000E+00  0.00000000E+00
  0.00000000E+00  0.00000000E+00  0.00000000E+00
  0.00000000E+00  0.00000000E+00  0.00000000E+00
  0.00000000E+00  0.00000000E+00  0.00000000E+00
  0.00000000E+00  0.00000000E+00  0.00000000E+00
  0.00000000E+00  0.00000000E+00  0.00000000E+00
  0.00000000E+00  0.00000000E+00  0.00000000E+00
  0.00000000E+00  0.00000000E+00  0.00000000E+00
  0.00000000E+00  0.00000000E+00  0.00000000E+00
  0.00000000E+00  0.00000000E+00  0.00000000E+00
  0.00000000E+00  0.00000000E+00  0.00000000E+00
  0.00000000E+00  0.00000000E+00  0.00000000E+00
  0.00000000E+00  0.00000000E+00  0.00000000E+00
  0.00000000E+00  0.00000000E+00  0.00000000E+00
  0.00000000E+00  0.00000000E+00  0.00000000E+00
  0.00000000E+00  0.00000000E+00  0.00000000E+00
  0.00000000E+00  0.00000000E+00  0.00000000E+00
  0.00000000E+00  0.00000000E+00  0.00000000E+00
  0.00000000E+00  0.00000000E+00  0.00000000E+00
  0.00000000E+00  0.00000000E+00  0.00000000E+00
  0.00000000E+00  0.00000000E+00  0.00000000E+00
  0.00000000E+00  0.00000000E+00  0.00000000E+00
  0.00000000E+00  0.00000000E+00  0.00000000E+00
  0.00000000E+00  0.00000000E+00  0.00000000E+00
  0.00000000E+00  0.00000000E+00  0.00000000E+00
  0.00000000E+00  0.00000000E+00  0.00000000E+00
  0.00000000E+00  0.00000000E+00  0.00000000E+00
  0.00000000E+00  0.00000000E+00  0.00000000E+00
  0.00000000E+00  0.00000000E+00  0.00000000E+00
  0.00000000E+00  0.00000000E+00  0.00000000E+00
  0.00000000E+00  0.00000000E+00  0.00000000E+00
  0.00000000E+00  0.00000000E+00  0.00000000E+00
  0.00000000E+00  0.00000000E+00  0.00000000E+00
  0.00000000E+00  0.00000000E+00  0.00000000E+00
  0.00000000E+00  0.00000000E+00  0.00000000E+00
  0.00000000E+00  0.00000000E+00  0.00000000E+00
  0.00000000E+00  0.00000000E+00  0.00000000E+00
  0.00000000E+00  0.00000000E+00  0.00000000E+00
  0.00000000E+00  0.00000000E+00  0.00000000E+00
  0.00000000E+00  0.00000000E+00  0.00000000E+00
  0.00000000E+00  0.00000000E+00  0.00000000E+00
  0.00000000E+00  0.00000000E+00  0.00000000E+00
  0.00000000E+00  0.00000000E+00  0.00000000E+00
  0.00000000E+00  0.00000000E+00  0.00000000E+00
  0.00000000E+00  0.00000000E+00  0.00000000E+00
  0.00000000E+00  0.00000000E+00  0.00000000E+00
  0.00000000E+00  0.00000000E+00  0.00000000E+00
  0.00000000E+00  0.00000000E+00  0.00000000E+00
  0.00000000E+00  0.00000000E+00  0.00000000E+00
  0.00000000E+00  0.00000000E+00  0.00000000E+00
  0.00000000E+00  0.00000000E+00  0.00000000E+00
  0.00000000E+00  0.00000000E+00  0.00000000E+00
  0.00000000E+00  0.00000000E+00  0.00000000E+00
  0.00000000E+00  0.00000000E+00  0.00000000E+00
  0.00000000E+00  0.00000000E+00  0.00000000E+00
  0.00000000E+00  0.00000000E+00  0.00000000E+00
  0.00000000E+00  0.00000000E+00  0.00000000E+00
  0.00000000E+00  0.00000000E+00  0.00000000E+00
  0.00000000E+00  0.00000000E+00  0.00000000E+00
  0.00000000E+00  0.00000000E+00  0.00000000E+00
  0.00000000E+00  0.00000000E+00  0.00000000E+00
  0.00000000E+00  0.00000000E+00  0.00000000E+00
  0.00000000E+00  0.00000000E+00  0.00000000E+00
  0.00000000E+00  0.00000000E+00  0.00000000E+00
  0.00000000E+00  0.00000000E+00  0.00000000E+00
  0.00000000E+00  0.00000000E+00  0.00000000E+00
  0.00000000E+00  0.00000000E+00  0.00000000E+00
  0.00000000E+00  0.00000000E+00  0.00000000E+00
  0.00000000E+00  0.00000000E+00  0.00000000E+00
  0.00000000E+00  0.00000000E+00  0.00000000E+00
  0.00000000E+00  0.00000000E+00  0.00000000E+00
  0.00000000E+00  0.00000000E+00  0.00000000E+00
  0.00000000E+00  0.00000000E+00  0.00000000E+00
  0.00000000E+00  0.00000000E+00  0.00000000E+00
  0.00000000E+00  0.00000000E+00  0.00000000E+00
  0.00000000E+00  0.00000000E+00  0.00000000E+00
  0.00000000E+00  0.00000000E+00  0.00000000E+00
  0.00000000E+00  0.00000000E+00  0.00000000E+00
  0.00000000E+00  0.00000000E+00  0.00000000E+00
  0.00000000E+00  0.00000000E+00  0.00000000E+00
  0.00000000E+00  0.00000000E+00  0.00000000E+00
  0.00000000E+00  0.00000000E+00  0.00000000E+00
  0.00000000E+00  0.00000000E+00  0.00000000E+00
  0.00000000E+00  0.00000000E+00  0.00000000E+00
  0.00000000E+00  0.00000000E+00  0.00000000E+00
  0.00000000E+00  0.00000000E+00  0.00000000E+00
  0.00000000E+00  0.00000000E+00  0.00000000E+00
  0.00000000E+00  0.00000000E+00  0.00000000E+00
  0.00000000E+00  0.00000000E+00  0.00000000E+00
  0.00000000E+00  0.00000000E+00  0.00000000E+00
  0.00000000E+00  0.00000000E+00  0.00000000E+00
  0.00000000E+00  0.00000000E+00  0.00000000E+00
  0.00000000E+00  0.00000000E+00  0.00000000E+00
  0.00000000E+00  0.00000000E+00  0.00000000E+00
  0.00000000E+00  0.00000000E+00  0.00000000E+00
  0.00000000E+00  0.00000000E+00  0.00000000E+00
  0.00000000E+00  0.00000000E+00  0.00000000E+00
  0.00000000E+00  0.00000000E+00  0.00000000E+00
  0.00000000E+00  0.00000000E+00  0.00000000E+00
  0.00000000E+00  0.00000000E+00  0.00000000E+00
  0.00000000E+00  0.00000000E+00  0.00000000E+00
  0.00000000E+00  0.00000000E+00  0.00000000E+00
  0.00000000E+00  0.00000000E+00  0.00000000E+00
  0.00000000E+00  0.00000000E+00  0.00000000E+00
  0.00000000E+00  0.00000000E+00  0.00000000E+00
  0.00000000E+00  0.00000000E+00  0.00000000E+00
  0.00000000E+00  0.00000000E+00  0.00000000E+00
  0.00000000E+00  0.00000000E+00  0.00000000E+00
  0.00000000E+00  0.00000000E+00  0.00000000E+00
  0.00000000E+00  0.00000000E+00  0.00000000E+00
  0.00000000E+00  0.00000000E+00  0.00000000E+00
  0.00000000E+00  0.00000000E+00  0.00000000E+00
  0.00000000E+00  0.00000000E+00  0.00000000E+00
  0.00000000E+00  0.00000000E+00  0.00000000E+00
  0.00000000E+00  0.00000000E+00  0.00000000E+00
  0.00000000E+00  0.00000000E+00  0.00000000E+00
  0.00000000E+00  0.00000000E+00  0.00000000E+00
  0.00000000E+00  0.00000000E+00  0.00000000E+00
  0.00000000E+00  0.00000000E+00  0.00000000E+00
  0.00000000E+00  0.00000000E+00  0.00000000E+00
  0.00000000E+00  0.00000000E+00  0.00000000E+00
  0.00000000E+00  0.00000000E+00  0.00000000E+00
  0.00000000E+00  0.00000000E+00  0.00000000E+00
  0.00000000E+00  0.00000000E+00  0.00000000E+00
  0.00000000E+00  0.00000000E+00  0.00000000E+00
  0.00000000E+00  0.00000000E+00  0.00000000E+00
  0.00000000E+00  0.00000000E+00  0.00000000E+00
  0.00000000E+00  0.00000000E+00  0.00000000E+00
  0.00000000E+00  0.00000000E+00  0.00000000E+00
  0.00000000E+00  0.00000000E+00  0.00000000E+00
  0.00000000E+00  0.00000000E+00  0.00000000E+00
  0.00000000E+00  0.00000000E+00  0.00000000E+00
  0.00000000E+00  0.00000000E+00  0.00000000E+00
  0.00000000E+00  0.00000000E+00  0.00000000E+00
  0.00000000E+00  0.00000000E+00  0.00000000E+00
  0.00000000E+00  0.00000000E+00  0.00000000E+00
  0.00000000E+00  0.00000000E+00  0.00000000E+00
  0.00000000E+00  0.00000000E+00  0.00000000E+00
  0.00000000E+00  0.00000000E+00  0.00000000E+00
