SrTiFeO                                 
   1.00000000000000     
    11.1989999999999998    0.0000000000000000    0.0000000000000000
     0.0000000000000000   11.1989999999999998    0.0000000000000000
     0.0000000000000000    0.0000000000000000   15.9830000000000005
   Sr   Ti   Fe   O 
    32    31     1    94
Direct
  0.9996418894801905  0.2502408439240192  0.1246966481234649
  0.0039478268868223  0.2488719333120712  0.6262304718369043
  0.9984605799005077  0.7502501838981035  0.1256299024887507
  0.9984903644137311  0.7483049022304371  0.6234187085330726
  0.5000492382768842  0.2510784640376099  0.1251416488365000
  0.4969623487085486  0.2422923687099578  0.6263314257648825
  0.5004816901427578  0.7506011320461429  0.1234449024304048
  0.4998521345084184  0.7545200385164094  0.6290348033554489
  0.0039478268868223  0.2488719333120712  0.3737695281630947
  0.9996418894801905  0.2502408439240192  0.8753033518765467
  0.9984903644137311  0.7483049022304371  0.3765812914669430
  0.9984605799005077  0.7502501838981035  0.8743700975112438
  0.4969623487085486  0.2422923687099578  0.3736685742351276
  0.5000492382768842  0.2510784640376099  0.8748583511634979
  0.4998521345084184  0.7545200385164094  0.3709651966445669
  0.5004816901427578  0.7506011320461429  0.8765550975696098
  0.2495091965064858  0.0001199664600178  0.1250719366270549
  0.2487379544853366  0.0000823132257887  0.6249213919957735
  0.2511637196052948  0.5007302310429546  0.1249769032852511
  0.2447008453936257  0.4977346068004267  0.6255723839635705
  0.7500218253498673  0.9992662924725566  0.1252454380364989
  0.7477267672804279  0.9966683425533177  0.6242000299278819
  0.7500804036983094  0.5014071382988267  0.1233312801214854
  0.7586318530442799  0.4977914807718524  0.6321707678172709
  0.2487379544853366  0.0000823132257887  0.3750786080042356
  0.2495091965064858  0.0001199664600178  0.8749280633729540
  0.2447008453936257  0.4977346068004267  0.3744276160364334
  0.2511637196052948  0.5007302310429546  0.8750230967147506
  0.7477267672804279  0.9966683425533177  0.3757999700721132
  0.7500218253498673  0.9992662924725566  0.8747545619634953
  0.7586318530442799  0.4977914807718524  0.3678292321827567
  0.7500804036983094  0.5014071382988267  0.8766687198785095
  0.9994921625233903  0.9999475064575573  0.0000000000000000
  0.0006870481926239  0.9976741857624047  0.5000000000000000
  0.0005677593370867  0.4997227410088333  0.0000000000000000
  0.9980572080553892  0.5011632449704194  0.5000000000000000
  0.4997501204444558  0.0005254774140419  0.0000000000000000
  0.4985332957656643  0.9968807318009294  0.5000000000000000
  0.4990639123890250  0.4998015416457773  0.0000000000000000
  0.2505840874326460  0.2503891031991091  0.0000000000000000
  0.2483428799431792  0.2477978277225428  0.5000000000000000
  0.2498879554430364  0.7497106617125144  0.0000000000000000
  0.2503031631344470  0.7508492821667166  0.5000000000000000
  0.7505928281442574  0.2493470429962305  0.0000000000000000
  0.7567703397391894  0.2464307457223762  0.5000000000000000
  0.7504560792298197  0.7509640612243473  0.0000000000000000
  0.2501686247116236  0.2497605859493609  0.2498373573655759
  0.2501686247116236  0.2497605859493609  0.7501626426344161
  0.2496082850677750  0.7496792646978552  0.2502644752708568
  0.2496082850677750  0.7496792646978552  0.7497355247291384
  0.7490690145421405  0.2496497941793553  0.2498809593041779
  0.7490690145421405  0.2496497941793553  0.7501190406958147
  0.7492054796636366  0.7488879725946068  0.2514822826724003
  0.7492054796636366  0.7488879725946068  0.7485177173275983
  0.9995696074799921  0.9995364285537849  0.2507025869582343
  0.9995696074799921  0.9995364285537849  0.7492974130417361
  0.0011277232727638  0.4996981640755312  0.2490023465812308
  0.0011277232727638  0.4996981640755312  0.7509976534187593
  0.4996049723183947  0.9996894201611675  0.2492864977435553
  0.4996049723183947  0.9996894201611675  0.7507135022564253
  0.5019414145454504  0.5002681493319937  0.2501011945307934
  0.5019414145454504  0.5002681493319937  0.7498988054691947
  0.4922256695625892  0.5009562261556950  0.5000000000000000
  0.7544212949648810  0.7554472395745367  0.5000000000000000
  0.1096651102365662  0.1406698210631261  0.2473408062737906
  0.1096651102365662  0.1406698210631261  0.7526591937262007
  0.1100000872601251  0.6399613915925129  0.2498991993761057
  0.1100000872601251  0.6399613915925129  0.7501008006238867
  0.6089665329033448  0.1406513987072156  0.2489167423790850
  0.6089665329033448  0.1406513987072156  0.7510832576208923
  0.6088872880248611  0.6402731048411497  0.2436148021940162
  0.3919915635997729  0.3606085092613081  0.2553506865286100
  0.3919915635997729  0.3606085092613081  0.7446493134713825
  0.3898119951788984  0.8597324720578160  0.2487916162200813
  0.3898119951788984  0.8597324720578160  0.7512083837799393
  0.8900102291643577  0.3595851959869029  0.2518469497429751
  0.8900102291643577  0.3595851959869029  0.7481530502570036
  0.8894260047733135  0.8595166289457176  0.2536115739836165
  0.8894260047733135  0.8595166289457176  0.7463884260163766
  0.3597378411525871  0.1102810257907024  0.2499429136408599
  0.3597378411525871  0.1102810257907024  0.7500570863591242
  0.3608230925634556  0.6087574635777002  0.2551241281046794
  0.3608230925634556  0.6087574635777002  0.7448758718953216
  0.8584107749897980  0.1100827228975197  0.2538594991858507
  0.8584107749897980  0.1100827228975197  0.7461405008141624
  0.8610858830310034  0.6092609469501531  0.2471573821074014
  0.8610858830310034  0.6092609469501531  0.7528426178926028
  0.1412725475761808  0.3904410073810092  0.2486269365536054
  0.1412725475761808  0.3904410073810092  0.7513730634463999
  0.1400194457187161  0.8900357132487183  0.2484167229537504
  0.1400194457187161  0.8900357132487183  0.7515832770462354
  0.6413819387910709  0.3908897055598313  0.2449440882077795
  0.6396601120805927  0.8904420027457508  0.2502731974686390
  0.6396601120805927  0.8904420027457508  0.7497268025313679
  0.3587354352227081  0.3910313764537681  0.0000000000000000
  0.3588248398189001  0.8906044933596403  0.0000000000000000
  0.3527353453246409  0.8953950456534490  0.5000000000000000
  0.8595506801959609  0.3902672644118443  0.0000000000000000
  0.8508433068131825  0.3951381962142955  0.5000000000000000
  0.8595322461141690  0.8913934560661374  0.0000000000000000
  0.8596378843582440  0.9042319147785997  0.5000000000000000
  0.1409376160774344  0.1092317116238260  0.0000000000000000
  0.1422473011579753  0.1077617214873197  0.5000000000000000
  0.1409507261438610  0.6086902488019951  0.0000000000000000
  0.1452117291983291  0.6068337541238639  0.5000000000000000
  0.6409038822921131  0.1093882358771790  0.0000000000000000
  0.6365123808535825  0.1172255467147946  0.5000000000000000
  0.6394106501282710  0.6097119122738232  0.0000000000000000
  0.1094525043416707  0.3583199734223901  0.0000000000000000
  0.1071001474896683  0.3574442856801021  0.5000000000000000
  0.1093806605092591  0.8590748311836985  0.0000000000000000
  0.1061890391411621  0.8561556899828691  0.5000000000000000
  0.6098526951761992  0.3597537744376942  0.0000000000000000
  0.6090557404330664  0.8599780038091763  0.0000000000000000
  0.6003415469869851  0.8612991644954500  0.5000000000000000
  0.3911068916294025  0.1410858925732595  0.0000000000000000
  0.3893883614411231  0.1407590877998537  0.5000000000000000
  0.3906837356990159  0.6408108832999091  0.0000000000000000
  0.3993731762520302  0.6513400203928166  0.5000000000000000
  0.8915139480315721  0.1408930652909353  0.0000000000000000
  0.8951668608991344  0.1476087853810903  0.5000000000000000
  0.8907869609965325  0.6399334604170557  0.0000000000000000
  0.9969414941461698  0.9995119463650290  0.1253695310168645
  0.0039136087280995  0.0023034519432226  0.6255428447689738
  0.0007357775262800  0.4983278303875366  0.1245998897614263
  0.0022454512799826  0.4986865302979110  0.6260573456592291
  0.4993184999506180  0.0001315608342787  0.1246645866899309
  0.4987398919322547  0.0012746843281691  0.6261531881809923
  0.4949600649726941  0.4983710212275139  0.1251098028955974
  0.0039136087280995  0.0023034519432226  0.3744571552310211
  0.9969414941461698  0.9995119463650290  0.8746304689831342
  0.0022454512799826  0.4986865302979110  0.3739426543407828
  0.0007357775262800  0.4983278303875366  0.8754001102385726
  0.4987398919322547  0.0012746843281691  0.3738468118190028
  0.4993184999506180  0.0001315608342787  0.8753354133100835
  0.4949600649726941  0.4983710212275139  0.8748901971044073
  0.2466689962614968  0.2489411284485294  0.3741726022211678
  0.2534159272048316  0.2515804668964826  0.8748998305217170
  0.2484035939453188  0.7516505257421300  0.3749518672972082
  0.2513333297113469  0.7472345899587493  0.8747470757668132
  0.7393300517124860  0.2574250087393554  0.3764355169234168
  0.7524946536753719  0.2479169565671512  0.8749733891173820
  0.7410472591370412  0.7380202048767159  0.3732827411708138
  0.7519447774486233  0.7523358252326477  0.8757487866459343
  0.2534159272048316  0.2515804668964826  0.1251001694782614
  0.2466689962614968  0.2489411284485294  0.6258273977788208
  0.2513333297113469  0.7472345899587493  0.1252529242331937
  0.2484035939453188  0.7516505257421300  0.6250481327027805
  0.7524946536753719  0.2479169565671512  0.1250266108826290
  0.7393300517124860  0.2574250087393554  0.6235644830765713
  0.7519447774486233  0.7523358252326477  0.1242512133540625
  0.6413819387910709  0.3908897055598313  0.7550559117922279
  0.6088872880248611  0.6402731048411497  0.7563851978059593
  0.5236950361712270  0.5042059045234867  0.3784512579785123
  0.3601092294961612  0.3846929356770277  0.5000000000000000
  0.7410472591370412  0.7380202048767159  0.6267172588291764
  0.8945434332125713  0.6358641191417944  0.5000000000000000
  0.5236950361712270  0.5042059045234867  0.6215487420214717
 
  0.00000000E+00  0.00000000E+00  0.00000000E+00
  0.00000000E+00  0.00000000E+00  0.00000000E+00
  0.00000000E+00  0.00000000E+00  0.00000000E+00
  0.00000000E+00  0.00000000E+00  0.00000000E+00
  0.00000000E+00  0.00000000E+00  0.00000000E+00
  0.00000000E+00  0.00000000E+00  0.00000000E+00
  0.00000000E+00  0.00000000E+00  0.00000000E+00
  0.00000000E+00  0.00000000E+00  0.00000000E+00
  0.00000000E+00  0.00000000E+00  0.00000000E+00
  0.00000000E+00  0.00000000E+00  0.00000000E+00
  0.00000000E+00  0.00000000E+00  0.00000000E+00
  0.00000000E+00  0.00000000E+00  0.00000000E+00
  0.00000000E+00  0.00000000E+00  0.00000000E+00
  0.00000000E+00  0.00000000E+00  0.00000000E+00
  0.00000000E+00  0.00000000E+00  0.00000000E+00
  0.00000000E+00  0.00000000E+00  0.00000000E+00
  0.00000000E+00  0.00000000E+00  0.00000000E+00
  0.00000000E+00  0.00000000E+00  0.00000000E+00
  0.00000000E+00  0.00000000E+00  0.00000000E+00
  0.00000000E+00  0.00000000E+00  0.00000000E+00
  0.00000000E+00  0.00000000E+00  0.00000000E+00
  0.00000000E+00  0.00000000E+00  0.00000000E+00
  0.00000000E+00  0.00000000E+00  0.00000000E+00
  0.00000000E+00  0.00000000E+00  0.00000000E+00
  0.00000000E+00  0.00000000E+00  0.00000000E+00
  0.00000000E+00  0.00000000E+00  0.00000000E+00
  0.00000000E+00  0.00000000E+00  0.00000000E+00
  0.00000000E+00  0.00000000E+00  0.00000000E+00
  0.00000000E+00  0.00000000E+00  0.00000000E+00
  0.00000000E+00  0.00000000E+00  0.00000000E+00
  0.00000000E+00  0.00000000E+00  0.00000000E+00
  0.00000000E+00  0.00000000E+00  0.00000000E+00
  0.00000000E+00  0.00000000E+00  0.00000000E+00
  0.00000000E+00  0.00000000E+00  0.00000000E+00
  0.00000000E+00  0.00000000E+00  0.00000000E+00
  0.00000000E+00  0.00000000E+00  0.00000000E+00
  0.00000000E+00  0.00000000E+00  0.00000000E+00
  0.00000000E+00  0.00000000E+00  0.00000000E+00
  0.00000000E+00  0.00000000E+00  0.00000000E+00
  0.00000000E+00  0.00000000E+00  0.00000000E+00
  0.00000000E+00  0.00000000E+00  0.00000000E+00
  0.00000000E+00  0.00000000E+00  0.00000000E+00
  0.00000000E+00  0.00000000E+00  0.00000000E+00
  0.00000000E+00  0.00000000E+00  0.00000000E+00
  0.00000000E+00  0.00000000E+00  0.00000000E+00
  0.00000000E+00  0.00000000E+00  0.00000000E+00
  0.00000000E+00  0.00000000E+00  0.00000000E+00
  0.00000000E+00  0.00000000E+00  0.00000000E+00
  0.00000000E+00  0.00000000E+00  0.00000000E+00
  0.00000000E+00  0.00000000E+00  0.00000000E+00
  0.00000000E+00  0.00000000E+00  0.00000000E+00
  0.00000000E+00  0.00000000E+00  0.00000000E+00
  0.00000000E+00  0.00000000E+00  0.00000000E+00
  0.00000000E+00  0.00000000E+00  0.00000000E+00
  0.00000000E+00  0.00000000E+00  0.00000000E+00
  0.00000000E+00  0.00000000E+00  0.00000000E+00
  0.00000000E+00  0.00000000E+00  0.00000000E+00
  0.00000000E+00  0.00000000E+00  0.00000000E+00
  0.00000000E+00  0.00000000E+00  0.00000000E+00
  0.00000000E+00  0.00000000E+00  0.00000000E+00
  0.00000000E+00  0.00000000E+00  0.00000000E+00
  0.00000000E+00  0.00000000E+00  0.00000000E+00
  0.00000000E+00  0.00000000E+00  0.00000000E+00
  0.00000000E+00  0.00000000E+00  0.00000000E+00
  0.00000000E+00  0.00000000E+00  0.00000000E+00
  0.00000000E+00  0.00000000E+00  0.00000000E+00
  0.00000000E+00  0.00000000E+00  0.00000000E+00
  0.00000000E+00  0.00000000E+00  0.00000000E+00
  0.00000000E+00  0.00000000E+00  0.00000000E+00
  0.00000000E+00  0.00000000E+00  0.00000000E+00
  0.00000000E+00  0.00000000E+00  0.00000000E+00
  0.00000000E+00  0.00000000E+00  0.00000000E+00
  0.00000000E+00  0.00000000E+00  0.00000000E+00
  0.00000000E+00  0.00000000E+00  0.00000000E+00
  0.00000000E+00  0.00000000E+00  0.00000000E+00
  0.00000000E+00  0.00000000E+00  0.00000000E+00
  0.00000000E+00  0.00000000E+00  0.00000000E+00
  0.00000000E+00  0.00000000E+00  0.00000000E+00
  0.00000000E+00  0.00000000E+00  0.00000000E+00
  0.00000000E+00  0.00000000E+00  0.00000000E+00
  0.00000000E+00  0.00000000E+00  0.00000000E+00
  0.00000000E+00  0.00000000E+00  0.00000000E+00
  0.00000000E+00  0.00000000E+00  0.00000000E+00
  0.00000000E+00  0.00000000E+00  0.00000000E+00
  0.00000000E+00  0.00000000E+00  0.00000000E+00
  0.00000000E+00  0.00000000E+00  0.00000000E+00
  0.00000000E+00  0.00000000E+00  0.00000000E+00
  0.00000000E+00  0.00000000E+00  0.00000000E+00
  0.00000000E+00  0.00000000E+00  0.00000000E+00
  0.00000000E+00  0.00000000E+00  0.00000000E+00
  0.00000000E+00  0.00000000E+00  0.00000000E+00
  0.00000000E+00  0.00000000E+00  0.00000000E+00
  0.00000000E+00  0.00000000E+00  0.00000000E+00
  0.00000000E+00  0.00000000E+00  0.00000000E+00
  0.00000000E+00  0.00000000E+00  0.00000000E+00
  0.00000000E+00  0.00000000E+00  0.00000000E+00
  0.00000000E+00  0.00000000E+00  0.00000000E+00
  0.00000000E+00  0.00000000E+00  0.00000000E+00
  0.00000000E+00  0.00000000E+00  0.00000000E+00
  0.00000000E+00  0.00000000E+00  0.00000000E+00
  0.00000000E+00  0.00000000E+00  0.00000000E+00
  0.00000000E+00  0.00000000E+00  0.00000000E+00
  0.00000000E+00  0.00000000E+00  0.00000000E+00
  0.00000000E+00  0.00000000E+00  0.00000000E+00
  0.00000000E+00  0.00000000E+00  0.00000000E+00
  0.00000000E+00  0.00000000E+00  0.00000000E+00
  0.00000000E+00  0.00000000E+00  0.00000000E+00
  0.00000000E+00  0.00000000E+00  0.00000000E+00
  0.00000000E+00  0.00000000E+00  0.00000000E+00
  0.00000000E+00  0.00000000E+00  0.00000000E+00
  0.00000000E+00  0.00000000E+00  0.00000000E+00
  0.00000000E+00  0.00000000E+00  0.00000000E+00
  0.00000000E+00  0.00000000E+00  0.00000000E+00
  0.00000000E+00  0.00000000E+00  0.00000000E+00
  0.00000000E+00  0.00000000E+00  0.00000000E+00
  0.00000000E+00  0.00000000E+00  0.00000000E+00
  0.00000000E+00  0.00000000E+00  0.00000000E+00
  0.00000000E+00  0.00000000E+00  0.00000000E+00
  0.00000000E+00  0.00000000E+00  0.00000000E+00
  0.00000000E+00  0.00000000E+00  0.00000000E+00
  0.00000000E+00  0.00000000E+00  0.00000000E+00
  0.00000000E+00  0.00000000E+00  0.00000000E+00
  0.00000000E+00  0.00000000E+00  0.00000000E+00
  0.00000000E+00  0.00000000E+00  0.00000000E+00
  0.00000000E+00  0.00000000E+00  0.00000000E+00
  0.00000000E+00  0.00000000E+00  0.00000000E+00
  0.00000000E+00  0.00000000E+00  0.00000000E+00
  0.00000000E+00  0.00000000E+00  0.00000000E+00
  0.00000000E+00  0.00000000E+00  0.00000000E+00
  0.00000000E+00  0.00000000E+00  0.00000000E+00
  0.00000000E+00  0.00000000E+00  0.00000000E+00
  0.00000000E+00  0.00000000E+00  0.00000000E+00
  0.00000000E+00  0.00000000E+00  0.00000000E+00
  0.00000000E+00  0.00000000E+00  0.00000000E+00
  0.00000000E+00  0.00000000E+00  0.00000000E+00
  0.00000000E+00  0.00000000E+00  0.00000000E+00
  0.00000000E+00  0.00000000E+00  0.00000000E+00
  0.00000000E+00  0.00000000E+00  0.00000000E+00
  0.00000000E+00  0.00000000E+00  0.00000000E+00
  0.00000000E+00  0.00000000E+00  0.00000000E+00
  0.00000000E+00  0.00000000E+00  0.00000000E+00
  0.00000000E+00  0.00000000E+00  0.00000000E+00
  0.00000000E+00  0.00000000E+00  0.00000000E+00
  0.00000000E+00  0.00000000E+00  0.00000000E+00
  0.00000000E+00  0.00000000E+00  0.00000000E+00
  0.00000000E+00  0.00000000E+00  0.00000000E+00
  0.00000000E+00  0.00000000E+00  0.00000000E+00
  0.00000000E+00  0.00000000E+00  0.00000000E+00
  0.00000000E+00  0.00000000E+00  0.00000000E+00
  0.00000000E+00  0.00000000E+00  0.00000000E+00
  0.00000000E+00  0.00000000E+00  0.00000000E+00
  0.00000000E+00  0.00000000E+00  0.00000000E+00
  0.00000000E+00  0.00000000E+00  0.00000000E+00
  0.00000000E+00  0.00000000E+00  0.00000000E+00
  0.00000000E+00  0.00000000E+00  0.00000000E+00
  0.00000000E+00  0.00000000E+00  0.00000000E+00
  0.00000000E+00  0.00000000E+00  0.00000000E+00
  0.00000000E+00  0.00000000E+00  0.00000000E+00
