SrTiFeO                                 
   1.00000000000000     
    11.1989999999999998    0.0000000000000000    0.0000000000000000
     0.0000000000000000   11.1989999999999998    0.0000000000000000
     0.0000000000000000    0.0000000000000000   15.9830000000000005
   Sr   Ti   Fe   O 
    32    29     3    94
Direct
  0.9988653892446865  0.2507509678408668  0.1250599273445133
  0.0013104988780172  0.2505510420723960  0.6262373988278767
  0.9997506039589510  0.7494599763286849  0.1249124898915235
  0.9922636950075301  0.7502178361672283  0.6268154233060416
  0.5013166716622806  0.2513397277860732  0.1246086454601987
  0.4954235997665501  0.2454230984502607  0.6273264716021263
  0.5002727026044987  0.7486446753633698  0.1246161661437650
  0.5091084802729315  0.7547461433719019  0.6261998807425615
  0.0013104988780172  0.2505510420723960  0.3737626011721235
  0.9988653892446865  0.2507509678408668  0.8749400726554867
  0.9922636950075301  0.7502178361672283  0.3731845766939584
  0.9997506039589510  0.7494599763286849  0.8750875101084766
  0.4954235997665501  0.2454230984502607  0.3726735283978809
  0.5013166716622806  0.2513397277860732  0.8753913545398012
  0.5091084802729315  0.7547461433719019  0.3738001192574386
  0.5002727026044987  0.7486446753633698  0.8753838338562350
  0.2493066912180381  0.9988773869995154  0.1252964126861103
  0.2520757708535225  0.0023327394178571  0.6245581546523261
  0.2506519062167256  0.4989172411433058  0.1237566119633302
  0.2485857997665065  0.4950000035936587  0.6281983522236324
  0.7507946703228179  0.0014846419916960  0.1258475065798407
  0.7480475316901920  0.9983834459815855  0.6226319372470558
  0.7490677966353897  0.5006616683403364  0.1244642963734259
  0.7494831061584392  0.5063691768892682  0.6259565036685991
  0.2520757708535225  0.0023327394178571  0.3754418453476739
  0.2493066912180381  0.9988773869995154  0.8747035873138896
  0.2485857997665065  0.4950000035936587  0.3718016477763676
  0.2506519062167256  0.4989172411433058  0.8762433880366697
  0.7480475316901920  0.9983834459815855  0.3773680627529442
  0.7507946703228179  0.0014846419916960  0.8741524934201593
  0.7494831061584392  0.5063691768892682  0.3740434963314009
  0.7490677966353897  0.5006616683403364  0.8755357036265742
  0.0000847756656189  0.0001736284013500  0.0000000000000000
  0.9968445610293083  0.0020703336824335  0.5000000000000000
  0.9998566799512625  0.5001602494353400  0.0000000000000000
  0.9967180129488915  0.4997403261064028  0.5000000000000000
  0.5000867659892199  0.0000202746784222  0.0000000000000000
  0.5025148898629624  0.0008912645765313  0.5000000000000000
  0.5001615768705717  0.4998792742617082  0.0000000000000000
  0.2501622802246192  0.2490850059200665  0.0000000000000000
  0.2491589509781142  0.2503139666019026  0.5000000000000000
  0.2497396037496560  0.7501968466688813  0.0000000000000000
  0.2390981986194270  0.7540960986874340  0.5000000000000000
  0.7504794130193155  0.2496810880589759  0.0000000000000000
  0.7498160539410882  0.7508846115938651  0.0000000000000000
  0.2496070157675578  0.2494010139684923  0.2489187543261035
  0.2496070157675578  0.2494010139684923  0.7510812456738966
  0.2514196907668103  0.7482208929290745  0.2505598183851939
  0.2514196907668103  0.7482208929290745  0.7494401816148061
  0.7483758711958527  0.2519285883154190  0.2527262369988946
  0.7483758711958527  0.2519285883154190  0.7472737630011053
  0.7500157517983239  0.7510896466197766  0.2500442460923110
  0.7500157517983239  0.7510896466197766  0.7499557539076890
  0.0000641809038111  0.0002332671846433  0.2510436986039961
  0.0000641809038111  0.0002332671846433  0.7489563013960039
  0.9996873430099764  0.5001075024753125  0.2499508804447942
  0.9996873430099764  0.5001075024753125  0.7500491195552057
  0.4998143699698803  0.9999214573554216  0.2493173819268063
  0.4998143699698803  0.9999214573554216  0.7506826180731937
  0.4996942782714192  0.5000367223226898  0.2512059336856017
  0.4996942782714192  0.5000367223226898  0.7487940663143983
  0.7602487511936378  0.2455075195524779  0.5000000000000000
  0.4995054256039944  0.5003148322066134  0.5000000000000000
  0.7503899873852439  0.7497678196122728  0.5000000000000000
  0.1092669003468561  0.1398716468905672  0.2493796644445765
  0.1092669003468561  0.1398716468905672  0.7506203355554306
  0.1100704015160825  0.6405016628923161  0.2519111900725300
  0.1100704015160825  0.6405016628923161  0.7480888099274701
  0.6083682399806655  0.1411726520661053  0.2499338878777017
  0.6083682399806655  0.1411726520661053  0.7500661121222985
  0.6092801648250746  0.6414961733319328  0.2495570204559985
  0.6092801648250746  0.6414961733319328  0.7504429795440015
  0.3900006667915630  0.3579925769667993  0.2494291784169027
  0.3900006667915630  0.3579925769667993  0.7505708215830973
  0.3912959871088370  0.8582737718538028  0.2502998671128393
  0.3912959871088370  0.8582737718538028  0.7497001328871606
  0.8902302158771569  0.3599657041731027  0.2510819810833896
  0.8902302158771569  0.3599657041731027  0.7489180189166104
  0.8908967207066393  0.8608275415787814  0.2481766362021795
  0.8908967207066393  0.8608275415787814  0.7518233637978206
  0.3588076538526677  0.1086681948431562  0.2507396294139814
  0.3588076538526677  0.1086681948431562  0.7492603705860186
  0.3589204466068165  0.6077146313035526  0.2462530327223766
  0.3589204466068165  0.6077146313035526  0.7537469672776235
  0.8589076152136379  0.1110726775953304  0.2559155278767449
  0.8589076152136379  0.1110726775953304  0.7440844721232551
  0.8605152123172448  0.6103690608553508  0.2493576226289775
  0.8605152123172448  0.6103690608553508  0.7506423773710226
  0.1398377447929011  0.3894463319195938  0.2487834092695643
  0.1398377447929011  0.3894463319195938  0.7512165907304358
  0.1418550809899109  0.8885190720245436  0.2553385808598049
  0.1418550809899109  0.8885190720245436  0.7446614191401952
  0.6401163714391646  0.3920802963894401  0.2466437840187166
  0.6401163714391646  0.3920802963894401  0.7533562159812834
  0.6404052526478290  0.8916927100902220  0.2506313474976137
  0.6404052526478290  0.8916927100902220  0.7493686525023864
  0.3594284060703843  0.3897125786939255  0.0000000000000000
  0.3586532194949248  0.8907854030154835  0.0000000000000000
  0.3700794366086753  0.8723234758028958  0.5000000000000000
  0.8597485882994548  0.3907809523615633  0.0000000000000000
  0.8592143743330873  0.8918428105684900  0.0000000000000000
  0.8637933927181372  0.8920788228505440  0.5000000000000000
  0.1412588742554572  0.1084016949019615  0.0000000000000000
  0.1401206514911792  0.1070158555644181  0.5000000000000000
  0.1406305422230782  0.6095750425394968  0.0000000000000000
  0.1536313845388013  0.6019845023869308  0.5000000000000000
  0.6411334314922722  0.1089028735919946  0.0000000000000000
  0.6284017457922098  0.1267914606673345  0.5000000000000000
  0.6403539823290761  0.6099871566986773  0.0000000000000000
  0.1095818813569614  0.3593363316995535  0.0000000000000000
  0.1078971631830113  0.3568840218944451  0.5000000000000000
  0.1084190423015389  0.8593041495343550  0.0000000000000000
  0.1100864573520334  0.8560879890765153  0.5000000000000000
  0.6105193415143789  0.3589719827186247  0.0000000000000000
  0.6086375013083827  0.8595490112288936  0.0000000000000000
  0.6174852461074921  0.8714875425500395  0.5000000000000000
  0.3912297850800833  0.1406316884096147  0.0000000000000000
  0.3817365054451320  0.1309885099592106  0.5000000000000000
  0.3893998146542915  0.6410663361379541  0.0000000000000000
  0.8919425571224270  0.1407119817665399  0.0000000000000000
  0.8924478022167068  0.1414822237183409  0.5000000000000000
  0.8906638851702081  0.6408779146439186  0.0000000000000000
  0.0006696366981770  0.0005632771855153  0.1259910326270020
  0.0017332625462401  0.9991527183511969  0.6244214195315736
  0.0004445389013962  0.5005783884742711  0.1250488949072331
  0.0015060729934113  0.4993833587747223  0.6250566643950447
  0.4993782210895357  0.9998706703734688  0.1250450507856037
  0.4988021020390483  0.0003520306449998  0.6253996628788663
  0.4997106456721833  0.4997742175643547  0.1239920017101488
  0.4985098228990789  0.4988923394478246  0.6252983293488048
  0.0017332625462401  0.9991527183511969  0.3755785804684264
  0.0006696366981770  0.0005632771855153  0.8740089673729980
  0.0015060729934113  0.4993833587747223  0.3749433356049553
  0.0004445389013962  0.5005783884742711  0.8749511050927670
  0.4988021020390483  0.0003520306449998  0.3746003371211337
  0.4993782210895357  0.9998706703734688  0.8749549492143963
  0.4997106456721833  0.4997742175643547  0.8760079982898511
  0.2480562419719533  0.2488539022659673  0.3742958505306001
  0.2499504787263799  0.2486773256899034  0.8753129417661505
  0.2652085517475077  0.7361666081895784  0.3786148763550876
  0.2478429279651601  0.7518172688160981  0.8743535584334060
  0.7521028460783895  0.2480104339679063  0.8744083707821229
  0.7496772802435733  0.7510084380005669  0.8754987292162780
  0.2499504787263799  0.2486773256899034  0.1246870582338495
  0.2480562419719533  0.2488539022659673  0.6257041494693999
  0.2478429279651601  0.7518172688160981  0.1256464415665940
  0.2652085517475077  0.7361666081895784  0.6213851236449125
  0.7521028460783895  0.2480104339679063  0.1255916292178771
  0.7364153367782197  0.2629527042950648  0.6225532306446084
  0.7496772802435733  0.7510084380005669  0.1245012707837220
  0.7523961828635332  0.7517673725937629  0.6272896476162890
  0.7364153367782197  0.2629527042950648  0.3774467693553916
  0.8520065899923840  0.3969077076248167  0.5000000000000000
  0.4985098228990789  0.4988923394478246  0.3747016706511951
  0.3664463285210130  0.3828080479234093  0.5000000000000000
  0.8962308842486114  0.6412366803981702  0.5000000000000000
  0.7523961828635332  0.7517673725937629  0.3727103523837109
  0.6315907774105594  0.6155328663899328  0.5000000000000000
 
  0.00000000E+00  0.00000000E+00  0.00000000E+00
  0.00000000E+00  0.00000000E+00  0.00000000E+00
  0.00000000E+00  0.00000000E+00  0.00000000E+00
  0.00000000E+00  0.00000000E+00  0.00000000E+00
  0.00000000E+00  0.00000000E+00  0.00000000E+00
  0.00000000E+00  0.00000000E+00  0.00000000E+00
  0.00000000E+00  0.00000000E+00  0.00000000E+00
  0.00000000E+00  0.00000000E+00  0.00000000E+00
  0.00000000E+00  0.00000000E+00  0.00000000E+00
  0.00000000E+00  0.00000000E+00  0.00000000E+00
  0.00000000E+00  0.00000000E+00  0.00000000E+00
  0.00000000E+00  0.00000000E+00  0.00000000E+00
  0.00000000E+00  0.00000000E+00  0.00000000E+00
  0.00000000E+00  0.00000000E+00  0.00000000E+00
  0.00000000E+00  0.00000000E+00  0.00000000E+00
  0.00000000E+00  0.00000000E+00  0.00000000E+00
  0.00000000E+00  0.00000000E+00  0.00000000E+00
  0.00000000E+00  0.00000000E+00  0.00000000E+00
  0.00000000E+00  0.00000000E+00  0.00000000E+00
  0.00000000E+00  0.00000000E+00  0.00000000E+00
  0.00000000E+00  0.00000000E+00  0.00000000E+00
  0.00000000E+00  0.00000000E+00  0.00000000E+00
  0.00000000E+00  0.00000000E+00  0.00000000E+00
  0.00000000E+00  0.00000000E+00  0.00000000E+00
  0.00000000E+00  0.00000000E+00  0.00000000E+00
  0.00000000E+00  0.00000000E+00  0.00000000E+00
  0.00000000E+00  0.00000000E+00  0.00000000E+00
  0.00000000E+00  0.00000000E+00  0.00000000E+00
  0.00000000E+00  0.00000000E+00  0.00000000E+00
  0.00000000E+00  0.00000000E+00  0.00000000E+00
  0.00000000E+00  0.00000000E+00  0.00000000E+00
  0.00000000E+00  0.00000000E+00  0.00000000E+00
  0.00000000E+00  0.00000000E+00  0.00000000E+00
  0.00000000E+00  0.00000000E+00  0.00000000E+00
  0.00000000E+00  0.00000000E+00  0.00000000E+00
  0.00000000E+00  0.00000000E+00  0.00000000E+00
  0.00000000E+00  0.00000000E+00  0.00000000E+00
  0.00000000E+00  0.00000000E+00  0.00000000E+00
  0.00000000E+00  0.00000000E+00  0.00000000E+00
  0.00000000E+00  0.00000000E+00  0.00000000E+00
  0.00000000E+00  0.00000000E+00  0.00000000E+00
  0.00000000E+00  0.00000000E+00  0.00000000E+00
  0.00000000E+00  0.00000000E+00  0.00000000E+00
  0.00000000E+00  0.00000000E+00  0.00000000E+00
  0.00000000E+00  0.00000000E+00  0.00000000E+00
  0.00000000E+00  0.00000000E+00  0.00000000E+00
  0.00000000E+00  0.00000000E+00  0.00000000E+00
  0.00000000E+00  0.00000000E+00  0.00000000E+00
  0.00000000E+00  0.00000000E+00  0.00000000E+00
  0.00000000E+00  0.00000000E+00  0.00000000E+00
  0.00000000E+00  0.00000000E+00  0.00000000E+00
  0.00000000E+00  0.00000000E+00  0.00000000E+00
  0.00000000E+00  0.00000000E+00  0.00000000E+00
  0.00000000E+00  0.00000000E+00  0.00000000E+00
  0.00000000E+00  0.00000000E+00  0.00000000E+00
  0.00000000E+00  0.00000000E+00  0.00000000E+00
  0.00000000E+00  0.00000000E+00  0.00000000E+00
  0.00000000E+00  0.00000000E+00  0.00000000E+00
  0.00000000E+00  0.00000000E+00  0.00000000E+00
  0.00000000E+00  0.00000000E+00  0.00000000E+00
  0.00000000E+00  0.00000000E+00  0.00000000E+00
  0.00000000E+00  0.00000000E+00  0.00000000E+00
  0.00000000E+00  0.00000000E+00  0.00000000E+00
  0.00000000E+00  0.00000000E+00  0.00000000E+00
  0.00000000E+00  0.00000000E+00  0.00000000E+00
  0.00000000E+00  0.00000000E+00  0.00000000E+00
  0.00000000E+00  0.00000000E+00  0.00000000E+00
  0.00000000E+00  0.00000000E+00  0.00000000E+00
  0.00000000E+00  0.00000000E+00  0.00000000E+00
  0.00000000E+00  0.00000000E+00  0.00000000E+00
  0.00000000E+00  0.00000000E+00  0.00000000E+00
  0.00000000E+00  0.00000000E+00  0.00000000E+00
  0.00000000E+00  0.00000000E+00  0.00000000E+00
  0.00000000E+00  0.00000000E+00  0.00000000E+00
  0.00000000E+00  0.00000000E+00  0.00000000E+00
  0.00000000E+00  0.00000000E+00  0.00000000E+00
  0.00000000E+00  0.00000000E+00  0.00000000E+00
  0.00000000E+00  0.00000000E+00  0.00000000E+00
  0.00000000E+00  0.00000000E+00  0.00000000E+00
  0.00000000E+00  0.00000000E+00  0.00000000E+00
  0.00000000E+00  0.00000000E+00  0.00000000E+00
  0.00000000E+00  0.00000000E+00  0.00000000E+00
  0.00000000E+00  0.00000000E+00  0.00000000E+00
  0.00000000E+00  0.00000000E+00  0.00000000E+00
  0.00000000E+00  0.00000000E+00  0.00000000E+00
  0.00000000E+00  0.00000000E+00  0.00000000E+00
  0.00000000E+00  0.00000000E+00  0.00000000E+00
  0.00000000E+00  0.00000000E+00  0.00000000E+00
  0.00000000E+00  0.00000000E+00  0.00000000E+00
  0.00000000E+00  0.00000000E+00  0.00000000E+00
  0.00000000E+00  0.00000000E+00  0.00000000E+00
  0.00000000E+00  0.00000000E+00  0.00000000E+00
  0.00000000E+00  0.00000000E+00  0.00000000E+00
  0.00000000E+00  0.00000000E+00  0.00000000E+00
  0.00000000E+00  0.00000000E+00  0.00000000E+00
  0.00000000E+00  0.00000000E+00  0.00000000E+00
  0.00000000E+00  0.00000000E+00  0.00000000E+00
  0.00000000E+00  0.00000000E+00  0.00000000E+00
  0.00000000E+00  0.00000000E+00  0.00000000E+00
  0.00000000E+00  0.00000000E+00  0.00000000E+00
  0.00000000E+00  0.00000000E+00  0.00000000E+00
  0.00000000E+00  0.00000000E+00  0.00000000E+00
  0.00000000E+00  0.00000000E+00  0.00000000E+00
  0.00000000E+00  0.00000000E+00  0.00000000E+00
  0.00000000E+00  0.00000000E+00  0.00000000E+00
  0.00000000E+00  0.00000000E+00  0.00000000E+00
  0.00000000E+00  0.00000000E+00  0.00000000E+00
  0.00000000E+00  0.00000000E+00  0.00000000E+00
  0.00000000E+00  0.00000000E+00  0.00000000E+00
  0.00000000E+00  0.00000000E+00  0.00000000E+00
  0.00000000E+00  0.00000000E+00  0.00000000E+00
  0.00000000E+00  0.00000000E+00  0.00000000E+00
  0.00000000E+00  0.00000000E+00  0.00000000E+00
  0.00000000E+00  0.00000000E+00  0.00000000E+00
  0.00000000E+00  0.00000000E+00  0.00000000E+00
  0.00000000E+00  0.00000000E+00  0.00000000E+00
  0.00000000E+00  0.00000000E+00  0.00000000E+00
  0.00000000E+00  0.00000000E+00  0.00000000E+00
  0.00000000E+00  0.00000000E+00  0.00000000E+00
  0.00000000E+00  0.00000000E+00  0.00000000E+00
  0.00000000E+00  0.00000000E+00  0.00000000E+00
  0.00000000E+00  0.00000000E+00  0.00000000E+00
  0.00000000E+00  0.00000000E+00  0.00000000E+00
  0.00000000E+00  0.00000000E+00  0.00000000E+00
  0.00000000E+00  0.00000000E+00  0.00000000E+00
  0.00000000E+00  0.00000000E+00  0.00000000E+00
  0.00000000E+00  0.00000000E+00  0.00000000E+00
  0.00000000E+00  0.00000000E+00  0.00000000E+00
  0.00000000E+00  0.00000000E+00  0.00000000E+00
  0.00000000E+00  0.00000000E+00  0.00000000E+00
  0.00000000E+00  0.00000000E+00  0.00000000E+00
  0.00000000E+00  0.00000000E+00  0.00000000E+00
  0.00000000E+00  0.00000000E+00  0.00000000E+00
  0.00000000E+00  0.00000000E+00  0.00000000E+00
  0.00000000E+00  0.00000000E+00  0.00000000E+00
  0.00000000E+00  0.00000000E+00  0.00000000E+00
  0.00000000E+00  0.00000000E+00  0.00000000E+00
  0.00000000E+00  0.00000000E+00  0.00000000E+00
  0.00000000E+00  0.00000000E+00  0.00000000E+00
  0.00000000E+00  0.00000000E+00  0.00000000E+00
  0.00000000E+00  0.00000000E+00  0.00000000E+00
  0.00000000E+00  0.00000000E+00  0.00000000E+00
  0.00000000E+00  0.00000000E+00  0.00000000E+00
  0.00000000E+00  0.00000000E+00  0.00000000E+00
  0.00000000E+00  0.00000000E+00  0.00000000E+00
  0.00000000E+00  0.00000000E+00  0.00000000E+00
  0.00000000E+00  0.00000000E+00  0.00000000E+00
  0.00000000E+00  0.00000000E+00  0.00000000E+00
  0.00000000E+00  0.00000000E+00  0.00000000E+00
  0.00000000E+00  0.00000000E+00  0.00000000E+00
  0.00000000E+00  0.00000000E+00  0.00000000E+00
  0.00000000E+00  0.00000000E+00  0.00000000E+00
  0.00000000E+00  0.00000000E+00  0.00000000E+00
  0.00000000E+00  0.00000000E+00  0.00000000E+00
  0.00000000E+00  0.00000000E+00  0.00000000E+00
  0.00000000E+00  0.00000000E+00  0.00000000E+00
  0.00000000E+00  0.00000000E+00  0.00000000E+00
  0.00000000E+00  0.00000000E+00  0.00000000E+00
