SrTiFeO                                 
   1.00000000000000     
    11.1989999999999998    0.0000000000000000    0.0000000000000000
     0.0000000000000000   11.1989999999999998    0.0000000000000000
     0.0000000000000000    0.0000000000000000   15.9830000000000005
   Sr   Ti   Fe   O 
    32    29     3    94
Direct
  0.9995367735121053  0.2500118338612606  0.1250552911945004
  0.9987526965941527  0.2512626960438576  0.6249365746816129
  0.9986952845976391  0.7499762064493517  0.1250894226462098
  0.9928626428090452  0.7472367195601767  0.6266895507919439
  0.4998127410215286  0.2523701720691545  0.1256967321385317
  0.5061995464837443  0.2480415643051821  0.6218552744766348
  0.4991794767621781  0.7497377275999551  0.1231934305388071
  0.5037450795631894  0.7582521542021894  0.6327812993769716
  0.9987526965941527  0.2512626960438576  0.3750634253183801
  0.9995367735121053  0.2500118338612606  0.8749447088054996
  0.9928626428090452  0.7472367195601767  0.3733104492080562
  0.9986952845976391  0.7499762064493517  0.8749105773537903
  0.5061995464837443  0.2480415643051821  0.3781447255233653
  0.4998127410215286  0.2523701720691545  0.8743032678614684
  0.5037450795631894  0.7582521542021894  0.3672187006230284
  0.4991794767621781  0.7497377275999551  0.8768065694611928
  0.2497077144479582  0.9991683523436574  0.1255073911070097
  0.2525887919687391  0.0049798751405418  0.6252920813129443
  0.2507057306413008  0.4999939847105075  0.1235727092195811
  0.2467971688903054  0.4974735880050057  0.6282858842942786
  0.7496622043334482  0.9990823174666918  0.1247622861754305
  0.7513947759020836  0.0052251269449366  0.6261168745759831
  0.7476956139240126  0.5001054531896726  0.1254661114558514
  0.7543491035466618  0.4942657720566404  0.6252779085712636
  0.2525887919687391  0.0049798751405418  0.3747079186870557
  0.2497077144479582  0.9991683523436574  0.8744926088929903
  0.2467971688903054  0.4974735880050057  0.3717141157057215
  0.2507057306413008  0.4999939847105075  0.8764272907804188
  0.7513947759020836  0.0052251269449366  0.3738831254240169
  0.7496622043334482  0.9990823174666918  0.8752377138245694
  0.7543491035466618  0.4942657720566404  0.3747220914287364
  0.7476956139240126  0.5001054531896726  0.8745338885441486
  0.0001983723615110  0.9993340378039929 -0.0000000000000000
  0.9968756172192240  0.0091764640593980  0.5000000000000000
  0.9995550914734301  0.5000198320964238 -0.0000000000000000
  0.9981993425943669  0.4982212664213929  0.5000000000000000
  0.5002803830756904  0.0007839497557317 -0.0000000000000000
  0.5031685482960540  0.9972745379556163  0.5000000000000000
  0.4998299758091143  0.4990263894502787 -0.0000000000000000
  0.2504422349853844  0.2501197960010523 -0.0000000000000000
  0.2493000780713017  0.2518311018789746  0.5000000000000000
  0.2488902567515821  0.7504691132730104 -0.0000000000000000
  0.2348051026054021  0.7584267426686545  0.5000000000000000
  0.7496495742900925  0.2504764719136345 -0.0000000000000000
  0.7503218363369990  0.7505314553623289 -0.0000000000000000
  0.2507804761541968  0.2504003352155759  0.2503791180080826
  0.2507804761541968  0.2504003352155759  0.7496208819919175
  0.2502750961864159  0.7490983007851308  0.2500305385123089
  0.2502750961864159  0.7490983007851308  0.7499694614876911
  0.7503003079568159  0.2498633789448552  0.2508629440798026
  0.7503003079568159  0.2498633789448552  0.7491370559201973
  0.7492969367471463  0.7489161410931309  0.2510917871545132
  0.7492969367471463  0.7489161410931309  0.7489082128454867
  0.0007537492917539  0.0001469505853150  0.2506108830678608
  0.0007537492917539  0.0001469505853150  0.7493891169321392
  0.0002115732487479  0.5000817821711944  0.2492820316282659
  0.0002115732487479  0.5000817821711944  0.7507179683717341
  0.5000515830109641  0.0013713662669652  0.2491957097814005
  0.5000515830109641  0.0013713662669652  0.7508042902185995
  0.5000657913130401  0.5024602827715337  0.2531560499287759
  0.5000657913130401  0.5024602827715337  0.7468439500712241
  0.7514048732809400  0.2510699142705010  0.5000000000000000
  0.4967987873963526  0.4865252789343761  0.5000000000000000
  0.7580156926062268  0.7635972463345585  0.5000000000000000
  0.1100724357168722  0.1399929798611286  0.2480744413845109
  0.1100724357168722  0.1399929798611286  0.7519255586154890
  0.1091007083731387  0.6415091223204169  0.2511534784530542
  0.1091007083731387  0.6415091223204169  0.7488465215469458
  0.6087830933258901  0.1407226361827048  0.2494610415554545
  0.6087830933258901  0.1407226361827048  0.7505389584445455
  0.6089925806226351  0.6416831234727345  0.2434725482025298
  0.6089925806226351  0.6416831234727345  0.7565274517974702
  0.3913095032439768  0.3612003571392421  0.2572081064428542
  0.3913095032439768  0.3612003571392421  0.7427918935571457
  0.3895029786206778  0.8602774028120572  0.2485337315049556
  0.3895029786206778  0.8602774028120572  0.7514662684950444
  0.8902976720303863  0.3606295963125032  0.2500165720569776
  0.8902976720303863  0.3606295963125032  0.7499834279430224
  0.8893209088888929  0.8590134196557677  0.2535970330571697
  0.8893209088888929  0.8590134196557677  0.7464029669428303
  0.3596308176766412  0.1098630617450990  0.2488782693782663
  0.3596308176766412  0.1098630617450990  0.7511217306217337
  0.3585304071276649  0.6095367653162413  0.2458836514170831
  0.3585304071276649  0.6095367653162413  0.7541163485829169
  0.8602333644743295  0.1089116835902111  0.2464929821061624
  0.8602333644743295  0.1089116835902111  0.7535070178938376
  0.8596738614363281  0.6091225303130009  0.2494669851489101
  0.8596738614363281  0.6091225303130009  0.7505330148510899
  0.1405564503961153  0.3904585167049660  0.2487602493479025
  0.1405564503961153  0.3904585167049660  0.7512397506520975
  0.1413571992384079  0.8890687999856802  0.2552118614181124
  0.1413571992384079  0.8890687999856802  0.7447881385818875
  0.6393289329867992  0.3918684642449990  0.2546037567496771
  0.6393289329867992  0.3918684642449990  0.7453962432503229
  0.6397164244361434  0.8901181726524764  0.2523622061152431
  0.6397164244361434  0.8901181726524764  0.7476377938847569
  0.3588713321520438  0.3906851623189815 -0.0000000000000000
  0.3593257431239098  0.8905514776192983 -0.0000000000000000
  0.3595913988114348  0.8806503719242657  0.5000000000000000
  0.8594380402416307  0.3911836605304693 -0.0000000000000000
  0.8595259396850716  0.8916428648044755 -0.0000000000000000
  0.8579063280977937  0.8974638433258805  0.5000000000000000
  0.1411667386640744  0.1094783737982574 -0.0000000000000000
  0.1431186629401518  0.1037524755175911  0.5000000000000000
  0.1407800403351727  0.6093167548893470 -0.0000000000000000
  0.1491510578695440  0.6051322597142416  0.5000000000000000
  0.6413614592105835  0.1090292695775192 -0.0000000000000000
  0.6398942911651893  0.1027797280402651  0.5000000000000000
  0.6398637491393128  0.6100381894233559 -0.0000000000000000
  0.1093045565701626  0.3589465541853457 -0.0000000000000000
  0.1054889333356959  0.3549344680000650  0.5000000000000000
  0.1089159308408991  0.8587264329187514 -0.0000000000000000
  0.1015487735839414  0.8542453474156750  0.5000000000000000
  0.6091048944327229  0.3591892814901764 -0.0000000000000000
  0.6094610828197448  0.8595833954420381 -0.0000000000000000
  0.6017764618084790  0.8459180114887566  0.5000000000000000
  0.3913744505527543  0.1409077648074894 -0.0000000000000000
  0.3901957307407289  0.1378269813759669  0.5000000000000000
  0.3896028816216316  0.6402452064588346 -0.0000000000000000
  0.8912707687761311  0.1404110011232340 -0.0000000000000000
  0.8942328211666537  0.1429894175541859  0.5000000000000000
  0.8907719277696611  0.6409593244359124 -0.0000000000000000
  0.0022974465204697  0.9955649535370897  0.1254421977226106
  0.9995500114351196  0.0029127275867793  0.6251319452585955
  0.0007153195565681  0.5007075266155713  0.1248097362295543
  0.0018265270191262  0.5011841813280877  0.6256486402587165
  0.5011217864889020  0.9993790871028455  0.1248341797001767
  0.4981525044934406  0.9996752030321130  0.6254251936739932
  0.4992098528243863  0.4955389500218019  0.1254337196184171
  0.5018886075932103  0.5259724331877256  0.6211169786572451
  0.9995500114351196  0.0029127275867793  0.3748680547414044
  0.0022974465204697  0.9955649535370897  0.8745578022773894
  0.0018265270191262  0.5011841813280877  0.3743513597412835
  0.0007153195565681  0.5007075266155713  0.8751902637704457
  0.4981525044934406  0.9996752030321130  0.3745748063260068
  0.5011217864889020  0.9993790871028455  0.8751658202998234
  0.4992098528243863  0.4955389500218019  0.8745662803815829
  0.2464750103346975  0.2463006590579591  0.3745066824435916
  0.2532305958201128  0.2523120758998506  0.8746527913667556
  0.2618818686706451  0.7384065151563390  0.3784273998764155
  0.2474865376331967  0.7520428991633080  0.8746766819937425
  0.7484752356171328  0.2527167405517683  0.8751525107575922
  0.7523248783204816  0.7528125232566283  0.8750895887022763
  0.2532305958201128  0.2523120758998506  0.1253472086332444
  0.2464750103346975  0.2463006590579591  0.6254933175564084
  0.2474865376331967  0.7520428991633080  0.1253233180062575
  0.2618818686706451  0.7384065151563390  0.6215726001235846
  0.7484752356171328  0.2527167405517683  0.1248474892424079
  0.7529100934259347  0.2450045895507848  0.6275442551297780
  0.7523248783204816  0.7528125232566283  0.1249104112977237
  0.7422741483688119  0.7373408611702833  0.6235731325656352
  0.7529100934259347  0.2450045895507848  0.3724557448702221
  0.8647742390005190  0.3907296067816124  0.5000000000000000
  0.5018886075932103  0.5259724331877256  0.3788830213427549
  0.3465121734529966  0.3929276078397525  0.5000000000000000
  0.8841819297187747  0.6364052140561474  0.5000000000000000
  0.7422741483688119  0.7373408611702833  0.3764268674343649
  0.6224546519703267  0.3637250743409189  0.5000000000000000
 
  0.00000000E+00  0.00000000E+00  0.00000000E+00
  0.00000000E+00  0.00000000E+00  0.00000000E+00
  0.00000000E+00  0.00000000E+00  0.00000000E+00
  0.00000000E+00  0.00000000E+00  0.00000000E+00
  0.00000000E+00  0.00000000E+00  0.00000000E+00
  0.00000000E+00  0.00000000E+00  0.00000000E+00
  0.00000000E+00  0.00000000E+00  0.00000000E+00
  0.00000000E+00  0.00000000E+00  0.00000000E+00
  0.00000000E+00  0.00000000E+00  0.00000000E+00
  0.00000000E+00  0.00000000E+00  0.00000000E+00
  0.00000000E+00  0.00000000E+00  0.00000000E+00
  0.00000000E+00  0.00000000E+00  0.00000000E+00
  0.00000000E+00  0.00000000E+00  0.00000000E+00
  0.00000000E+00  0.00000000E+00  0.00000000E+00
  0.00000000E+00  0.00000000E+00  0.00000000E+00
  0.00000000E+00  0.00000000E+00  0.00000000E+00
  0.00000000E+00  0.00000000E+00  0.00000000E+00
  0.00000000E+00  0.00000000E+00  0.00000000E+00
  0.00000000E+00  0.00000000E+00  0.00000000E+00
  0.00000000E+00  0.00000000E+00  0.00000000E+00
  0.00000000E+00  0.00000000E+00  0.00000000E+00
  0.00000000E+00  0.00000000E+00  0.00000000E+00
  0.00000000E+00  0.00000000E+00  0.00000000E+00
  0.00000000E+00  0.00000000E+00  0.00000000E+00
  0.00000000E+00  0.00000000E+00  0.00000000E+00
  0.00000000E+00  0.00000000E+00  0.00000000E+00
  0.00000000E+00  0.00000000E+00  0.00000000E+00
  0.00000000E+00  0.00000000E+00  0.00000000E+00
  0.00000000E+00  0.00000000E+00  0.00000000E+00
  0.00000000E+00  0.00000000E+00  0.00000000E+00
  0.00000000E+00  0.00000000E+00  0.00000000E+00
  0.00000000E+00  0.00000000E+00  0.00000000E+00
  0.00000000E+00  0.00000000E+00  0.00000000E+00
  0.00000000E+00  0.00000000E+00  0.00000000E+00
  0.00000000E+00  0.00000000E+00  0.00000000E+00
  0.00000000E+00  0.00000000E+00  0.00000000E+00
  0.00000000E+00  0.00000000E+00  0.00000000E+00
  0.00000000E+00  0.00000000E+00  0.00000000E+00
  0.00000000E+00  0.00000000E+00  0.00000000E+00
  0.00000000E+00  0.00000000E+00  0.00000000E+00
  0.00000000E+00  0.00000000E+00  0.00000000E+00
  0.00000000E+00  0.00000000E+00  0.00000000E+00
  0.00000000E+00  0.00000000E+00  0.00000000E+00
  0.00000000E+00  0.00000000E+00  0.00000000E+00
  0.00000000E+00  0.00000000E+00  0.00000000E+00
  0.00000000E+00  0.00000000E+00  0.00000000E+00
  0.00000000E+00  0.00000000E+00  0.00000000E+00
  0.00000000E+00  0.00000000E+00  0.00000000E+00
  0.00000000E+00  0.00000000E+00  0.00000000E+00
  0.00000000E+00  0.00000000E+00  0.00000000E+00
  0.00000000E+00  0.00000000E+00  0.00000000E+00
  0.00000000E+00  0.00000000E+00  0.00000000E+00
  0.00000000E+00  0.00000000E+00  0.00000000E+00
  0.00000000E+00  0.00000000E+00  0.00000000E+00
  0.00000000E+00  0.00000000E+00  0.00000000E+00
  0.00000000E+00  0.00000000E+00  0.00000000E+00
  0.00000000E+00  0.00000000E+00  0.00000000E+00
  0.00000000E+00  0.00000000E+00  0.00000000E+00
  0.00000000E+00  0.00000000E+00  0.00000000E+00
  0.00000000E+00  0.00000000E+00  0.00000000E+00
  0.00000000E+00  0.00000000E+00  0.00000000E+00
  0.00000000E+00  0.00000000E+00  0.00000000E+00
  0.00000000E+00  0.00000000E+00  0.00000000E+00
  0.00000000E+00  0.00000000E+00  0.00000000E+00
  0.00000000E+00  0.00000000E+00  0.00000000E+00
  0.00000000E+00  0.00000000E+00  0.00000000E+00
  0.00000000E+00  0.00000000E+00  0.00000000E+00
  0.00000000E+00  0.00000000E+00  0.00000000E+00
  0.00000000E+00  0.00000000E+00  0.00000000E+00
  0.00000000E+00  0.00000000E+00  0.00000000E+00
  0.00000000E+00  0.00000000E+00  0.00000000E+00
  0.00000000E+00  0.00000000E+00  0.00000000E+00
  0.00000000E+00  0.00000000E+00  0.00000000E+00
  0.00000000E+00  0.00000000E+00  0.00000000E+00
  0.00000000E+00  0.00000000E+00  0.00000000E+00
  0.00000000E+00  0.00000000E+00  0.00000000E+00
  0.00000000E+00  0.00000000E+00  0.00000000E+00
  0.00000000E+00  0.00000000E+00  0.00000000E+00
  0.00000000E+00  0.00000000E+00  0.00000000E+00
  0.00000000E+00  0.00000000E+00  0.00000000E+00
  0.00000000E+00  0.00000000E+00  0.00000000E+00
  0.00000000E+00  0.00000000E+00  0.00000000E+00
  0.00000000E+00  0.00000000E+00  0.00000000E+00
  0.00000000E+00  0.00000000E+00  0.00000000E+00
  0.00000000E+00  0.00000000E+00  0.00000000E+00
  0.00000000E+00  0.00000000E+00  0.00000000E+00
  0.00000000E+00  0.00000000E+00  0.00000000E+00
  0.00000000E+00  0.00000000E+00  0.00000000E+00
  0.00000000E+00  0.00000000E+00  0.00000000E+00
  0.00000000E+00  0.00000000E+00  0.00000000E+00
  0.00000000E+00  0.00000000E+00  0.00000000E+00
  0.00000000E+00  0.00000000E+00  0.00000000E+00
  0.00000000E+00  0.00000000E+00  0.00000000E+00
  0.00000000E+00  0.00000000E+00  0.00000000E+00
  0.00000000E+00  0.00000000E+00  0.00000000E+00
  0.00000000E+00  0.00000000E+00  0.00000000E+00
  0.00000000E+00  0.00000000E+00  0.00000000E+00
  0.00000000E+00  0.00000000E+00  0.00000000E+00
  0.00000000E+00  0.00000000E+00  0.00000000E+00
  0.00000000E+00  0.00000000E+00  0.00000000E+00
  0.00000000E+00  0.00000000E+00  0.00000000E+00
  0.00000000E+00  0.00000000E+00  0.00000000E+00
  0.00000000E+00  0.00000000E+00  0.00000000E+00
  0.00000000E+00  0.00000000E+00  0.00000000E+00
  0.00000000E+00  0.00000000E+00  0.00000000E+00
  0.00000000E+00  0.00000000E+00  0.00000000E+00
  0.00000000E+00  0.00000000E+00  0.00000000E+00
  0.00000000E+00  0.00000000E+00  0.00000000E+00
  0.00000000E+00  0.00000000E+00  0.00000000E+00
  0.00000000E+00  0.00000000E+00  0.00000000E+00
  0.00000000E+00  0.00000000E+00  0.00000000E+00
  0.00000000E+00  0.00000000E+00  0.00000000E+00
  0.00000000E+00  0.00000000E+00  0.00000000E+00
  0.00000000E+00  0.00000000E+00  0.00000000E+00
  0.00000000E+00  0.00000000E+00  0.00000000E+00
  0.00000000E+00  0.00000000E+00  0.00000000E+00
  0.00000000E+00  0.00000000E+00  0.00000000E+00
  0.00000000E+00  0.00000000E+00  0.00000000E+00
  0.00000000E+00  0.00000000E+00  0.00000000E+00
  0.00000000E+00  0.00000000E+00  0.00000000E+00
  0.00000000E+00  0.00000000E+00  0.00000000E+00
  0.00000000E+00  0.00000000E+00  0.00000000E+00
  0.00000000E+00  0.00000000E+00  0.00000000E+00
  0.00000000E+00  0.00000000E+00  0.00000000E+00
  0.00000000E+00  0.00000000E+00  0.00000000E+00
  0.00000000E+00  0.00000000E+00  0.00000000E+00
  0.00000000E+00  0.00000000E+00  0.00000000E+00
  0.00000000E+00  0.00000000E+00  0.00000000E+00
  0.00000000E+00  0.00000000E+00  0.00000000E+00
  0.00000000E+00  0.00000000E+00  0.00000000E+00
  0.00000000E+00  0.00000000E+00  0.00000000E+00
  0.00000000E+00  0.00000000E+00  0.00000000E+00
  0.00000000E+00  0.00000000E+00  0.00000000E+00
  0.00000000E+00  0.00000000E+00  0.00000000E+00
  0.00000000E+00  0.00000000E+00  0.00000000E+00
  0.00000000E+00  0.00000000E+00  0.00000000E+00
  0.00000000E+00  0.00000000E+00  0.00000000E+00
  0.00000000E+00  0.00000000E+00  0.00000000E+00
  0.00000000E+00  0.00000000E+00  0.00000000E+00
  0.00000000E+00  0.00000000E+00  0.00000000E+00
  0.00000000E+00  0.00000000E+00  0.00000000E+00
  0.00000000E+00  0.00000000E+00  0.00000000E+00
  0.00000000E+00  0.00000000E+00  0.00000000E+00
  0.00000000E+00  0.00000000E+00  0.00000000E+00
  0.00000000E+00  0.00000000E+00  0.00000000E+00
  0.00000000E+00  0.00000000E+00  0.00000000E+00
  0.00000000E+00  0.00000000E+00  0.00000000E+00
  0.00000000E+00  0.00000000E+00  0.00000000E+00
  0.00000000E+00  0.00000000E+00  0.00000000E+00
  0.00000000E+00  0.00000000E+00  0.00000000E+00
  0.00000000E+00  0.00000000E+00  0.00000000E+00
  0.00000000E+00  0.00000000E+00  0.00000000E+00
  0.00000000E+00  0.00000000E+00  0.00000000E+00
  0.00000000E+00  0.00000000E+00  0.00000000E+00
  0.00000000E+00  0.00000000E+00  0.00000000E+00
  0.00000000E+00  0.00000000E+00  0.00000000E+00
  0.00000000E+00  0.00000000E+00  0.00000000E+00
  0.00000000E+00  0.00000000E+00  0.00000000E+00
