SrTiFeO                                 
   1.00000000000000     
    11.1989999999999998    0.0000000000000000    0.0000000000000000
     0.0000000000000000   11.1989999999999998    0.0000000000000000
     0.0000000000000000    0.0000000000000000   15.9830000000000005
   Sr   Ti   Fe   O 
    32    31     1    94
Direct
  0.0000006541869299  0.2501507501603920  0.1249975823064087
  0.0009949656508017  0.2494662192976628  0.6250935834205448
 -0.0014702423548762  0.7500187938781165  0.1254583821546671
 -0.0075744082658303  0.7492560965657151  0.6232462675466215
  0.4993726631509129  0.2510784456510439  0.1252722342196320
  0.5016915972015200  0.2450852434631989  0.6242592099416439
  0.4992763776855574  0.7511450478591897  0.1230243137448260
  0.5022086835585461  0.7576908394054239  0.6321056674471153
  0.0009949656508017  0.2494662192976628  0.3749064165794550
  0.0000006541869299  0.2501507501603920  0.8750024176935911
 -0.0075744082658303  0.7492560965657151  0.3767537324533783
 -0.0014702423548762  0.7500187938781165  0.8745416178453331
  0.5016915972015200  0.2450852434631989  0.3757407900583561
  0.4993726631509129  0.2510784456510439  0.8747277657803678
  0.5022086835585461  0.7576908394054239  0.3678943325528844
  0.4992763776855574  0.7511450478591897  0.8769756862551741
  0.2496518668978428 -0.0004228902019338  0.1255177704981564
  0.2505078533273616  0.0025436455396568  0.6246645613812630
  0.2501981642232483  0.5000952737479638  0.1236377202272765
  0.2449020023273459  0.4983266407473347  0.6279922678899845
  0.7501315191805759 -0.0011213877503541  0.1249660263836445
  0.7514243724214120 -0.0019432064497088  0.6240147396386059
  0.7487362694907217  0.5005022776134290  0.1248047832618990
  0.7573230127076381  0.4977110066623505  0.6286297613019702
  0.2505078533273616  0.0025436455396568  0.3753354386187367
  0.2496518668978428 -0.0004228902019338  0.8744822295018440
  0.2449020023273459  0.4983266407473347  0.3720077321100155
  0.2501981642232483  0.5000952737479638  0.8763622797727236
  0.7514243724214120 -0.0019432064497088  0.3759852603613941
  0.7501315191805759 -0.0011213877503541  0.8750339736163559
  0.7573230127076381  0.4977110066623505  0.3713702386980301
  0.7487362694907217  0.5005022776134290  0.8751952167381013
 -0.0000292153438805 -0.0004193954227921  0.0000000000000000
 -0.0027857179936839  0.0032327409911177  0.5000000000000000
 -0.0002010996275429  0.4999556158788689  0.0000000000000000
 -0.0011226560529395  0.4995728901527774  0.5000000000000000
  0.5002360145792487  0.0008155965319420  0.0000000000000000
  0.5010051052514493 -0.0036542330428817  0.5000000000000000
  0.4996677169571951  0.4991214622430657  0.0000000000000000
  0.2504855507846373  0.2502170266792173  0.0000000000000000
  0.2484458394040415  0.2493119491571625  0.5000000000000000
  0.2488642931979045  0.7503442469596849  0.0000000000000000
  0.2426840629418068  0.7543496604327420  0.5000000000000000
  0.7499864703581649  0.2502558752039006  0.0000000000000000
  0.7505134869795428  0.7506599090673461  0.0000000000000000
  0.2506980006947612  0.2503266305510471  0.2500863839486683
  0.2506980006947612  0.2503266305510471  0.7499136160513316
  0.2497512595180250  0.7491423332668894  0.2501451222924123
  0.2497512595180250  0.7491423332668894  0.7498548777075875
  0.7501922050152077  0.2490375839187449  0.2500516578500596
  0.7501922050152077  0.2490375839187449  0.7499483421499403
  0.7492584347424992  0.7490737904408998  0.2507343681489811
  0.7492584347424992  0.7490737904408998  0.7492656318510187
  0.0007327548693164 -0.0001166908677316  0.2505806406186046
  0.0007327548693164 -0.0001166908677316  0.7494193593813956
  0.0004738666811546  0.4999295891198930  0.2492232545416556
  0.0004738666811546  0.4999295891198930  0.7507767454583444
  0.5000163360471448  0.0010318098017388  0.2492364384314844
  0.5000163360471448  0.0010318098017388  0.7507635615685155
  0.5006215195999315  0.5019216684055263  0.2500049241197233
  0.5006215195999315  0.5019216684055263  0.7499950758802766
  0.7502903922602840  0.2501155107715286  0.5000000000000000
  0.4947321988764744  0.4958854542271542  0.5000000000000000
  0.7453286112166984  0.7483973235485053  0.5000000000000000
  0.1103277710091188  0.1407097854129098  0.2474063015755539
  0.1103277710091188  0.1407097854129098  0.7525936984244460
  0.1090210728763727  0.6410902142723449  0.2514810886714425
  0.1090210728763727  0.6410902142723449  0.7485189113285575
  0.6089179140837165  0.1412337603760745  0.2491584529335542
  0.6089179140837165  0.1412337603760745  0.7508415470664459
  0.6084480618242827  0.6410715168422313  0.2417776703060713
  0.6084480618242827  0.6410715168422313  0.7582223296939282
  0.3917979093969881  0.3614547411564278  0.2566090259239223
  0.3917979093969881  0.3614547411564278  0.7433909740760776
  0.3896167960936155  0.8604357812818185  0.2482244888670466
  0.3896167960936155  0.8604357812818185  0.7517755111329532
  0.8898876011084084  0.3599257729393430  0.2509519266079441
  0.8898876011084084  0.3599257729393430  0.7490480733920556
  0.8898488509385820  0.8595038652174899  0.2533546301990737
  0.8898488509385820  0.8595038652174899  0.7466453698009266
  0.3599136834883219  0.1103404826655361  0.2494050488606750
  0.3599136834883219  0.1103404826655361  0.7505949511393248
  0.3589627425382318  0.6086875494269588  0.2472847023558003
  0.3589627425382318  0.6086875494269588  0.7527152976441995
  0.8593866789956098  0.1092857588669249  0.2487345705869753
  0.8593866789956098  0.1092857588669249  0.7512654294130251
  0.8600056027726420  0.6086253725336642  0.2475808693519119
  0.8600056027726420  0.6086253725336642  0.7524191306480879
  0.1407655391192851  0.3905409810477495  0.2485344768268560
  0.1407655391192851  0.3905409810477495  0.7514655231731442
  0.1411981690742449  0.8896149152979557  0.2529248666448292
  0.1411981690742449  0.8896149152979557  0.7470751333551708
  0.6401038631802961  0.3916024120046985  0.2533102396290775
  0.6401038631802961  0.3916024120046985  0.7466897603709225
  0.6395808751704014  0.8906660848234752  0.2511047556795696
  0.6395808751704014  0.8906660848234752  0.7488952443204303
  0.3588751924253404  0.3909121718342145  0.0000000000000000
  0.3594860491325311  0.8903238328210520  0.0000000000000000
  0.3587444797347302  0.8866457529776900  0.5000000000000000
  0.8592797802508289  0.3908733602421459  0.0000000000000000
  0.8597059364127849  0.8917864083404528  0.0000000000000000
  0.8654713946979234  0.8984009863090312  0.5000000000000000
  0.1412018421445884  0.1095735072428342  0.0000000000000000
  0.1444182520943766  0.1075491410352461  0.5000000000000000
  0.1405481023923722  0.6091101503102069  0.0000000000000000
  0.1458148442478664  0.6062601340517435  0.5000000000000000
  0.6414271333138341  0.1094315416032995  0.0000000000000000
  0.6418814747313114  0.1066983912542666  0.5000000000000000
  0.6394395397807194  0.6098079836414174  0.0000000000000000
  0.1094291626722806  0.3586698277529580  0.0000000000000000
  0.1058461238861551  0.3559568147550087  0.5000000000000000
  0.1090240428558399  0.8589862408761425  0.0000000000000000
  0.1076563299803774  0.8572057020897728  0.5000000000000000
  0.6093354883526276  0.3590662871092390  0.0000000000000000
  0.6093248756301375  0.8600331391260355  0.0000000000000000
  0.6007925248540581  0.8533002165417063  0.5000000000000000
  0.3912667862297872  0.1409056036828411  0.0000000000000000
  0.3912755788612400  0.1402739332273602  0.5000000000000000
  0.3899421259508873  0.6399153104982440  0.0000000000000000
  0.8910663023476501  0.1409579390864096  0.0000000000000000
  0.8936883956776183  0.1447230022182979  0.5000000000000000
  0.8907557577677113  0.6403379678860830  0.0000000000000000
  0.0007386352266206 -0.0025912480952945  0.1252557373316850
  0.0025312353201407  0.0041872138439971  0.6257825854226287
  0.0010100875487783  0.4992972343536800  0.1247186190415918
  0.0009735002443020  0.4993732445439401  0.6258532040047837
  0.5005349311263665  0.0003384624176088  0.1246713423054048
  0.4987665230340109  0.0011617082607673  0.6257112436284469
  0.4986010766024999  0.4946979843999438  0.1250965634657392
  0.5078289180287924  0.5235232456345469  0.6215540107336969
  0.0025312353201407  0.0041872138439971  0.3742174145773711
  0.0007386352266206 -0.0025912480952945  0.8747442626683150
  0.0009735002443020  0.4993732445439401  0.3741467959952161
  0.0010100875487783  0.4992972343536800  0.8752813809584082
  0.4987665230340109  0.0011617082607673  0.3742887563715533
  0.5005349311263665  0.0003384624176088  0.8753286576945951
  0.4986010766024999  0.4946979843999438  0.8749034365342609
  0.2477319032839745  0.2483066629914253  0.3743956520450792
  0.2538232488625349  0.2523751400915269  0.8747985880583873
  0.2595576798793004  0.7422264469931299  0.3766828853649644
  0.2481322124135536  0.7505254001771104  0.8748617853535920
  0.7494462235139727  0.2519812919677764  0.8747557574002621
  0.7525205676926081  0.7531190843198907  0.8758829480175868
  0.2538232488625349  0.2523751400915269  0.1252014119416129
  0.2477319032839745  0.2483066629914253  0.6256043479549208
  0.2481322124135536  0.7505254001771104  0.1251382146464080
  0.2595576798793004  0.7422264469931299  0.6233171146350357
  0.7494462235139727  0.2519812919677764  0.1252442425997378
  0.7500928749328190  0.2472704437315345  0.6252714317679792
  0.7525205676926081  0.7531190843198907  0.1241170519824130
  0.7419320608454330  0.7376084216627394  0.6274281033348147
  0.7500928749328190  0.2472704437315345  0.3747285682320209
  0.8592474351651745  0.3899832152972555  0.5000000000000000
  0.5078289180287924  0.5235232456345469  0.3784459892663033
  0.3506410488497839  0.3938672871851931  0.5000000000000000
  0.8885130243194822  0.6332500415445637  0.5000000000000000
  0.7419320608454330  0.7376084216627394  0.3725718966651852
  0.6135508438834394  0.3607939915071208  0.5000000000000000
 
  0.00000000E+00  0.00000000E+00  0.00000000E+00
  0.00000000E+00  0.00000000E+00  0.00000000E+00
  0.00000000E+00  0.00000000E+00  0.00000000E+00
  0.00000000E+00  0.00000000E+00  0.00000000E+00
  0.00000000E+00  0.00000000E+00  0.00000000E+00
  0.00000000E+00  0.00000000E+00  0.00000000E+00
  0.00000000E+00  0.00000000E+00  0.00000000E+00
  0.00000000E+00  0.00000000E+00  0.00000000E+00
  0.00000000E+00  0.00000000E+00  0.00000000E+00
  0.00000000E+00  0.00000000E+00  0.00000000E+00
  0.00000000E+00  0.00000000E+00  0.00000000E+00
  0.00000000E+00  0.00000000E+00  0.00000000E+00
  0.00000000E+00  0.00000000E+00  0.00000000E+00
  0.00000000E+00  0.00000000E+00  0.00000000E+00
  0.00000000E+00  0.00000000E+00  0.00000000E+00
  0.00000000E+00  0.00000000E+00  0.00000000E+00
  0.00000000E+00  0.00000000E+00  0.00000000E+00
  0.00000000E+00  0.00000000E+00  0.00000000E+00
  0.00000000E+00  0.00000000E+00  0.00000000E+00
  0.00000000E+00  0.00000000E+00  0.00000000E+00
  0.00000000E+00  0.00000000E+00  0.00000000E+00
  0.00000000E+00  0.00000000E+00  0.00000000E+00
  0.00000000E+00  0.00000000E+00  0.00000000E+00
  0.00000000E+00  0.00000000E+00  0.00000000E+00
  0.00000000E+00  0.00000000E+00  0.00000000E+00
  0.00000000E+00  0.00000000E+00  0.00000000E+00
  0.00000000E+00  0.00000000E+00  0.00000000E+00
  0.00000000E+00  0.00000000E+00  0.00000000E+00
  0.00000000E+00  0.00000000E+00  0.00000000E+00
  0.00000000E+00  0.00000000E+00  0.00000000E+00
  0.00000000E+00  0.00000000E+00  0.00000000E+00
  0.00000000E+00  0.00000000E+00  0.00000000E+00
  0.00000000E+00  0.00000000E+00  0.00000000E+00
  0.00000000E+00  0.00000000E+00  0.00000000E+00
  0.00000000E+00  0.00000000E+00  0.00000000E+00
  0.00000000E+00  0.00000000E+00  0.00000000E+00
  0.00000000E+00  0.00000000E+00  0.00000000E+00
  0.00000000E+00  0.00000000E+00  0.00000000E+00
  0.00000000E+00  0.00000000E+00  0.00000000E+00
  0.00000000E+00  0.00000000E+00  0.00000000E+00
  0.00000000E+00  0.00000000E+00  0.00000000E+00
  0.00000000E+00  0.00000000E+00  0.00000000E+00
  0.00000000E+00  0.00000000E+00  0.00000000E+00
  0.00000000E+00  0.00000000E+00  0.00000000E+00
  0.00000000E+00  0.00000000E+00  0.00000000E+00
  0.00000000E+00  0.00000000E+00  0.00000000E+00
  0.00000000E+00  0.00000000E+00  0.00000000E+00
  0.00000000E+00  0.00000000E+00  0.00000000E+00
  0.00000000E+00  0.00000000E+00  0.00000000E+00
  0.00000000E+00  0.00000000E+00  0.00000000E+00
  0.00000000E+00  0.00000000E+00  0.00000000E+00
  0.00000000E+00  0.00000000E+00  0.00000000E+00
  0.00000000E+00  0.00000000E+00  0.00000000E+00
  0.00000000E+00  0.00000000E+00  0.00000000E+00
  0.00000000E+00  0.00000000E+00  0.00000000E+00
  0.00000000E+00  0.00000000E+00  0.00000000E+00
  0.00000000E+00  0.00000000E+00  0.00000000E+00
  0.00000000E+00  0.00000000E+00  0.00000000E+00
  0.00000000E+00  0.00000000E+00  0.00000000E+00
  0.00000000E+00  0.00000000E+00  0.00000000E+00
  0.00000000E+00  0.00000000E+00  0.00000000E+00
  0.00000000E+00  0.00000000E+00  0.00000000E+00
  0.00000000E+00  0.00000000E+00  0.00000000E+00
  0.00000000E+00  0.00000000E+00  0.00000000E+00
  0.00000000E+00  0.00000000E+00  0.00000000E+00
  0.00000000E+00  0.00000000E+00  0.00000000E+00
  0.00000000E+00  0.00000000E+00  0.00000000E+00
  0.00000000E+00  0.00000000E+00  0.00000000E+00
  0.00000000E+00  0.00000000E+00  0.00000000E+00
  0.00000000E+00  0.00000000E+00  0.00000000E+00
  0.00000000E+00  0.00000000E+00  0.00000000E+00
  0.00000000E+00  0.00000000E+00  0.00000000E+00
  0.00000000E+00  0.00000000E+00  0.00000000E+00
  0.00000000E+00  0.00000000E+00  0.00000000E+00
  0.00000000E+00  0.00000000E+00  0.00000000E+00
  0.00000000E+00  0.00000000E+00  0.00000000E+00
  0.00000000E+00  0.00000000E+00  0.00000000E+00
  0.00000000E+00  0.00000000E+00  0.00000000E+00
  0.00000000E+00  0.00000000E+00  0.00000000E+00
  0.00000000E+00  0.00000000E+00  0.00000000E+00
  0.00000000E+00  0.00000000E+00  0.00000000E+00
  0.00000000E+00  0.00000000E+00  0.00000000E+00
  0.00000000E+00  0.00000000E+00  0.00000000E+00
  0.00000000E+00  0.00000000E+00  0.00000000E+00
  0.00000000E+00  0.00000000E+00  0.00000000E+00
  0.00000000E+00  0.00000000E+00  0.00000000E+00
  0.00000000E+00  0.00000000E+00  0.00000000E+00
  0.00000000E+00  0.00000000E+00  0.00000000E+00
  0.00000000E+00  0.00000000E+00  0.00000000E+00
  0.00000000E+00  0.00000000E+00  0.00000000E+00
  0.00000000E+00  0.00000000E+00  0.00000000E+00
  0.00000000E+00  0.00000000E+00  0.00000000E+00
  0.00000000E+00  0.00000000E+00  0.00000000E+00
  0.00000000E+00  0.00000000E+00  0.00000000E+00
  0.00000000E+00  0.00000000E+00  0.00000000E+00
  0.00000000E+00  0.00000000E+00  0.00000000E+00
  0.00000000E+00  0.00000000E+00  0.00000000E+00
  0.00000000E+00  0.00000000E+00  0.00000000E+00
  0.00000000E+00  0.00000000E+00  0.00000000E+00
  0.00000000E+00  0.00000000E+00  0.00000000E+00
  0.00000000E+00  0.00000000E+00  0.00000000E+00
  0.00000000E+00  0.00000000E+00  0.00000000E+00
  0.00000000E+00  0.00000000E+00  0.00000000E+00
  0.00000000E+00  0.00000000E+00  0.00000000E+00
  0.00000000E+00  0.00000000E+00  0.00000000E+00
  0.00000000E+00  0.00000000E+00  0.00000000E+00
  0.00000000E+00  0.00000000E+00  0.00000000E+00
  0.00000000E+00  0.00000000E+00  0.00000000E+00
  0.00000000E+00  0.00000000E+00  0.00000000E+00
  0.00000000E+00  0.00000000E+00  0.00000000E+00
  0.00000000E+00  0.00000000E+00  0.00000000E+00
  0.00000000E+00  0.00000000E+00  0.00000000E+00
  0.00000000E+00  0.00000000E+00  0.00000000E+00
  0.00000000E+00  0.00000000E+00  0.00000000E+00
  0.00000000E+00  0.00000000E+00  0.00000000E+00
  0.00000000E+00  0.00000000E+00  0.00000000E+00
  0.00000000E+00  0.00000000E+00  0.00000000E+00
  0.00000000E+00  0.00000000E+00  0.00000000E+00
  0.00000000E+00  0.00000000E+00  0.00000000E+00
  0.00000000E+00  0.00000000E+00  0.00000000E+00
  0.00000000E+00  0.00000000E+00  0.00000000E+00
  0.00000000E+00  0.00000000E+00  0.00000000E+00
  0.00000000E+00  0.00000000E+00  0.00000000E+00
  0.00000000E+00  0.00000000E+00  0.00000000E+00
  0.00000000E+00  0.00000000E+00  0.00000000E+00
  0.00000000E+00  0.00000000E+00  0.00000000E+00
  0.00000000E+00  0.00000000E+00  0.00000000E+00
  0.00000000E+00  0.00000000E+00  0.00000000E+00
  0.00000000E+00  0.00000000E+00  0.00000000E+00
  0.00000000E+00  0.00000000E+00  0.00000000E+00
  0.00000000E+00  0.00000000E+00  0.00000000E+00
  0.00000000E+00  0.00000000E+00  0.00000000E+00
  0.00000000E+00  0.00000000E+00  0.00000000E+00
  0.00000000E+00  0.00000000E+00  0.00000000E+00
  0.00000000E+00  0.00000000E+00  0.00000000E+00
  0.00000000E+00  0.00000000E+00  0.00000000E+00
  0.00000000E+00  0.00000000E+00  0.00000000E+00
  0.00000000E+00  0.00000000E+00  0.00000000E+00
  0.00000000E+00  0.00000000E+00  0.00000000E+00
  0.00000000E+00  0.00000000E+00  0.00000000E+00
  0.00000000E+00  0.00000000E+00  0.00000000E+00
  0.00000000E+00  0.00000000E+00  0.00000000E+00
  0.00000000E+00  0.00000000E+00  0.00000000E+00
  0.00000000E+00  0.00000000E+00  0.00000000E+00
  0.00000000E+00  0.00000000E+00  0.00000000E+00
  0.00000000E+00  0.00000000E+00  0.00000000E+00
  0.00000000E+00  0.00000000E+00  0.00000000E+00
  0.00000000E+00  0.00000000E+00  0.00000000E+00
  0.00000000E+00  0.00000000E+00  0.00000000E+00
  0.00000000E+00  0.00000000E+00  0.00000000E+00
  0.00000000E+00  0.00000000E+00  0.00000000E+00
  0.00000000E+00  0.00000000E+00  0.00000000E+00
  0.00000000E+00  0.00000000E+00  0.00000000E+00
  0.00000000E+00  0.00000000E+00  0.00000000E+00
  0.00000000E+00  0.00000000E+00  0.00000000E+00
  0.00000000E+00  0.00000000E+00  0.00000000E+00
  0.00000000E+00  0.00000000E+00  0.00000000E+00
  0.00000000E+00  0.00000000E+00  0.00000000E+00
