Sr   Ti   Fe   O                        
   1.00000000000000     
    11.1989999999999998    0.0000000000000000    0.0000000000000000
     0.0000000000000000   11.1989999999999998    0.0000000000000000
     0.0000000000000000    0.0000000000000000   15.9830000000000005
   Sr   Ti   Fe   O 
    32    31     1    94
Direct
  0.9994697225769409  0.2507578933694056  0.1248499441941047
  0.0047546341497465  0.2498902234085989  0.6257478954884305
  0.9980050118708620  0.7501320762328543  0.1253271675479555
  0.9947833677578587  0.7485617473637792  0.6251724050536854
  0.4990381928472242  0.2514546380874414  0.1246093526327398
  0.4958549783746484  0.2417553064667086  0.6289568121395485
  0.4989677321683743  0.7494310575176386  0.1233861335251042
  0.5033203744887333  0.7565830248283862  0.6306365915772127
  0.0047546341497465  0.2498902234085989  0.3742521045114246
  0.9994697225769409  0.2507578933694056  0.8751500558060656
  0.9947833677578587  0.7485617473637792  0.3748275949473852
  0.9980050118708620  0.7501320762328543  0.8746728324521115
  0.4958549783746484  0.2417553064667086  0.3710431878607383
  0.4990381928472242  0.2514546380874414  0.8753906473672628
  0.5033203744887333  0.7565830248283862  0.3693634084227613
  0.4989677321683743  0.7494310575176386  0.8766138664747811
  0.2486385744147097  0.9992611737878246  0.1252144854269802
  0.2510214679840386  0.0002953822342131  0.6249354548674609
  0.2499030157167028  0.4995286539345943  0.1228844027015024
  0.2478238922570152  0.4966355318709945  0.6297352862798294
  0.7500785506486228  0.9996020378763658  0.1256690304664306
  0.7494536343309535  0.9932658603486527  0.6234774772249158
  0.7478048874219257  0.5011764972303022  0.1244046281234144
  0.7602066623570052  0.4996838571086142  0.6298730372144126
  0.2510214679840386  0.0002953822342131  0.3750645451323691
  0.2486385744147097  0.9992611737878246  0.8747855145732820
  0.2478238922570152  0.4966355318709945  0.3702647137201225
  0.2499030157167028  0.4995286539345943  0.8771155972984898
  0.7494536343309535  0.9932658603486527  0.3765225227746226
  0.7500785506486228  0.9996020378763658  0.8743309695337967
  0.7602066623570052  0.4996838571086142  0.3701269627858921
  0.7478048874219257  0.5011764972303022  0.8755953718768312
  0.9987310584994291  0.0000751142328208  0.0000000000000000
  0.0017489156779851  0.9951457328736873  0.5000000000000000
  0.9992970308224101  0.5001843254207246  0.0000000000000000
  0.0030733806629482  0.5001615763939360  0.5000000000000000
  0.4998820239226018  0.0004037102832213  0.0000000000000000
  0.5006380570415963  0.9976878627335579  0.5000000000000000
  0.4992233085753869  0.4993557149399548  0.0000000000000000
  0.2496074553317091  0.2492539396920475  0.0000000000000000
  0.2491243653442813  0.2480182966533729  0.5000000000000000
  0.2483223459556640  0.7510407359274954  0.0000000000000000
  0.2486436976168817  0.7492142177301758  0.5000000000000000
  0.7498396415823542  0.2501352232661517  0.0000000000000000
  0.7494913110017580  0.7510463044263010  0.0000000000000000
  0.2497352181968147  0.2492253066097997  0.2489252006534766
  0.2497352181968147  0.2492253066097997  0.7510747993464358
  0.2499696694367517  0.7489206288442664  0.2496519681556183
  0.2499696694367517  0.7489206288442664  0.7503480318444105
  0.7487469562042756  0.2505638396802857  0.2506143574030847
  0.7487469562042756  0.2505638396802857  0.7493856425968877
  0.7494756671093882  0.7488991640128647  0.2504724915382139
  0.7494756671093882  0.7488991640128647  0.7495275084611990
  0.9996913980190236  0.9998583966263136  0.2510364902705484
  0.9996913980190236  0.9998583966263136  0.7489635097294135
  0.0009800147080041  0.5000201511510366  0.2486831134812915
  0.0009800147080041  0.5000201511510366  0.7513168865188699
  0.5000789302293351  0.9997836259050257  0.2484930953008476
  0.5000789302293351  0.9997836259050257  0.7515069046995830
  0.4989040419843798  0.5015069737163508  0.2501571788269403
  0.4989040419843798  0.5015069737163508  0.7498428211730083
  0.7628034930445633  0.2458363315603805  0.5000000000000000
  0.4922757426044036  0.5019805860735980  0.5000000000000000
  0.7534689262108206  0.7489426842236152  0.5000000000000000
  0.1093447633480852  0.1402744111536769  0.2478077941693743
  0.1093447633480852  0.1402744111536769  0.7521922058307676
  0.1099334915462541  0.6406247502939735  0.2503122959012601
  0.1099334915462541  0.6406247502939735  0.7496877040974727
  0.6090077923647856  0.1412756158862531  0.2495565102302288
  0.6090077923647856  0.1412756158862531  0.7504434897697344
  0.6080654632512088  0.6396725254192172  0.2441484887498995
  0.6080654632512088  0.6396725254192172  0.7558515112489567
  0.3894673055197695  0.3597134576195743  0.2517444035625708
  0.3894673055197695  0.3597134576195743  0.7482555964372990
  0.3895155795948363  0.8606469287327798  0.2486432931061242
  0.3895155795948363  0.8606469287327798  0.7513567068937006
  0.8891444854172396  0.3605690946754041  0.2523813455600179
  0.8891444854172396  0.3605690946754041  0.7476186544398958
  0.8890052199765022  0.8615277829971816  0.2517706061786828
  0.8890052199765022  0.8615277829971816  0.7482293938209045
  0.3599894037911511  0.1101607499338968  0.2497672545687136
  0.3599894037911511  0.1101607499338968  0.7502327454310526
  0.3579724361197477  0.6101396147626266  0.2433442439936900
  0.3579724361197477  0.6101396147626266  0.7566557560065539
  0.8579604807031208  0.1115246815215147  0.2552415171671971
  0.8579604807031208  0.1115246815215147  0.7447584828328044
  0.8624051514552414  0.6107599045079661  0.2455183438637511
  0.8624051514552414  0.6107599045079661  0.7544816561362069
  0.1398540728365076  0.3892846277025561  0.2476576712721187
  0.1398540728365076  0.3892846277025561  0.7523423287280572
  0.1398231142268357  0.8895343260868215  0.2529089979651549
  0.1398231142268357  0.8895343260868215  0.7470910020346512
  0.6380923201191103  0.3913743882739472  0.2512766041843045
  0.6380923201191103  0.3913743882739472  0.7487233958156310
  0.6388940226253406  0.8907194524086648  0.2504303857066441
  0.6388940226253406  0.8907194524086648  0.7495696142935018
  0.3586017749649756  0.3898304761074354  0.0000000000000000
  0.3587525429957836  0.8911347833489548  0.0000000000000000
  0.3622812990514648  0.8862946605488033  0.5000000000000000
  0.8585475810453038  0.3910554597290456  0.0000000000000000
  0.8582916971712387  0.8926579508400330  0.0000000000000000
  0.8651438748982351  0.8966071401740298  0.5000000000000000
  0.1402311074737836  0.1088479497221601  0.0000000000000000
  0.1416810951906545  0.1081409334738362  0.5000000000000000
  0.1395811528985903  0.6098192834548419  0.0000000000000000
  0.1532614021041887  0.6030866450902116  0.5000000000000000
  0.6414717744592520  0.1095807206060371  0.0000000000000000
  0.6343005111784126  0.1232585971208628  0.5000000000000000
  0.6389573687094507  0.6098951784741544  0.0000000000000000
  0.1092754330038105  0.3589080593298842  0.0000000000000000
  0.1132085291320418  0.3576549215122918  0.5000000000000000
  0.1071882562901789  0.8602431955638691  0.0000000000000000
  0.1098448678946893  0.8559367032830544  0.5000000000000000
  0.6098585137282503  0.3587727085585276  0.0000000000000000
  0.6078480209107495  0.8598514067100363  0.0000000000000000
  0.6084316418369561  0.8625112899276332  0.5000000000000000
  0.3909649603344668  0.1406746685740658  0.0000000000000000
  0.3885382703123737  0.1390993356710244  0.5000000000000000
  0.3884963672107102  0.6402945254506422  0.0000000000000000
  0.8907840588396401  0.1419793903948131  0.0000000000000000
  0.8904942551297874  0.1401424959261935  0.5000000000000000
  0.8902772584523903  0.6405871935620369  0.0000000000000000
  0.9975265747641222  0.0003316178156451  0.1258246378849065
  0.0034215539665393  0.0022535132261509  0.6249136627086292
  0.0007606162399606  0.4983527657759494  0.1244188257354175
  0.0041861629869079  0.5002867368528281  0.6262132565452427
  0.5003592436973542  0.0009094856429412  0.1246849374586373
  0.4991337903361744  0.0020101973695909  0.6257892846206811
  0.4986126346899240  0.4959836241186146  0.1240426371602500
  0.4874298051362326  0.5148344399251165  0.6249790131664714
  0.0034215539665393  0.0022535132261509  0.3750863372911866
  0.9975265747641222  0.0003316178156451  0.8741753621150598
  0.0041861629869079  0.5002867368528281  0.3737867434548980
  0.0007606162399606  0.4983527657759494  0.8755811742644931
  0.4991337903361744  0.0020101973695909  0.3742107153793334
  0.5003592436973542  0.0009094856429412  0.8753150625409961
  0.4986126346899240  0.4959836241186146  0.8759573628400125
  0.2482966069544574  0.2480059950980870  0.3738769714101269
  0.2512558333878147  0.2495042618221840  0.8754474517278916
  0.2602352263329039  0.7425213974014744  0.3758889768642116
  0.2465606905769919  0.7534828461434490  0.8754831933446915
  0.7509033152461981  0.2507200867250527  0.8738511184840556
  0.7504549791435842  0.7529573241553196  0.8763284672375549
  0.2512558333878147  0.2495042618221840  0.1245525482719842
  0.2482966069544574  0.2480059950980870  0.6261230285898701
  0.2465606905769919  0.7534828461434490  0.1245168066553738
  0.2602352263329039  0.7425213974014744  0.6241110231355427
  0.7509033152461981  0.2507200867250527  0.1261488815158901
  0.7392259765719625  0.2599504797685667  0.6214842463567837
  0.7504549791435842  0.7529573241553196  0.1236715327627596
  0.7447821031256724  0.7406000531536333  0.6301015913234049
  0.7392259765719625  0.2599504797685667  0.3785157536436159
  0.8721495479174778  0.3819608680361832  0.5000000000000000
  0.4874298051362326  0.5148344399251165  0.3750209868333868
  0.3601690400948214  0.3880386472287672  0.5000000000000000
  0.8968888828025445  0.6347504282040216  0.5000000000000000
  0.7447821031256724  0.7406000531536333  0.3698984086768791
  0.6559857442648998  0.4928892097016944  0.5000000000000000
 
  0.00000000E+00  0.00000000E+00  0.00000000E+00
  0.00000000E+00  0.00000000E+00  0.00000000E+00
  0.00000000E+00  0.00000000E+00  0.00000000E+00
  0.00000000E+00  0.00000000E+00  0.00000000E+00
  0.00000000E+00  0.00000000E+00  0.00000000E+00
  0.00000000E+00  0.00000000E+00  0.00000000E+00
  0.00000000E+00  0.00000000E+00  0.00000000E+00
  0.00000000E+00  0.00000000E+00  0.00000000E+00
  0.00000000E+00  0.00000000E+00  0.00000000E+00
  0.00000000E+00  0.00000000E+00  0.00000000E+00
  0.00000000E+00  0.00000000E+00  0.00000000E+00
  0.00000000E+00  0.00000000E+00  0.00000000E+00
  0.00000000E+00  0.00000000E+00  0.00000000E+00
  0.00000000E+00  0.00000000E+00  0.00000000E+00
  0.00000000E+00  0.00000000E+00  0.00000000E+00
  0.00000000E+00  0.00000000E+00  0.00000000E+00
  0.00000000E+00  0.00000000E+00  0.00000000E+00
  0.00000000E+00  0.00000000E+00  0.00000000E+00
  0.00000000E+00  0.00000000E+00  0.00000000E+00
  0.00000000E+00  0.00000000E+00  0.00000000E+00
  0.00000000E+00  0.00000000E+00  0.00000000E+00
  0.00000000E+00  0.00000000E+00  0.00000000E+00
  0.00000000E+00  0.00000000E+00  0.00000000E+00
  0.00000000E+00  0.00000000E+00  0.00000000E+00
  0.00000000E+00  0.00000000E+00  0.00000000E+00
  0.00000000E+00  0.00000000E+00  0.00000000E+00
  0.00000000E+00  0.00000000E+00  0.00000000E+00
  0.00000000E+00  0.00000000E+00  0.00000000E+00
  0.00000000E+00  0.00000000E+00  0.00000000E+00
  0.00000000E+00  0.00000000E+00  0.00000000E+00
  0.00000000E+00  0.00000000E+00  0.00000000E+00
  0.00000000E+00  0.00000000E+00  0.00000000E+00
  0.00000000E+00  0.00000000E+00  0.00000000E+00
  0.00000000E+00  0.00000000E+00  0.00000000E+00
  0.00000000E+00  0.00000000E+00  0.00000000E+00
  0.00000000E+00  0.00000000E+00  0.00000000E+00
  0.00000000E+00  0.00000000E+00  0.00000000E+00
  0.00000000E+00  0.00000000E+00  0.00000000E+00
  0.00000000E+00  0.00000000E+00  0.00000000E+00
  0.00000000E+00  0.00000000E+00  0.00000000E+00
  0.00000000E+00  0.00000000E+00  0.00000000E+00
  0.00000000E+00  0.00000000E+00  0.00000000E+00
  0.00000000E+00  0.00000000E+00  0.00000000E+00
  0.00000000E+00  0.00000000E+00  0.00000000E+00
  0.00000000E+00  0.00000000E+00  0.00000000E+00
  0.00000000E+00  0.00000000E+00  0.00000000E+00
  0.00000000E+00  0.00000000E+00  0.00000000E+00
  0.00000000E+00  0.00000000E+00  0.00000000E+00
  0.00000000E+00  0.00000000E+00  0.00000000E+00
  0.00000000E+00  0.00000000E+00  0.00000000E+00
  0.00000000E+00  0.00000000E+00  0.00000000E+00
  0.00000000E+00  0.00000000E+00  0.00000000E+00
  0.00000000E+00  0.00000000E+00  0.00000000E+00
  0.00000000E+00  0.00000000E+00  0.00000000E+00
  0.00000000E+00  0.00000000E+00  0.00000000E+00
  0.00000000E+00  0.00000000E+00  0.00000000E+00
  0.00000000E+00  0.00000000E+00  0.00000000E+00
  0.00000000E+00  0.00000000E+00  0.00000000E+00
  0.00000000E+00  0.00000000E+00  0.00000000E+00
  0.00000000E+00  0.00000000E+00  0.00000000E+00
  0.00000000E+00  0.00000000E+00  0.00000000E+00
  0.00000000E+00  0.00000000E+00  0.00000000E+00
  0.00000000E+00  0.00000000E+00  0.00000000E+00
  0.00000000E+00  0.00000000E+00  0.00000000E+00
  0.00000000E+00  0.00000000E+00  0.00000000E+00
  0.00000000E+00  0.00000000E+00  0.00000000E+00
  0.00000000E+00  0.00000000E+00  0.00000000E+00
  0.00000000E+00  0.00000000E+00  0.00000000E+00
  0.00000000E+00  0.00000000E+00  0.00000000E+00
  0.00000000E+00  0.00000000E+00  0.00000000E+00
  0.00000000E+00  0.00000000E+00  0.00000000E+00
  0.00000000E+00  0.00000000E+00  0.00000000E+00
  0.00000000E+00  0.00000000E+00  0.00000000E+00
  0.00000000E+00  0.00000000E+00  0.00000000E+00
  0.00000000E+00  0.00000000E+00  0.00000000E+00
  0.00000000E+00  0.00000000E+00  0.00000000E+00
  0.00000000E+00  0.00000000E+00  0.00000000E+00
  0.00000000E+00  0.00000000E+00  0.00000000E+00
  0.00000000E+00  0.00000000E+00  0.00000000E+00
  0.00000000E+00  0.00000000E+00  0.00000000E+00
  0.00000000E+00  0.00000000E+00  0.00000000E+00
  0.00000000E+00  0.00000000E+00  0.00000000E+00
  0.00000000E+00  0.00000000E+00  0.00000000E+00
  0.00000000E+00  0.00000000E+00  0.00000000E+00
  0.00000000E+00  0.00000000E+00  0.00000000E+00
  0.00000000E+00  0.00000000E+00  0.00000000E+00
  0.00000000E+00  0.00000000E+00  0.00000000E+00
  0.00000000E+00  0.00000000E+00  0.00000000E+00
  0.00000000E+00  0.00000000E+00  0.00000000E+00
  0.00000000E+00  0.00000000E+00  0.00000000E+00
  0.00000000E+00  0.00000000E+00  0.00000000E+00
  0.00000000E+00  0.00000000E+00  0.00000000E+00
  0.00000000E+00  0.00000000E+00  0.00000000E+00
  0.00000000E+00  0.00000000E+00  0.00000000E+00
  0.00000000E+00  0.00000000E+00  0.00000000E+00
  0.00000000E+00  0.00000000E+00  0.00000000E+00
  0.00000000E+00  0.00000000E+00  0.00000000E+00
  0.00000000E+00  0.00000000E+00  0.00000000E+00
  0.00000000E+00  0.00000000E+00  0.00000000E+00
  0.00000000E+00  0.00000000E+00  0.00000000E+00
  0.00000000E+00  0.00000000E+00  0.00000000E+00
  0.00000000E+00  0.00000000E+00  0.00000000E+00
  0.00000000E+00  0.00000000E+00  0.00000000E+00
  0.00000000E+00  0.00000000E+00  0.00000000E+00
  0.00000000E+00  0.00000000E+00  0.00000000E+00
  0.00000000E+00  0.00000000E+00  0.00000000E+00
  0.00000000E+00  0.00000000E+00  0.00000000E+00
  0.00000000E+00  0.00000000E+00  0.00000000E+00
  0.00000000E+00  0.00000000E+00  0.00000000E+00
  0.00000000E+00  0.00000000E+00  0.00000000E+00
  0.00000000E+00  0.00000000E+00  0.00000000E+00
  0.00000000E+00  0.00000000E+00  0.00000000E+00
  0.00000000E+00  0.00000000E+00  0.00000000E+00
  0.00000000E+00  0.00000000E+00  0.00000000E+00
  0.00000000E+00  0.00000000E+00  0.00000000E+00
  0.00000000E+00  0.00000000E+00  0.00000000E+00
  0.00000000E+00  0.00000000E+00  0.00000000E+00
  0.00000000E+00  0.00000000E+00  0.00000000E+00
  0.00000000E+00  0.00000000E+00  0.00000000E+00
  0.00000000E+00  0.00000000E+00  0.00000000E+00
  0.00000000E+00  0.00000000E+00  0.00000000E+00
  0.00000000E+00  0.00000000E+00  0.00000000E+00
  0.00000000E+00  0.00000000E+00  0.00000000E+00
  0.00000000E+00  0.00000000E+00  0.00000000E+00
  0.00000000E+00  0.00000000E+00  0.00000000E+00
  0.00000000E+00  0.00000000E+00  0.00000000E+00
  0.00000000E+00  0.00000000E+00  0.00000000E+00
  0.00000000E+00  0.00000000E+00  0.00000000E+00
  0.00000000E+00  0.00000000E+00  0.00000000E+00
  0.00000000E+00  0.00000000E+00  0.00000000E+00
  0.00000000E+00  0.00000000E+00  0.00000000E+00
  0.00000000E+00  0.00000000E+00  0.00000000E+00
  0.00000000E+00  0.00000000E+00  0.00000000E+00
  0.00000000E+00  0.00000000E+00  0.00000000E+00
  0.00000000E+00  0.00000000E+00  0.00000000E+00
  0.00000000E+00  0.00000000E+00  0.00000000E+00
  0.00000000E+00  0.00000000E+00  0.00000000E+00
  0.00000000E+00  0.00000000E+00  0.00000000E+00
  0.00000000E+00  0.00000000E+00  0.00000000E+00
  0.00000000E+00  0.00000000E+00  0.00000000E+00
  0.00000000E+00  0.00000000E+00  0.00000000E+00
  0.00000000E+00  0.00000000E+00  0.00000000E+00
  0.00000000E+00  0.00000000E+00  0.00000000E+00
  0.00000000E+00  0.00000000E+00  0.00000000E+00
  0.00000000E+00  0.00000000E+00  0.00000000E+00
  0.00000000E+00  0.00000000E+00  0.00000000E+00
  0.00000000E+00  0.00000000E+00  0.00000000E+00
  0.00000000E+00  0.00000000E+00  0.00000000E+00
  0.00000000E+00  0.00000000E+00  0.00000000E+00
  0.00000000E+00  0.00000000E+00  0.00000000E+00
  0.00000000E+00  0.00000000E+00  0.00000000E+00
  0.00000000E+00  0.00000000E+00  0.00000000E+00
  0.00000000E+00  0.00000000E+00  0.00000000E+00
  0.00000000E+00  0.00000000E+00  0.00000000E+00
  0.00000000E+00  0.00000000E+00  0.00000000E+00
  0.00000000E+00  0.00000000E+00  0.00000000E+00
  0.00000000E+00  0.00000000E+00  0.00000000E+00
  0.00000000E+00  0.00000000E+00  0.00000000E+00
