SrTiFeO                                 
   1.00000000000000     
    11.1989999999999998    0.0000000000000000    0.0000000000000000
     0.0000000000000000   11.1989999999999998    0.0000000000000000
     0.0000000000000000    0.0000000000000000   15.9830000000000005
   Sr   Ti   O 
    32    32    94
Direct
 -0.0003219992675250  0.2503019156986310  0.1245747996103181
  0.0011767710929089  0.2464227117533473  0.6267380915329325
 -0.0007892906723740  0.7498768796191964  0.1248626923922006
  0.0058156057905472  0.7526955600409082  0.6275153244212457
  0.5000033553548192  0.2507191872631661  0.1252226414943441
  0.5017218734982689  0.2475119035521830  0.6256490035434276
  0.4995151154563622  0.7500131248294919  0.1235499087994939
  0.4973126368808146  0.7516321119214173  0.6281559675983148
  0.0011767710929089  0.2464227117533473  0.3732619084670672
 -0.0003219992675250  0.2503019156986310  0.8754252003896820
  0.0058156057905472  0.7526955600409082  0.3724846755787545
 -0.0007892906723740  0.7498768796191964  0.8751373076077994
  0.5017218734982689  0.2475119035521830  0.3743509964565725
  0.5000033553548192  0.2507191872631661  0.8747773585056560
  0.4973126368808146  0.7516321119214173  0.3718440324016850
  0.4995151154563622  0.7500131248294919  0.8764500912005063
  0.2499583079431044 -0.0002630650064571  0.1249524825526034
  0.2501411058044200 -0.0000649386010515  0.6256360429069170
  0.2495677243011881  0.5002339442323018  0.1249550177929460
  0.2488629697939556  0.5013500523798790  0.6264830659304976
  0.7494644456774531 -0.0009420057715508  0.1250838498784284
  0.7508274536282644  0.0026496954085513  0.6244477711714678
  0.7490079373244100  0.4991543587624664  0.1230901798658973
  0.7518374205879225  0.4925871150394838  0.6318512560681967
  0.2501411058044200 -0.0000649386010515  0.3743639570930832
  0.2499583079431044 -0.0002630650064571  0.8750475174473963
  0.2488629697939556  0.5013500523798790  0.3735169340695024
  0.2495677243011881  0.5002339442323018  0.8750449822070540
  0.7508274536282644  0.0026496954085513  0.3755522288285321
  0.7494644456774531 -0.0009420057715508  0.8749161501215716
  0.7518374205879225  0.4925871150394838  0.3681487439318035
  0.7490079373244100  0.4991543587624664  0.8769098201341027
 -0.0001434138441576 -0.0003822329252686  0.0000000000000000
 -0.0003601643685948 -0.0006152656107638  0.5000000000000000
  0.0005248195261068  0.4994183570962261  0.0000000000000000
  0.0032606539413112  0.4937280749632812  0.5000000000000000
  0.5003443993135902 -0.0000020429679693  0.0000000000000000
  0.4998616808747706 -0.0013028255879924  0.5000000000000000
  0.4990677522563554  0.4995935725953645  0.0000000000000000
  0.2500475744256068  0.2503350862586826  0.0000000000000000
  0.2508982805347710  0.2454155050875830  0.5000000000000000
  0.2496757835358021  0.7500138381510594  0.0000000000000000
  0.2509231909304038  0.7511878226112197  0.5000000000000000
  0.7503370767687804  0.2492708344036622  0.0000000000000000
  0.7498801161575023  0.7507905668792545  0.0000000000000000
  0.2504559501977166  0.2502313218493120  0.2502585479233451
  0.2504559501977166  0.2502313218493120  0.7497414520766550
  0.2503090796529635  0.7500806750298908  0.2492977024721518
  0.2503090796529635  0.7500806750298908  0.7507022975278482
  0.7501579298935885  0.2488527977358979  0.2492258393913709
  0.7501579298935885  0.2488527977358979  0.7507741606086288
  0.7501562580618156  0.7481547681539936  0.2499394364336703
  0.7501562580618156  0.7481547681539936  0.7500605635663298
 -0.0000204251993765 -0.0000968377252943  0.2498708580722259
 -0.0000204251993765 -0.0000968377252943  0.7501291419277741
 -0.0004691873249665  0.5006706857148778  0.2494330396222605
 -0.0004691873249665  0.5006706857148778  0.7505669603777394
  0.5003555027085410 -0.0001625821234355  0.2500424943895270
  0.5003555027085410 -0.0001625821234355  0.7499575056104731
  0.5003993189481717  0.5007679017811630  0.2497896723206466
  0.5003993189481717  0.5007679017811630  0.7502103276793534
  0.7507412814687141  0.2511189816651105  0.5000000000000000
  0.4934614191420657  0.4959114682946842  0.5000000000000000
  0.7492229964217121  0.7501964268153746  0.5000000000000000
  0.1097855710834897  0.1403465221498987  0.2486194879249635
  0.1097855710834897  0.1403465221498987  0.7513805120750368
  0.1094815245948632  0.6403934159007166  0.2495505441543880
  0.1094815245948632  0.6403934159007166  0.7504494558456120
  0.6100220703995393  0.1397047614022681  0.2498570229704229
  0.6100220703995393  0.1397047614022681  0.7501429770295771
  0.6090264918885530  0.6407157787222822  0.2463288444895753
  0.6090264918885530  0.6407157787222822  0.7536711555104243
  0.3904807907908784  0.3607029725380359  0.2537214120787154
  0.3904807907908784  0.3607029725380359  0.7462785879212844
  0.3901540407769605  0.8600259015264584  0.2491884190939026
  0.3901540407769605  0.8600259015264584  0.7508115809060975
  0.8902002118441610  0.3598496638811260  0.2518717185308129
  0.8902002118441610  0.3598496638811260  0.7481282814691870
  0.8896874459909050  0.8582995963025375  0.2537492728897277
  0.8896874459909050  0.8582995963025375  0.7462507271102723
  0.3600203846778202  0.1101943488177437  0.2488692531282677
  0.3600203846778202  0.1101943488177437  0.7511307468717324
  0.3594779641683182  0.6093844942001110  0.2510409607901127
  0.3594779641683182  0.6093844942001110  0.7489590392098875
  0.8594162861642058  0.1089231393156523  0.2502245843684204
  0.8594162861642058  0.1089231393156523  0.7497754156315798
  0.8589916965708602  0.6083923984960711  0.2441924624316604
  0.8589916965708602  0.6083923984960711  0.7558075375683394
  0.1393721213513755  0.3907944366331760  0.2534986513041665
  0.1393721213513755  0.3907944366331760  0.7465013486958337
  0.1397133799494445  0.8897815520363561  0.2508166446327536
  0.1397133799494445  0.8897815520363561  0.7491833553672463
  0.6395315302557092  0.3894017801968338  0.2485560083736366
  0.6395315302557092  0.3894017801968338  0.7514439916263637
  0.6410833813712252  0.8887268175832137  0.2555552422648696
  0.6410833813712252  0.8887268175832137  0.7444447577351305
  0.3589910892752924  0.3906813122353574  0.0000000000000000
  0.3595480661547067  0.8908998048872737  0.0000000000000000
  0.3555786111525274  0.8948050880949231  0.5000000000000000
  0.8598258586816556  0.3902820905398025  0.0000000000000000
  0.8592523570871189  0.8907482175910063  0.0000000000000000
  0.8625618292056191  0.8921510452381776  0.5000000000000000
  0.1409010931377144  0.1093350982921817  0.0000000000000000
  0.1423710655508859  0.1087080591722593  0.5000000000000000
  0.1403968295784511  0.6092812435055064  0.0000000000000000
  0.1362783975362757  0.6123806344068244  0.5000000000000000
  0.6409594402026955  0.1092465269676521  0.0000000000000000
  0.6405485220401478  0.1119949487646175  0.5000000000000000
  0.6399547898023089  0.6100800741587659  0.0000000000000000
  0.1095576307717333  0.3585742818487069  0.0000000000000000
  0.1072749585542146  0.3575117689598860  0.5000000000000000
  0.1093009658531487  0.8592939236357484  0.0000000000000000
  0.1093533527531003  0.8593443888714580  0.5000000000000000
  0.6098092188570539  0.3597387349588698  0.0000000000000000
  0.6091798055653984  0.8593562395002226  0.0000000000000000
  0.6038502406556098  0.8591351885004616  0.5000000000000000
  0.3908360612073470  0.1405872745380083  0.0000000000000000
  0.3930328357561400  0.1450821055195637  0.5000000000000000
  0.3903813256087714  0.6405621568084622  0.0000000000000000
  0.8913406525867379  0.1403798475615822  0.0000000000000000
  0.8920141482140348  0.1447572504541527  0.5000000000000000
  0.8899296538668877  0.6400321067599798  0.0000000000000000
 -0.0011591381330817 -0.0021695493048522  0.1253601347032597
  0.0009900249914506  0.0027720812536586  0.6250763390302125
  0.0022137509638124  0.4973477289425239  0.1249556574771932
 -0.0072242292792341  0.5103597813108089  0.6235175061174920
  0.5024847280130498 -0.0016569535962812  0.1253814224819839
  0.4977952700559811  0.0023226188479908  0.6249757680717745
  0.4978673921994932  0.4984821141012299  0.1250713265643551
  0.5082322377944769  0.5077391869549991  0.6234591126587928
  0.0009900249914506  0.0027720812536586  0.3749236609697872
 -0.0011591381330817 -0.0021695493048522  0.8746398652967401
 -0.0072242292792341  0.5103597813108089  0.3764824938825077
  0.0022137509638124  0.4973477289425239  0.8750443425228066
  0.4977952700559811  0.0023226188479908  0.3750242319282254
  0.5024847280130498 -0.0016569535962812  0.8746185775180163
  0.4978673921994932  0.4984821141012299  0.8749286734356450
  0.2493114917878183  0.2485587507415423  0.3752994347900872
  0.2507068494130851  0.2529038112928673  0.8744920232260077
  0.2504583923142114  0.7497776785804700  0.3749264984792400
  0.2500481970712239  0.7499847904615216  0.8749887591562441
  0.7512956082147250  0.2497378467827283  0.8749982304636382
  0.7497241701598663  0.7541885240603048  0.8748913596219631
  0.2507068494130851  0.2529038112928673  0.1255079767739920
  0.2493114917878183  0.2485587507415423  0.6247005652099126
  0.2500481970712239  0.7499847904615216  0.1250112408437562
  0.2504583923142114  0.7497776785804700  0.6250735015207600
  0.7512956082147250  0.2497378467827283  0.1250017695363619
  0.7493444769785871  0.2501961267320170  0.6250054085669149
  0.7497241701598663  0.7541885240603048  0.1251086403780371
  0.7522292503082463  0.7291002421582474  0.6228161969660441
  0.7493444769785871  0.2501961267320170  0.3749945914330851
  0.8551462811406437  0.3992079905296418  0.5000000000000000
  0.3950326837185191  0.6446759543631732  0.5000000000000000
  0.5082322377944769  0.5077391869549991  0.3765408873412070
  0.3536159042586461  0.3948168989518385  0.5000000000000000
  0.7522292503082463  0.7291002421582474  0.3771838030339562
  0.6110144344118468  0.3663522955331329  0.5000000000000000
 
  0.00000000E+00  0.00000000E+00  0.00000000E+00
  0.00000000E+00  0.00000000E+00  0.00000000E+00
  0.00000000E+00  0.00000000E+00  0.00000000E+00
  0.00000000E+00  0.00000000E+00  0.00000000E+00
  0.00000000E+00  0.00000000E+00  0.00000000E+00
  0.00000000E+00  0.00000000E+00  0.00000000E+00
  0.00000000E+00  0.00000000E+00  0.00000000E+00
  0.00000000E+00  0.00000000E+00  0.00000000E+00
  0.00000000E+00  0.00000000E+00  0.00000000E+00
  0.00000000E+00  0.00000000E+00  0.00000000E+00
  0.00000000E+00  0.00000000E+00  0.00000000E+00
  0.00000000E+00  0.00000000E+00  0.00000000E+00
  0.00000000E+00  0.00000000E+00  0.00000000E+00
  0.00000000E+00  0.00000000E+00  0.00000000E+00
  0.00000000E+00  0.00000000E+00  0.00000000E+00
  0.00000000E+00  0.00000000E+00  0.00000000E+00
  0.00000000E+00  0.00000000E+00  0.00000000E+00
  0.00000000E+00  0.00000000E+00  0.00000000E+00
  0.00000000E+00  0.00000000E+00  0.00000000E+00
  0.00000000E+00  0.00000000E+00  0.00000000E+00
  0.00000000E+00  0.00000000E+00  0.00000000E+00
  0.00000000E+00  0.00000000E+00  0.00000000E+00
  0.00000000E+00  0.00000000E+00  0.00000000E+00
  0.00000000E+00  0.00000000E+00  0.00000000E+00
  0.00000000E+00  0.00000000E+00  0.00000000E+00
  0.00000000E+00  0.00000000E+00  0.00000000E+00
  0.00000000E+00  0.00000000E+00  0.00000000E+00
  0.00000000E+00  0.00000000E+00  0.00000000E+00
  0.00000000E+00  0.00000000E+00  0.00000000E+00
  0.00000000E+00  0.00000000E+00  0.00000000E+00
  0.00000000E+00  0.00000000E+00  0.00000000E+00
  0.00000000E+00  0.00000000E+00  0.00000000E+00
  0.00000000E+00  0.00000000E+00  0.00000000E+00
  0.00000000E+00  0.00000000E+00  0.00000000E+00
  0.00000000E+00  0.00000000E+00  0.00000000E+00
  0.00000000E+00  0.00000000E+00  0.00000000E+00
  0.00000000E+00  0.00000000E+00  0.00000000E+00
  0.00000000E+00  0.00000000E+00  0.00000000E+00
  0.00000000E+00  0.00000000E+00  0.00000000E+00
  0.00000000E+00  0.00000000E+00  0.00000000E+00
  0.00000000E+00  0.00000000E+00  0.00000000E+00
  0.00000000E+00  0.00000000E+00  0.00000000E+00
  0.00000000E+00  0.00000000E+00  0.00000000E+00
  0.00000000E+00  0.00000000E+00  0.00000000E+00
  0.00000000E+00  0.00000000E+00  0.00000000E+00
  0.00000000E+00  0.00000000E+00  0.00000000E+00
  0.00000000E+00  0.00000000E+00  0.00000000E+00
  0.00000000E+00  0.00000000E+00  0.00000000E+00
  0.00000000E+00  0.00000000E+00  0.00000000E+00
  0.00000000E+00  0.00000000E+00  0.00000000E+00
  0.00000000E+00  0.00000000E+00  0.00000000E+00
  0.00000000E+00  0.00000000E+00  0.00000000E+00
  0.00000000E+00  0.00000000E+00  0.00000000E+00
  0.00000000E+00  0.00000000E+00  0.00000000E+00
  0.00000000E+00  0.00000000E+00  0.00000000E+00
  0.00000000E+00  0.00000000E+00  0.00000000E+00
  0.00000000E+00  0.00000000E+00  0.00000000E+00
  0.00000000E+00  0.00000000E+00  0.00000000E+00
  0.00000000E+00  0.00000000E+00  0.00000000E+00
  0.00000000E+00  0.00000000E+00  0.00000000E+00
  0.00000000E+00  0.00000000E+00  0.00000000E+00
  0.00000000E+00  0.00000000E+00  0.00000000E+00
  0.00000000E+00  0.00000000E+00  0.00000000E+00
  0.00000000E+00  0.00000000E+00  0.00000000E+00
  0.00000000E+00  0.00000000E+00  0.00000000E+00
  0.00000000E+00  0.00000000E+00  0.00000000E+00
  0.00000000E+00  0.00000000E+00  0.00000000E+00
  0.00000000E+00  0.00000000E+00  0.00000000E+00
  0.00000000E+00  0.00000000E+00  0.00000000E+00
  0.00000000E+00  0.00000000E+00  0.00000000E+00
  0.00000000E+00  0.00000000E+00  0.00000000E+00
  0.00000000E+00  0.00000000E+00  0.00000000E+00
  0.00000000E+00  0.00000000E+00  0.00000000E+00
  0.00000000E+00  0.00000000E+00  0.00000000E+00
  0.00000000E+00  0.00000000E+00  0.00000000E+00
  0.00000000E+00  0.00000000E+00  0.00000000E+00
  0.00000000E+00  0.00000000E+00  0.00000000E+00
  0.00000000E+00  0.00000000E+00  0.00000000E+00
  0.00000000E+00  0.00000000E+00  0.00000000E+00
  0.00000000E+00  0.00000000E+00  0.00000000E+00
  0.00000000E+00  0.00000000E+00  0.00000000E+00
  0.00000000E+00  0.00000000E+00  0.00000000E+00
  0.00000000E+00  0.00000000E+00  0.00000000E+00
  0.00000000E+00  0.00000000E+00  0.00000000E+00
  0.00000000E+00  0.00000000E+00  0.00000000E+00
  0.00000000E+00  0.00000000E+00  0.00000000E+00
  0.00000000E+00  0.00000000E+00  0.00000000E+00
  0.00000000E+00  0.00000000E+00  0.00000000E+00
  0.00000000E+00  0.00000000E+00  0.00000000E+00
  0.00000000E+00  0.00000000E+00  0.00000000E+00
  0.00000000E+00  0.00000000E+00  0.00000000E+00
  0.00000000E+00  0.00000000E+00  0.00000000E+00
  0.00000000E+00  0.00000000E+00  0.00000000E+00
  0.00000000E+00  0.00000000E+00  0.00000000E+00
  0.00000000E+00  0.00000000E+00  0.00000000E+00
  0.00000000E+00  0.00000000E+00  0.00000000E+00
  0.00000000E+00  0.00000000E+00  0.00000000E+00
  0.00000000E+00  0.00000000E+00  0.00000000E+00
  0.00000000E+00  0.00000000E+00  0.00000000E+00
  0.00000000E+00  0.00000000E+00  0.00000000E+00
  0.00000000E+00  0.00000000E+00  0.00000000E+00
  0.00000000E+00  0.00000000E+00  0.00000000E+00
  0.00000000E+00  0.00000000E+00  0.00000000E+00
  0.00000000E+00  0.00000000E+00  0.00000000E+00
  0.00000000E+00  0.00000000E+00  0.00000000E+00
  0.00000000E+00  0.00000000E+00  0.00000000E+00
  0.00000000E+00  0.00000000E+00  0.00000000E+00
  0.00000000E+00  0.00000000E+00  0.00000000E+00
  0.00000000E+00  0.00000000E+00  0.00000000E+00
  0.00000000E+00  0.00000000E+00  0.00000000E+00
  0.00000000E+00  0.00000000E+00  0.00000000E+00
  0.00000000E+00  0.00000000E+00  0.00000000E+00
  0.00000000E+00  0.00000000E+00  0.00000000E+00
  0.00000000E+00  0.00000000E+00  0.00000000E+00
  0.00000000E+00  0.00000000E+00  0.00000000E+00
  0.00000000E+00  0.00000000E+00  0.00000000E+00
  0.00000000E+00  0.00000000E+00  0.00000000E+00
  0.00000000E+00  0.00000000E+00  0.00000000E+00
  0.00000000E+00  0.00000000E+00  0.00000000E+00
  0.00000000E+00  0.00000000E+00  0.00000000E+00
  0.00000000E+00  0.00000000E+00  0.00000000E+00
  0.00000000E+00  0.00000000E+00  0.00000000E+00
  0.00000000E+00  0.00000000E+00  0.00000000E+00
  0.00000000E+00  0.00000000E+00  0.00000000E+00
  0.00000000E+00  0.00000000E+00  0.00000000E+00
  0.00000000E+00  0.00000000E+00  0.00000000E+00
  0.00000000E+00  0.00000000E+00  0.00000000E+00
  0.00000000E+00  0.00000000E+00  0.00000000E+00
  0.00000000E+00  0.00000000E+00  0.00000000E+00
  0.00000000E+00  0.00000000E+00  0.00000000E+00
  0.00000000E+00  0.00000000E+00  0.00000000E+00
  0.00000000E+00  0.00000000E+00  0.00000000E+00
  0.00000000E+00  0.00000000E+00  0.00000000E+00
  0.00000000E+00  0.00000000E+00  0.00000000E+00
  0.00000000E+00  0.00000000E+00  0.00000000E+00
  0.00000000E+00  0.00000000E+00  0.00000000E+00
  0.00000000E+00  0.00000000E+00  0.00000000E+00
  0.00000000E+00  0.00000000E+00  0.00000000E+00
  0.00000000E+00  0.00000000E+00  0.00000000E+00
  0.00000000E+00  0.00000000E+00  0.00000000E+00
  0.00000000E+00  0.00000000E+00  0.00000000E+00
  0.00000000E+00  0.00000000E+00  0.00000000E+00
  0.00000000E+00  0.00000000E+00  0.00000000E+00
  0.00000000E+00  0.00000000E+00  0.00000000E+00
  0.00000000E+00  0.00000000E+00  0.00000000E+00
  0.00000000E+00  0.00000000E+00  0.00000000E+00
  0.00000000E+00  0.00000000E+00  0.00000000E+00
  0.00000000E+00  0.00000000E+00  0.00000000E+00
  0.00000000E+00  0.00000000E+00  0.00000000E+00
  0.00000000E+00  0.00000000E+00  0.00000000E+00
  0.00000000E+00  0.00000000E+00  0.00000000E+00
  0.00000000E+00  0.00000000E+00  0.00000000E+00
  0.00000000E+00  0.00000000E+00  0.00000000E+00
  0.00000000E+00  0.00000000E+00  0.00000000E+00
  0.00000000E+00  0.00000000E+00  0.00000000E+00
  0.00000000E+00  0.00000000E+00  0.00000000E+00
  0.00000000E+00  0.00000000E+00  0.00000000E+00
  0.00000000E+00  0.00000000E+00  0.00000000E+00
