Sr   Ti   O                             
   1.00000000000000     
    11.1989999999999998    0.0000000000000000    0.0000000000000000
     0.0000000000000000   11.1989999999999998    0.0000000000000000
     0.0000000000000000    0.0000000000000000   15.9830000000000005
   Sr   Ti   O 
    32    32    94
Direct
  0.9988147803269933  0.2503687969846561  0.1248269440262222
  0.0032511820289745  0.2475934416004978  0.6246022284600611
  0.9979426779207733  0.7496901479698864  0.1247400437296353
  0.0070053717258977  0.7528853955849133  0.6282455966278054
  0.4992067662080620  0.2503835472345078  0.1244567910483926
  0.4942258416522970  0.2419725606293462  0.6295690389026809
  0.4992712409411976  0.7485766946638801  0.1232427018463333
  0.4968326416188793  0.7547200401632211  0.6304298050857252
  0.0032511820289745  0.2475934416004978  0.3753977715398891
  0.9988147803269933  0.2503687969846561  0.8751730559737771
  0.0070053717258977  0.7528853955849133  0.3717544033722098
  0.9979426779207733  0.7496901479698864  0.8752599562703647
  0.4942258416522970  0.2419725606293462  0.3704309610972980
  0.4992067662080620  0.2503835472345078  0.8755432089516015
  0.4968326416188793  0.7547200401632211  0.3695701949143107
  0.4992712409411976  0.7485766946638801  0.8767572981536739
  0.2492557753103305  0.9992314954568796  0.1248584023969800
  0.2501313893246838  0.9988936687251024  0.6250860541007962
  0.2489524267720464  0.4987967750373724  0.1241567307743425
  0.2500688467286702  0.4994060669515783  0.6275889950700899
  0.7488645437548774  0.9994088326706672  0.1257591711894337
  0.7492644744469081  0.0025176945012885  0.6226948393831727
  0.7483549382372623  0.4997789245428753  0.1224852243596189
  0.7553336947309320  0.4943763344877685  0.6354314975506405
  0.2501313893246838  0.9988936687251024  0.3749139458991905
  0.2492557753103305  0.9992314954568796  0.8751415976029835
  0.2500688467286702  0.4994060669515783  0.3724110049298887
  0.2489524267720464  0.4987967750373724  0.8758432692256365
  0.7492644744469081  0.0025176945012885  0.3773051606168277
  0.7488645437548774  0.9994088326706672  0.8742408288105814
  0.7553336947309320  0.4943763344877685  0.3645685024493594
  0.7483549382372623  0.4997789245428753  0.8775147756403877
  0.9987244260964906  0.9996440332152047  0.0000000000000000
  0.9989315042603858  0.9994396322701929  0.5000000000000000
  0.9999046709990677  0.4989546832799071  0.0000000000000000
  0.0080773404146601  0.4955811950892898  0.5000000000000000
  0.4998880786798007  0.9994636254496676  0.0000000000000000
  0.5016030110491586  0.9977445394745388  0.5000000000000000
  0.4985097422158991  0.4993028752471069  0.0000000000000000
  0.2490075397082462  0.2491246915283071  0.0000000000000000
  0.2528683195077345  0.2431071107749570  0.5000000000000000
  0.2487932861335254  0.7501015750738806  0.0000000000000000
  0.2506754383544100  0.7528978651491143  0.5000000000000000
  0.7503052009162243  0.2489535451880006  0.0000000000000000
  0.7491422106721037  0.7509369675830816  0.0000000000000000
  0.2490313784746076  0.2494245069621497  0.2493935531030485
  0.2490313784746076  0.2494245069621497  0.7506064468969238
  0.2497753908918073  0.7495348660837716  0.2482142600995609
  0.2497753908918073  0.7495348660837716  0.7517857399004250
  0.7485365920015111  0.2499527871172185  0.2498075159599248
  0.7485365920015111  0.2499527871172185  0.7501924840400750
  0.7497500420877667  0.7480612973873535  0.2496781484728836
  0.7497500420877667  0.7480612973873535  0.7503218515271233
  0.9989422716474405  0.0000715015652952  0.2505241762458447
  0.9989422716474405  0.0000715015652952  0.7494758237541769
  0.0001107259894158  0.5008617299881643  0.2493446858465019
  0.0001107259894158  0.5008617299881643  0.7506553141535200
  0.4998930012982891  0.9988577784500176  0.2492824920916766
  0.4998930012982891  0.9988577784500176  0.7507175079083311
  0.4988002135272327  0.4998372440550659  0.2493702991069413
  0.4988002135272327  0.4998372440550659  0.7506297008930664
  0.7546237931429882  0.2556349671985946  0.5000000000000000
  0.4913239390087942  0.5025331222451223  0.5000000000000000
  0.7524477396153464  0.7492887952778916  0.5000000000000000
  0.1083621099587545  0.1401938482196131  0.2493488172537162
  0.1083621099587545  0.1401938482196131  0.7506511827462979
  0.1098350891232988  0.6403725311770554  0.2482147279378245
  0.1098350891232988  0.6403725311770554  0.7517852720621837
  0.6095996276006459  0.1390184025638587  0.2489869720890804
  0.6095996276006459  0.1390184025638587  0.7510130279109194
  0.6089504019621780  0.6391504582543234  0.2475388551000414
  0.6089504019621780  0.6391504582543234  0.7524611448999660
  0.3888892495465248  0.3592449277754733  0.2494118873931950
  0.3888892495465248  0.3592449277754733  0.7505881126068052
  0.3892298992837807  0.8596588239242474  0.2473991725390827
  0.3892298992837807  0.8596588239242474  0.7526008274609391
  0.8894972653441860  0.3600710607544951  0.2544465908269553
  0.8894972653441860  0.3600710607544951  0.7455534091730084
  0.8882430933899181  0.8591250973309921  0.2545104836137723
  0.8882430933899181  0.8591250973309921  0.7454895163862202
  0.3601416153183028  0.1098022061109248  0.2495867430091277
  0.3601416153183028  0.1098022061109248  0.7504132569908865
  0.3583066092022670  0.6096677920373696  0.2474714707358006
  0.3583066092022670  0.6096677920373696  0.7525285292641920
  0.8580799461395618  0.1106543050898911  0.2551866524131536
  0.8580799461395618  0.1106543050898911  0.7448133475868822
  0.8604446456882670  0.6099210661066974  0.2431272548802711
  0.8604446456882670  0.6099210661066974  0.7568727451197221
  0.1391258599387297  0.3903660948339867  0.2535678208085211
  0.1391258599387297  0.3903660948339867  0.7464321791915058
  0.1385725397373599  0.8894182888272947  0.2506582327446092
  0.1385725397373599  0.8894182888272947  0.7493417672553838
  0.6381350746845018  0.3896011620478129  0.2452141387158964
  0.6381350746845018  0.3896011620478129  0.7547858612841112
  0.6403316234804891  0.8878341576210196  0.2555942232716989
  0.6403316234804891  0.8878341576210196  0.7444057767282861
  0.3587655673360813  0.3891556740767864  0.0000000000000000
  0.3587256185070126  0.8904606091463723  0.0000000000000000
  0.3560254671934053  0.8919133761604136  0.5000000000000000
  0.8589206731904763  0.3900104711926796  0.0000000000000000
  0.8582394640633921  0.8909197874145711  0.0000000000000000
  0.8642391673305163  0.8877327701094041  0.5000000000000000
  0.1397974250705023  0.1078179099366569  0.0000000000000000
  0.1396199957819934  0.1112981559408410  0.5000000000000000
  0.1392330080454416  0.6090956801486179  0.0000000000000000
  0.1447722002808997  0.6125912685478276  0.5000000000000000
  0.6409177973088521  0.1092768645698377  0.0000000000000000
  0.6326153950483022  0.1111717326764090  0.5000000000000000
  0.6391547798133033  0.6102126839026050  0.0000000000000000
  0.1089886674853757  0.3581992590666149  0.0000000000000000
  0.1261026953794731  0.3665382595906814  0.5000000000000000
  0.1074978045868731  0.8595284821130521  0.0000000000000000
  0.1111237243987067  0.8584762910427874  0.5000000000000000
  0.6100114315904482  0.3590682598596929  0.0000000000000000
  0.6083706310680509  0.8589388257728835  0.0000000000000000
  0.6029907804252628  0.8530624012263565  0.5000000000000000
  0.3901598883192371  0.1396855659974311  0.0000000000000000
  0.3877259055349379  0.1352317299448140  0.5000000000000000
  0.3885658028269334  0.6402146690781810  0.0000000000000000
  0.8911149758726494  0.1407367103682239  0.0000000000000000
  0.8895266975477244  0.1359962838462512  0.5000000000000000
  0.8891209308893577  0.6396256352900155  0.0000000000000000
  0.9956525685894486  0.9991205582734876  0.1261555034457434
  0.0028786448190998  0.0006296108518465  0.6246109154346405
  0.0013578618815080  0.4956095344734071  0.1250864329365819
  0.9968346756242084  0.5135062773465804  0.6239611998923784
  0.5023060455713225  0.9980678183953917  0.1251145379432002
  0.4973379675449150  0.9987553243530122  0.6258579932590117
  0.4974916541901368  0.4995252465817595  0.1239636066227928
  0.4952075594535135  0.5019819254911647  0.6262476715256923
  0.0028786448190998  0.0006296108518465  0.3753890845653744
  0.9956525685894486  0.9991205582734876  0.8738444965542340
  0.9968346756242084  0.5135062773465804  0.3760388001076212
  0.0013578618815080  0.4956095344734071  0.8749135670633683
  0.4973379675449150  0.9987553243530122  0.3741420067409811
  0.5023060455713225  0.9980678183953917  0.8748854620568217
  0.4974916541901368  0.4995252465817595  0.8760363933772000
  0.2511644763819008  0.2480084779216093  0.3749012177229330
  0.2480359360706464  0.2500253192591216  0.8748059850820225
  0.2523624183632850  0.7486376291648938  0.3741176606296917
  0.2478275209343474  0.7513635239220023  0.8757396603191292
  0.7531385280603674  0.2484924181654345  0.8744854960704651
  0.7487460075556054  0.7539939006207564  0.8746450419036768
  0.2480359360706464  0.2500253192591216  0.1251940149179623
  0.2511644763819008  0.2480084779216093  0.6250987822770526
  0.2478275209343474  0.7513635239220023  0.1242603396808861
  0.2523624183632850  0.7486376291648938  0.6258823393703301
  0.7531385280603674  0.2484924181654345  0.1255145039295347
  0.7356669890108714  0.2598499761347503  0.6240257093571530
  0.7487460075556054  0.7539939006207564  0.1253549580963506
  0.7506584444753781  0.7268051446954319  0.6222089585954654
  0.7356669890108714  0.2598499761347503  0.3759742906428390
  0.8777239155697402  0.3885919170005787  0.5000000000000000
  0.4038133836167410  0.6486705717030171  0.5000000000000000
  0.4952075594535135  0.5019819254911647  0.3737523284743011
  0.3808338651163509  0.3752469308079421  0.5000000000000000
  0.7506584444753781  0.7268051446954319  0.3777910414045407
  0.6559876518353861  0.4839708700853040  0.5000000000000000
 
  0.00000000E+00  0.00000000E+00  0.00000000E+00
  0.00000000E+00  0.00000000E+00  0.00000000E+00
  0.00000000E+00  0.00000000E+00  0.00000000E+00
  0.00000000E+00  0.00000000E+00  0.00000000E+00
  0.00000000E+00  0.00000000E+00  0.00000000E+00
  0.00000000E+00  0.00000000E+00  0.00000000E+00
  0.00000000E+00  0.00000000E+00  0.00000000E+00
  0.00000000E+00  0.00000000E+00  0.00000000E+00
  0.00000000E+00  0.00000000E+00  0.00000000E+00
  0.00000000E+00  0.00000000E+00  0.00000000E+00
  0.00000000E+00  0.00000000E+00  0.00000000E+00
  0.00000000E+00  0.00000000E+00  0.00000000E+00
  0.00000000E+00  0.00000000E+00  0.00000000E+00
  0.00000000E+00  0.00000000E+00  0.00000000E+00
  0.00000000E+00  0.00000000E+00  0.00000000E+00
  0.00000000E+00  0.00000000E+00  0.00000000E+00
  0.00000000E+00  0.00000000E+00  0.00000000E+00
  0.00000000E+00  0.00000000E+00  0.00000000E+00
  0.00000000E+00  0.00000000E+00  0.00000000E+00
  0.00000000E+00  0.00000000E+00  0.00000000E+00
  0.00000000E+00  0.00000000E+00  0.00000000E+00
  0.00000000E+00  0.00000000E+00  0.00000000E+00
  0.00000000E+00  0.00000000E+00  0.00000000E+00
  0.00000000E+00  0.00000000E+00  0.00000000E+00
  0.00000000E+00  0.00000000E+00  0.00000000E+00
  0.00000000E+00  0.00000000E+00  0.00000000E+00
  0.00000000E+00  0.00000000E+00  0.00000000E+00
  0.00000000E+00  0.00000000E+00  0.00000000E+00
  0.00000000E+00  0.00000000E+00  0.00000000E+00
  0.00000000E+00  0.00000000E+00  0.00000000E+00
  0.00000000E+00  0.00000000E+00  0.00000000E+00
  0.00000000E+00  0.00000000E+00  0.00000000E+00
  0.00000000E+00  0.00000000E+00  0.00000000E+00
  0.00000000E+00  0.00000000E+00  0.00000000E+00
  0.00000000E+00  0.00000000E+00  0.00000000E+00
  0.00000000E+00  0.00000000E+00  0.00000000E+00
  0.00000000E+00  0.00000000E+00  0.00000000E+00
  0.00000000E+00  0.00000000E+00  0.00000000E+00
  0.00000000E+00  0.00000000E+00  0.00000000E+00
  0.00000000E+00  0.00000000E+00  0.00000000E+00
  0.00000000E+00  0.00000000E+00  0.00000000E+00
  0.00000000E+00  0.00000000E+00  0.00000000E+00
  0.00000000E+00  0.00000000E+00  0.00000000E+00
  0.00000000E+00  0.00000000E+00  0.00000000E+00
  0.00000000E+00  0.00000000E+00  0.00000000E+00
  0.00000000E+00  0.00000000E+00  0.00000000E+00
  0.00000000E+00  0.00000000E+00  0.00000000E+00
  0.00000000E+00  0.00000000E+00  0.00000000E+00
  0.00000000E+00  0.00000000E+00  0.00000000E+00
  0.00000000E+00  0.00000000E+00  0.00000000E+00
  0.00000000E+00  0.00000000E+00  0.00000000E+00
  0.00000000E+00  0.00000000E+00  0.00000000E+00
  0.00000000E+00  0.00000000E+00  0.00000000E+00
  0.00000000E+00  0.00000000E+00  0.00000000E+00
  0.00000000E+00  0.00000000E+00  0.00000000E+00
  0.00000000E+00  0.00000000E+00  0.00000000E+00
  0.00000000E+00  0.00000000E+00  0.00000000E+00
  0.00000000E+00  0.00000000E+00  0.00000000E+00
  0.00000000E+00  0.00000000E+00  0.00000000E+00
  0.00000000E+00  0.00000000E+00  0.00000000E+00
  0.00000000E+00  0.00000000E+00  0.00000000E+00
  0.00000000E+00  0.00000000E+00  0.00000000E+00
  0.00000000E+00  0.00000000E+00  0.00000000E+00
  0.00000000E+00  0.00000000E+00  0.00000000E+00
  0.00000000E+00  0.00000000E+00  0.00000000E+00
  0.00000000E+00  0.00000000E+00  0.00000000E+00
  0.00000000E+00  0.00000000E+00  0.00000000E+00
  0.00000000E+00  0.00000000E+00  0.00000000E+00
  0.00000000E+00  0.00000000E+00  0.00000000E+00
  0.00000000E+00  0.00000000E+00  0.00000000E+00
  0.00000000E+00  0.00000000E+00  0.00000000E+00
  0.00000000E+00  0.00000000E+00  0.00000000E+00
  0.00000000E+00  0.00000000E+00  0.00000000E+00
  0.00000000E+00  0.00000000E+00  0.00000000E+00
  0.00000000E+00  0.00000000E+00  0.00000000E+00
  0.00000000E+00  0.00000000E+00  0.00000000E+00
  0.00000000E+00  0.00000000E+00  0.00000000E+00
  0.00000000E+00  0.00000000E+00  0.00000000E+00
  0.00000000E+00  0.00000000E+00  0.00000000E+00
  0.00000000E+00  0.00000000E+00  0.00000000E+00
  0.00000000E+00  0.00000000E+00  0.00000000E+00
  0.00000000E+00  0.00000000E+00  0.00000000E+00
  0.00000000E+00  0.00000000E+00  0.00000000E+00
  0.00000000E+00  0.00000000E+00  0.00000000E+00
  0.00000000E+00  0.00000000E+00  0.00000000E+00
  0.00000000E+00  0.00000000E+00  0.00000000E+00
  0.00000000E+00  0.00000000E+00  0.00000000E+00
  0.00000000E+00  0.00000000E+00  0.00000000E+00
  0.00000000E+00  0.00000000E+00  0.00000000E+00
  0.00000000E+00  0.00000000E+00  0.00000000E+00
  0.00000000E+00  0.00000000E+00  0.00000000E+00
  0.00000000E+00  0.00000000E+00  0.00000000E+00
  0.00000000E+00  0.00000000E+00  0.00000000E+00
  0.00000000E+00  0.00000000E+00  0.00000000E+00
  0.00000000E+00  0.00000000E+00  0.00000000E+00
  0.00000000E+00  0.00000000E+00  0.00000000E+00
  0.00000000E+00  0.00000000E+00  0.00000000E+00
  0.00000000E+00  0.00000000E+00  0.00000000E+00
  0.00000000E+00  0.00000000E+00  0.00000000E+00
  0.00000000E+00  0.00000000E+00  0.00000000E+00
  0.00000000E+00  0.00000000E+00  0.00000000E+00
  0.00000000E+00  0.00000000E+00  0.00000000E+00
  0.00000000E+00  0.00000000E+00  0.00000000E+00
  0.00000000E+00  0.00000000E+00  0.00000000E+00
  0.00000000E+00  0.00000000E+00  0.00000000E+00
  0.00000000E+00  0.00000000E+00  0.00000000E+00
  0.00000000E+00  0.00000000E+00  0.00000000E+00
  0.00000000E+00  0.00000000E+00  0.00000000E+00
  0.00000000E+00  0.00000000E+00  0.00000000E+00
  0.00000000E+00  0.00000000E+00  0.00000000E+00
  0.00000000E+00  0.00000000E+00  0.00000000E+00
  0.00000000E+00  0.00000000E+00  0.00000000E+00
  0.00000000E+00  0.00000000E+00  0.00000000E+00
  0.00000000E+00  0.00000000E+00  0.00000000E+00
  0.00000000E+00  0.00000000E+00  0.00000000E+00
  0.00000000E+00  0.00000000E+00  0.00000000E+00
  0.00000000E+00  0.00000000E+00  0.00000000E+00
  0.00000000E+00  0.00000000E+00  0.00000000E+00
  0.00000000E+00  0.00000000E+00  0.00000000E+00
  0.00000000E+00  0.00000000E+00  0.00000000E+00
  0.00000000E+00  0.00000000E+00  0.00000000E+00
  0.00000000E+00  0.00000000E+00  0.00000000E+00
  0.00000000E+00  0.00000000E+00  0.00000000E+00
  0.00000000E+00  0.00000000E+00  0.00000000E+00
  0.00000000E+00  0.00000000E+00  0.00000000E+00
  0.00000000E+00  0.00000000E+00  0.00000000E+00
  0.00000000E+00  0.00000000E+00  0.00000000E+00
  0.00000000E+00  0.00000000E+00  0.00000000E+00
  0.00000000E+00  0.00000000E+00  0.00000000E+00
  0.00000000E+00  0.00000000E+00  0.00000000E+00
  0.00000000E+00  0.00000000E+00  0.00000000E+00
  0.00000000E+00  0.00000000E+00  0.00000000E+00
  0.00000000E+00  0.00000000E+00  0.00000000E+00
  0.00000000E+00  0.00000000E+00  0.00000000E+00
  0.00000000E+00  0.00000000E+00  0.00000000E+00
  0.00000000E+00  0.00000000E+00  0.00000000E+00
  0.00000000E+00  0.00000000E+00  0.00000000E+00
  0.00000000E+00  0.00000000E+00  0.00000000E+00
  0.00000000E+00  0.00000000E+00  0.00000000E+00
  0.00000000E+00  0.00000000E+00  0.00000000E+00
  0.00000000E+00  0.00000000E+00  0.00000000E+00
  0.00000000E+00  0.00000000E+00  0.00000000E+00
  0.00000000E+00  0.00000000E+00  0.00000000E+00
  0.00000000E+00  0.00000000E+00  0.00000000E+00
  0.00000000E+00  0.00000000E+00  0.00000000E+00
  0.00000000E+00  0.00000000E+00  0.00000000E+00
  0.00000000E+00  0.00000000E+00  0.00000000E+00
  0.00000000E+00  0.00000000E+00  0.00000000E+00
  0.00000000E+00  0.00000000E+00  0.00000000E+00
  0.00000000E+00  0.00000000E+00  0.00000000E+00
  0.00000000E+00  0.00000000E+00  0.00000000E+00
  0.00000000E+00  0.00000000E+00  0.00000000E+00
  0.00000000E+00  0.00000000E+00  0.00000000E+00
  0.00000000E+00  0.00000000E+00  0.00000000E+00
  0.00000000E+00  0.00000000E+00  0.00000000E+00
  0.00000000E+00  0.00000000E+00  0.00000000E+00
  0.00000000E+00  0.00000000E+00  0.00000000E+00
  0.00000000E+00  0.00000000E+00  0.00000000E+00
