SrTiFeO                                 
   1.00000000000000     
    11.1989999999999998    0.0000000000000000    0.0000000000000000
     0.0000000000000000   11.1989999999999998    0.0000000000000000
     0.0000000000000000    0.0000000000000000   15.9830000000000005
   Sr   Ti   Fe   O 
    32    31     1    94
Direct
  0.9999753441666611  0.2505116558928240  0.1250378310915765
  0.9997851161361098  0.2486931933605517  0.6250482910033138
  0.0032640822382451  0.7507583922542548  0.1234423411689724
  0.9960515871161751  0.7491304459504603  0.6226213200258138
  0.4999087443511361  0.2510278336142893  0.1255429053733579
  0.5016547117262602  0.2453256219187137  0.6255687224192218
  0.4969643862306397  0.7494443286538005  0.1229992302501492
  0.4992156162198921  0.7517497022857678  0.6275316681163789
  0.0013486330030144  0.2496286101860430  0.3752963286789308
  0.0001179678106512  0.2501964912851785  0.8750437341658297
  0.0067744965645185  0.7486578164417725  0.3760858022715329
  1.0000116933139160  0.7500634690744689  0.8735686484393517
  0.5006403125228069  0.2465832898863112  0.3750704876439464
  0.4998905058787567  0.2504873575910019  0.8748546041161528
  0.4901332315819975  0.7522673146569249  0.3718052300067149
  0.4985675221306362  0.7510675913384263  0.8753504584732120
  0.2500386026668400  0.0001453433865891  0.1250516393442792
  0.2493507706401726  0.9986347111423686  0.6252664934692941
  0.2508320179973026  0.5005418908228648  0.1248060981402679
  0.2435585266736775  0.5004966423704774  0.6265807307834109
  0.7497334471811333  0.0034123825773108  0.1234330731500460
  0.7512209550409243  0.9969095071086822  0.6237003629870942
  0.7501156461376708  0.4969505154285479  0.1237308540966520
  0.7539766713078377  0.4957878970940791  0.6284639176589658
  0.2494488149956592  0.0004762348778502  0.3748041314289194
  0.2501130925759075  0.9998783709660276  0.8748648787860656
  0.2456499354516055  0.4987785040357799  0.3733573870901868
  0.2504224175921974  0.5004794704193328  0.8753381176167095
  0.7515551720883891  0.0068641452532192  0.3756515616028088
  0.7501884087087739  0.0003923703337356  0.8741959061124598
  0.7536934139086886  0.4880696024305112  0.3728710535435405
  0.7487556414765154  0.4991887591841621  0.8749656440874556
  0.9995422382996858  0.9997421573839277  0.9998504714819051
  0.9975700975871554  0.9978515061584994  0.4994424324559362
  0.9997012320415253  0.5004166217096240  0.9998684519282883
  0.9976681561044732  0.5003717439060360  0.4989682594152664
  0.5004074456961352  0.9999175542723919  0.9999240200104192
  0.5009702952861201  0.9965330169257599  0.4989458014406556
  0.5000166421192447  0.4999535480838072  0.0001479894799725
  0.2505077419578347  0.2503641776382850  0.0004714498595662
  0.2466297805541442  0.2449110832814899  0.5008238512780225
  0.2497419064045283  0.7499845128456160  0.9995886691670995
  0.2502214551866057  0.7507768474770857  0.5005724522228701
  0.7502588055582963  0.2499696355830073  0.9996143652924975
  0.7504429942008694  0.7505833983325755  0.9952602006692192
  0.2505825827347519  0.2502620283861499  0.2497783416326906
  0.2501055522178978  0.2499660375279333  0.7494601357059626
  0.2492512343856882  0.7499002560002676  0.2493825243394137
  0.2491497982064403  0.7497068340410165  0.7498790908926108
  0.7499423613972506  0.2490863582434572  0.2493432144957763
  0.7499115118204934  0.2488118805703984  0.7501088721115361
  0.7500607219854695  0.7501596961950774  0.2423049228205829
  0.7490355947009819  0.7489109770060531  0.7474088754965044
  0.0003663981948774  0.0003998133412515  0.2508105127289619
  0.9997025430896033  0.9991291755006533  0.7496102629564064
  0.0000898047166614  0.5000088364433448  0.2500894773210248
  0.9992212686214781  0.5003845661822857  0.7505319008267722
  0.4999485001224870  0.9999149729752593  0.2501851931416335
  0.5004109309821065  0.9992696233416010  0.7500538512658002
  0.5010902311787654  0.5009540283931908  0.2513822908971502
  0.5006922695751930  0.5008913116521635  0.7500426261305734
  0.7513270150416667  0.2493221468587254  0.5007364122103193
  0.4896268014923797  0.4940903031174502  0.5003424963470564
  0.7484412559125602  0.7503456990956694  0.4985312604650476
  0.1103955358387256  0.1405244240409543  0.2472081055937884
  0.1098482544908128  0.1410575267433402  0.7508054248779665
  0.1094747015886809  0.6400064921674573  0.2498310103383064
  0.1086595532434789  0.6408388912254016  0.7490455880411639
  0.6104594753219164  0.1391581447178141  0.2496693622812852
  0.6087443675167151  0.1406252333864615  0.7505788190762455
  0.6123690854173700  0.6423996845228390  0.2546948224350243
  0.6079433440025250  0.6407990437243093  0.7563323995363350
  0.3909090298028628  0.3609666129720517  0.2534347488824247
  0.3916143370462981  0.3606089954144011  0.7450979025591028
  0.3893013831482763  0.8605294626560078  0.2486301939106623
  0.3901355146652827  0.8596464272528007  0.7503048782017491
  0.8887366133411060  0.3613014768164398  0.2511187501535727
  0.8904064959500086  0.3595195328292901  0.7485798768651561
  0.8863389718787688  0.8581079321779181  0.2615353446332581
  0.8910430212255244  0.8587209763875443  0.7486264251836934
  0.3603793214274791  0.1104373872676191  0.2482300915992865
  0.3599503524744976  0.1098080593692270  0.7487519030054623
  0.3605043347837876  0.6102528597977579  0.2516011473101659
  0.3591484145753112  0.6086713478257028  0.7484815164385529
  0.8601660768357665  0.1099652877408167  0.2496338477498133
  0.8590427585573130  0.1087682875592334  0.7495216421725209
  0.8578226411694925  0.6129528193740142  0.2593033604531635
  0.8589999734604469  0.6080438463248923  0.7533800480170916
  0.1402805695483058  0.3904397742714640  0.2473070203737550
  0.1403652864916932  0.3910714145242318  0.7494236593346020
  0.1390652190954208  0.8893866600798855  0.2496931341137731
  0.1408153053862368  0.8908504903062189  0.7504101829420334
  0.6398230254729658  0.3898002532313103  0.2493871079097979
  0.6405952551686180  0.3905683003660376  0.7499674545525796
  0.6416975198015292  0.8868126472098374  0.2598749651275477
  0.6407021684751312  0.8910886638561900  0.7509913830766186
  0.3595503915917735  0.3908107081161153  0.0012101182615536
  0.3595899524489503  0.8904231695881532  0.0008074450665006
  0.3578520980803878  0.8923322296657044  0.4996587988300596
  0.8594143055216928  0.3908730458909250  0.9999083148286907
  0.8584852024391556  0.8911959991703302  0.0004776554632662
  0.8633502349167659  0.8955644891146012  0.4947727225951538
  0.1405642607521885  0.1095771374134924  0.0011696368012466
  0.1423720966110515  0.1093737539103652  0.5010471380781379
  0.1403396532198878  0.6092001308422346  0.0009241358723535
  0.1391977833066871  0.6108784491352857  0.4994733789791257
  0.6408568148590755  0.1093322921698012  0.9997439978988573
  0.6393165846378213  0.1113018023713976  0.4998641001483211
  0.6410632012235223  0.6096671268103706  0.0001203295934235
  0.1094324819156104  0.3596223665514103  0.0015368748751355
  0.1103099045770699  0.3598941514040424  0.5015165531118562
  0.1093688908497828  0.8593803532414475  0.9997334141854547
  0.1104289652977633  0.8592657366785418  0.5002073341883618
  0.6095367065573606  0.3596437510160410  0.0008410938056148
  0.6094444402308846  0.8586015391719350  0.0001689056596835
  0.6067556102795979  0.8542573662108788  0.4910873514036966
  0.3910226131315233  0.1402839957633470  0.0014145676629046
  0.3914098408058814  0.1424609648251494  0.5010943247195822
  0.3906184082791876  0.6403635276510705  0.9997471510515740
  0.8909648689343652  0.1406057814413939  0.0008310227948204
  0.8911225989361369  0.1420698460843717  0.4997474875404396
  0.8907556630352850  0.6416141943883309  0.9997811104807542
  0.9963369348502995  0.9947595213965936  0.1261747895760913
  0.0001290239524490  0.0005723318784085  0.6250097459324094
  0.9945022462332425  0.5033480957191563  0.1260047350100073
  0.9967315758593334  0.5053045295276657  0.6242169085857177
  0.5050858204737243  0.9964469305709078  0.1259719687385377
  0.5031387812080427  0.9967884895919575  0.6242122558836369
  0.5008260208467270  0.5025950486963741  0.1261765396970904
  0.5139740181652818  0.5125306859101714  0.6218801647217758
  0.0064810279841165  0.0064811392775040  0.3743203182759431
  0.9992035280451973  0.9997820097232973  0.8752908041186713
  0.0061190230128308  0.4947121215330188  0.3742087454556495
  0.0013546296929834  0.4989509863866238  0.8754361508838457
  0.4951968754836035  0.0048947505857409  0.3744004474033933
  0.4990001802922307  1.0000058903064875  0.8753855982631473
  0.4976668765321971  0.4968019684152871  0.8751041243319355
  0.2488113737741650  0.2499822669498035  0.3750270081123513
  0.2524313649642261  0.2516901753554773  0.8749825960083349
  0.2498253918367594  0.7499008388195079  0.3749816347821380
  0.2499319976043300  0.7488914892581584  0.8748772095808567
  0.7508410967261250  0.2501381093231453  0.8749641294677251
  0.7515901770550744  0.7522093610731942  0.8758495668492584
  0.2527395487619690  0.2516084728532925  0.1251104623692842
  0.2490798084486113  0.2502216251261460  0.6250909323636545
  0.2498687202836768  0.7489117122424690  0.1249346618134662
  0.2503608486678637  0.7498166460655278  0.6246778055569194
  0.7507284818122488  0.2500584468238626  0.1249579006960245
  0.7485352968585668  0.2493505568310700  0.6249438244912543
  0.7517090780279552  0.7514491300846450  0.1255589842446506
  0.7449515887660194  0.7415221529750761  0.6288975858323208
  0.7487813633054062  0.2495617434417014  0.3749891798446843
  0.8619279622576440  0.3873427032650456  0.5002829443585753
  0.3972375808709557  0.6441186328119739  0.5000894402061156
  0.5075150248283743  0.5061300482002974  0.3777558604345968
  0.3578277922509477  0.3925700628358598  0.5010444581173146
  0.8785886481916372  0.6328903404833401  0.4886079272393692
  0.6155161596253619  0.3708483106026211  0.4998353804800187
 
  0.00000000E+00  0.00000000E+00  0.00000000E+00
  0.00000000E+00  0.00000000E+00  0.00000000E+00
  0.00000000E+00  0.00000000E+00  0.00000000E+00
  0.00000000E+00  0.00000000E+00  0.00000000E+00
  0.00000000E+00  0.00000000E+00  0.00000000E+00
  0.00000000E+00  0.00000000E+00  0.00000000E+00
  0.00000000E+00  0.00000000E+00  0.00000000E+00
  0.00000000E+00  0.00000000E+00  0.00000000E+00
  0.00000000E+00  0.00000000E+00  0.00000000E+00
  0.00000000E+00  0.00000000E+00  0.00000000E+00
  0.00000000E+00  0.00000000E+00  0.00000000E+00
  0.00000000E+00  0.00000000E+00  0.00000000E+00
  0.00000000E+00  0.00000000E+00  0.00000000E+00
  0.00000000E+00  0.00000000E+00  0.00000000E+00
  0.00000000E+00  0.00000000E+00  0.00000000E+00
  0.00000000E+00  0.00000000E+00  0.00000000E+00
  0.00000000E+00  0.00000000E+00  0.00000000E+00
  0.00000000E+00  0.00000000E+00  0.00000000E+00
  0.00000000E+00  0.00000000E+00  0.00000000E+00
  0.00000000E+00  0.00000000E+00  0.00000000E+00
  0.00000000E+00  0.00000000E+00  0.00000000E+00
  0.00000000E+00  0.00000000E+00  0.00000000E+00
  0.00000000E+00  0.00000000E+00  0.00000000E+00
  0.00000000E+00  0.00000000E+00  0.00000000E+00
  0.00000000E+00  0.00000000E+00  0.00000000E+00
  0.00000000E+00  0.00000000E+00  0.00000000E+00
  0.00000000E+00  0.00000000E+00  0.00000000E+00
  0.00000000E+00  0.00000000E+00  0.00000000E+00
  0.00000000E+00  0.00000000E+00  0.00000000E+00
  0.00000000E+00  0.00000000E+00  0.00000000E+00
  0.00000000E+00  0.00000000E+00  0.00000000E+00
  0.00000000E+00  0.00000000E+00  0.00000000E+00
  0.00000000E+00  0.00000000E+00  0.00000000E+00
  0.00000000E+00  0.00000000E+00  0.00000000E+00
  0.00000000E+00  0.00000000E+00  0.00000000E+00
  0.00000000E+00  0.00000000E+00  0.00000000E+00
  0.00000000E+00  0.00000000E+00  0.00000000E+00
  0.00000000E+00  0.00000000E+00  0.00000000E+00
  0.00000000E+00  0.00000000E+00  0.00000000E+00
  0.00000000E+00  0.00000000E+00  0.00000000E+00
  0.00000000E+00  0.00000000E+00  0.00000000E+00
  0.00000000E+00  0.00000000E+00  0.00000000E+00
  0.00000000E+00  0.00000000E+00  0.00000000E+00
  0.00000000E+00  0.00000000E+00  0.00000000E+00
  0.00000000E+00  0.00000000E+00  0.00000000E+00
  0.00000000E+00  0.00000000E+00  0.00000000E+00
  0.00000000E+00  0.00000000E+00  0.00000000E+00
  0.00000000E+00  0.00000000E+00  0.00000000E+00
  0.00000000E+00  0.00000000E+00  0.00000000E+00
  0.00000000E+00  0.00000000E+00  0.00000000E+00
  0.00000000E+00  0.00000000E+00  0.00000000E+00
  0.00000000E+00  0.00000000E+00  0.00000000E+00
  0.00000000E+00  0.00000000E+00  0.00000000E+00
  0.00000000E+00  0.00000000E+00  0.00000000E+00
  0.00000000E+00  0.00000000E+00  0.00000000E+00
  0.00000000E+00  0.00000000E+00  0.00000000E+00
  0.00000000E+00  0.00000000E+00  0.00000000E+00
  0.00000000E+00  0.00000000E+00  0.00000000E+00
  0.00000000E+00  0.00000000E+00  0.00000000E+00
  0.00000000E+00  0.00000000E+00  0.00000000E+00
  0.00000000E+00  0.00000000E+00  0.00000000E+00
  0.00000000E+00  0.00000000E+00  0.00000000E+00
  0.00000000E+00  0.00000000E+00  0.00000000E+00
  0.00000000E+00  0.00000000E+00  0.00000000E+00
  0.00000000E+00  0.00000000E+00  0.00000000E+00
  0.00000000E+00  0.00000000E+00  0.00000000E+00
  0.00000000E+00  0.00000000E+00  0.00000000E+00
  0.00000000E+00  0.00000000E+00  0.00000000E+00
  0.00000000E+00  0.00000000E+00  0.00000000E+00
  0.00000000E+00  0.00000000E+00  0.00000000E+00
  0.00000000E+00  0.00000000E+00  0.00000000E+00
  0.00000000E+00  0.00000000E+00  0.00000000E+00
  0.00000000E+00  0.00000000E+00  0.00000000E+00
  0.00000000E+00  0.00000000E+00  0.00000000E+00
  0.00000000E+00  0.00000000E+00  0.00000000E+00
  0.00000000E+00  0.00000000E+00  0.00000000E+00
  0.00000000E+00  0.00000000E+00  0.00000000E+00
  0.00000000E+00  0.00000000E+00  0.00000000E+00
  0.00000000E+00  0.00000000E+00  0.00000000E+00
  0.00000000E+00  0.00000000E+00  0.00000000E+00
  0.00000000E+00  0.00000000E+00  0.00000000E+00
  0.00000000E+00  0.00000000E+00  0.00000000E+00
  0.00000000E+00  0.00000000E+00  0.00000000E+00
  0.00000000E+00  0.00000000E+00  0.00000000E+00
  0.00000000E+00  0.00000000E+00  0.00000000E+00
  0.00000000E+00  0.00000000E+00  0.00000000E+00
  0.00000000E+00  0.00000000E+00  0.00000000E+00
  0.00000000E+00  0.00000000E+00  0.00000000E+00
  0.00000000E+00  0.00000000E+00  0.00000000E+00
  0.00000000E+00  0.00000000E+00  0.00000000E+00
  0.00000000E+00  0.00000000E+00  0.00000000E+00
  0.00000000E+00  0.00000000E+00  0.00000000E+00
  0.00000000E+00  0.00000000E+00  0.00000000E+00
  0.00000000E+00  0.00000000E+00  0.00000000E+00
  0.00000000E+00  0.00000000E+00  0.00000000E+00
  0.00000000E+00  0.00000000E+00  0.00000000E+00
  0.00000000E+00  0.00000000E+00  0.00000000E+00
  0.00000000E+00  0.00000000E+00  0.00000000E+00
  0.00000000E+00  0.00000000E+00  0.00000000E+00
  0.00000000E+00  0.00000000E+00  0.00000000E+00
  0.00000000E+00  0.00000000E+00  0.00000000E+00
  0.00000000E+00  0.00000000E+00  0.00000000E+00
  0.00000000E+00  0.00000000E+00  0.00000000E+00
  0.00000000E+00  0.00000000E+00  0.00000000E+00
  0.00000000E+00  0.00000000E+00  0.00000000E+00
  0.00000000E+00  0.00000000E+00  0.00000000E+00
  0.00000000E+00  0.00000000E+00  0.00000000E+00
  0.00000000E+00  0.00000000E+00  0.00000000E+00
  0.00000000E+00  0.00000000E+00  0.00000000E+00
  0.00000000E+00  0.00000000E+00  0.00000000E+00
  0.00000000E+00  0.00000000E+00  0.00000000E+00
  0.00000000E+00  0.00000000E+00  0.00000000E+00
  0.00000000E+00  0.00000000E+00  0.00000000E+00
  0.00000000E+00  0.00000000E+00  0.00000000E+00
  0.00000000E+00  0.00000000E+00  0.00000000E+00
  0.00000000E+00  0.00000000E+00  0.00000000E+00
  0.00000000E+00  0.00000000E+00  0.00000000E+00
  0.00000000E+00  0.00000000E+00  0.00000000E+00
  0.00000000E+00  0.00000000E+00  0.00000000E+00
  0.00000000E+00  0.00000000E+00  0.00000000E+00
  0.00000000E+00  0.00000000E+00  0.00000000E+00
  0.00000000E+00  0.00000000E+00  0.00000000E+00
  0.00000000E+00  0.00000000E+00  0.00000000E+00
  0.00000000E+00  0.00000000E+00  0.00000000E+00
  0.00000000E+00  0.00000000E+00  0.00000000E+00
  0.00000000E+00  0.00000000E+00  0.00000000E+00
  0.00000000E+00  0.00000000E+00  0.00000000E+00
  0.00000000E+00  0.00000000E+00  0.00000000E+00
  0.00000000E+00  0.00000000E+00  0.00000000E+00
  0.00000000E+00  0.00000000E+00  0.00000000E+00
  0.00000000E+00  0.00000000E+00  0.00000000E+00
  0.00000000E+00  0.00000000E+00  0.00000000E+00
  0.00000000E+00  0.00000000E+00  0.00000000E+00
  0.00000000E+00  0.00000000E+00  0.00000000E+00
  0.00000000E+00  0.00000000E+00  0.00000000E+00
  0.00000000E+00  0.00000000E+00  0.00000000E+00
  0.00000000E+00  0.00000000E+00  0.00000000E+00
  0.00000000E+00  0.00000000E+00  0.00000000E+00
  0.00000000E+00  0.00000000E+00  0.00000000E+00
  0.00000000E+00  0.00000000E+00  0.00000000E+00
  0.00000000E+00  0.00000000E+00  0.00000000E+00
  0.00000000E+00  0.00000000E+00  0.00000000E+00
  0.00000000E+00  0.00000000E+00  0.00000000E+00
  0.00000000E+00  0.00000000E+00  0.00000000E+00
  0.00000000E+00  0.00000000E+00  0.00000000E+00
  0.00000000E+00  0.00000000E+00  0.00000000E+00
  0.00000000E+00  0.00000000E+00  0.00000000E+00
  0.00000000E+00  0.00000000E+00  0.00000000E+00
  0.00000000E+00  0.00000000E+00  0.00000000E+00
  0.00000000E+00  0.00000000E+00  0.00000000E+00
  0.00000000E+00  0.00000000E+00  0.00000000E+00
  0.00000000E+00  0.00000000E+00  0.00000000E+00
  0.00000000E+00  0.00000000E+00  0.00000000E+00
  0.00000000E+00  0.00000000E+00  0.00000000E+00
  0.00000000E+00  0.00000000E+00  0.00000000E+00
  0.00000000E+00  0.00000000E+00  0.00000000E+00
  0.00000000E+00  0.00000000E+00  0.00000000E+00
  0.00000000E+00  0.00000000E+00  0.00000000E+00
