Sr   Ti   Fe   O                        
   1.00000000000000     
    11.1989999999999998    0.0000000000000000    0.0000000000000000
     0.0000000000000000   11.1989999999999998    0.0000000000000000
     0.0000000000000000    0.0000000000000000   15.9830000000000005
   Sr   Ti   Fe   O 
    32    31     1    94
Direct
  0.9995871325304621  0.2508227889601587  0.1245915421450748
  0.0049041113243837  0.2507981297687292  0.6256915520158787
  0.0043467064028426  0.7504133619657830  0.1229820150771761
  1.0014488776544548  0.7487835582081814  0.6257690915731177
  0.4996459174199456  0.2511095307503140  0.1242900757822572
  0.4943345792748907  0.2428910428243719  0.6295372518473074
  0.4942267709841588  0.7501902136877316  0.1222107308446226
  0.4992065072791461  0.7537765424735152  0.6295698838017805
  0.0066097667804770  0.2507623969837954  0.3743994567592472
  0.9992552342620679  0.2504269851699457  0.8752776939279503
  0.0102020274383490  0.7486247793162079  0.3743145185934461
 -0.0003712113775055  0.7504198762918957  0.8735547061820608
  0.4933633339911226  0.2446635775458247  0.3711364829752128
  0.5000818433232211  0.2508732019009259  0.8760139721323874
  0.4874162091829198  0.7578151570416619  0.3705119202696042
  0.4975219667666660  0.7496878083618171  0.8753648848374456
  0.2486734947870179  0.9999095728835847  0.1249915007928554
  0.2495725382635375  0.9986709213580593  0.6250671225702471
  0.2513459342668830  0.5009377811479878  0.1245298027661574
  0.2467578190490220  0.4986217784753763  0.6281569067679013
  0.7500752073996713  0.0059713779775807  0.1230242355587196
  0.7499648961578949  0.9979668394976881  0.6250964997758903
  0.7495961592513459  0.4956009715082219  0.1221528487381574
  0.7555471621789434  0.4976545273980115  0.6308457376888892
  0.2500229620833357  0.0012749422151391  0.3746451505408557
  0.2489028838265273  0.9995844614810010  0.8749955819191070
  0.2473591225552723  0.4969923513598240  0.3715771372135406
  0.2500782168496168  0.4997472994452518  0.8760355641255870
  0.7475582203293422  0.0092800511414485  0.3745080298362532
  0.7501365699808548  0.0012695413761580  0.8736816299768290
  0.7594813138127050  0.4902994369040677  0.3703546731486084
  0.7481543628344410  0.4994189607295849  0.8752672297144428
  0.9986529052324643  0.9998003523390966  1.0000486344563091
  1.0012145783943640  0.9951309763091645  0.4985818210328493
  0.9995769094116654  0.5005529483585126  0.9998002931726617
  1.0006928141769971  0.5022878071863474  0.4989022613029186
  0.5001219773300480  0.9998705853847464  0.9997563556460288
  0.5010524114831701  0.9973912431562896  0.4991020212993273
  0.5000231982727156  0.5009229468908794  0.0001814900802009
  0.2497328511061786  0.2496756027687694  0.0003486705638089
  0.2491563554553705  0.2453308036826322  0.5009958604162259
  0.2488523812657883  0.7506476792136888  0.9993043762890387
  0.2510212592466015  0.7511060711066962  0.5005698498598674
  0.7504068033373316  0.2498880933908065  0.9993934679869193
  0.7496608469995043  0.7509264147740445  0.9948943753242628
  0.2495811279623965  0.2496709579943776  0.2474857481783769
  0.2494595056107326  0.2492205845818727  0.7507199584189093
  0.2491984838342540  0.7506279881564318  0.2485766157165455
  0.2489315394106964  0.7499513559256658  0.7503140342291826
  0.7491329301824519  0.2508516751427893  0.2495879973367821
  0.7485501134102324  0.2503943778925893  0.7497582376368898
  0.7500318314999497  0.7507497595229199  0.2407747681408393
  0.7485472397965766  0.7483257007669907  0.7487612633393655
 -0.0006603901238784  0.0007353524110714  0.2518367713361478
  0.9987990970638071  0.9997803950095956  0.7488095261030708
  0.0011934835798160  0.5002601706747521  0.2495245449699437
  0.9994894012219874  0.5004895283326024  0.7508454908148220
  0.4998039841074591  0.0003990096791600  0.2493729029378809
  0.5002451220427553  0.9988734131068124  0.7508271953048073
  0.4999819392759672  0.5005300927081544  0.2520231481612625
  0.4983357050418142  0.5002522052352132  0.7505349746765808
  0.7616394040084206  0.2469204425619963  0.5007043911065163
  0.4873966218843762  0.5015607245643967  0.5005980969790719
  0.7575650700228457  0.7568902565654511  0.5057936462741708
  0.1106587851491050  0.1399443268577985  0.2458092182150940
  0.1089028048617037  0.1398319601480943  0.7501823581761888
  0.1127731029081235  0.6379108921895355  0.2488508296737537
  0.1089044614274935  0.6403226561638268  0.7496297266248916
  0.6111986261621903  0.1388560156132182  0.2501359379366270
  0.6091685304507423  0.1399061458103680  0.7501127472135682
  0.6184979837666306  0.6412671487156040  0.2667371427359246
  0.6070221933949602  0.6391655799506351  0.7555137175127157
  0.3892193066681172  0.3615894077477584  0.2470382449559813
  0.3888485029435591  0.3585927714525244  0.7516118753300604
  0.3874456418571015  0.8631978872490418  0.2475453013351994
  0.3895876819136580  0.8599704570410578  0.7503154422889697
  0.8876515130025936  0.3629785766077380  0.2521663257877287
  0.8890856245813997  0.3604319391811054  0.7470081299466266
  0.8823192084253385  0.8608617310470886  0.2648558885510574
  0.8882388779024769  0.8594112137855516  0.7472752556538517
  0.3616880210262439  0.1118217678215719  0.2482905586015769
  0.3604347225314512  0.1093438737449659  0.7471386997245715
  0.3637258430343141  0.6135514024627612  0.2484961453605629
  0.3577723230948795  0.6090505004218463  0.7527041638647080
  0.8595801179110839  0.1136425021519385  0.2539071125139130
  0.8574656875854167  0.1112598796269342  0.7446058906357129
  0.8623134737531385  0.6179820492729422  0.2583348625950195
  0.8601566746180368  0.6101924820989376  0.7545229981758121
  0.1394215782620712  0.3892209175889820  0.2467012207477340
  0.1387982019168259  0.3897025134277912  0.7485748518745737
  0.1365158911960284  0.8874147989636738  0.2495982959069869
  0.1390144264582898  0.8898276422173633  0.7498037526097403
  0.6383211938634181  0.3904106497674202  0.2481460567597359
  0.6382113268783555  0.3904161733612695  0.7523072492131262
  0.6398680192603288  0.8849563604589066  0.2607179170338683
  0.6401518457728390  0.8899539940395755  0.7508908038803385
  0.3604962939198132  0.3901730980110094  0.0028387934110201
  0.3594385994037989  0.8906027971853702  0.0010230445200776
  0.3591822590023673  0.8916351241056755  0.4997168151741003
  0.8593160405932827  0.3907151930661918  0.9995700674086108
  0.8570705756322382  0.8911662682702923  0.0002213183080595
  0.8631004615157623  0.8959701565388407  0.4870692806298506
  0.1392255019911841  0.1088865653991279  0.0015159878746158
  0.1400350781984703  0.1111879701120638  0.5017018958490427
  0.1397835447277702  0.6095448730327572  0.0009705348612315
  0.1447291453577272  0.6095928188210534  0.4992226700790085
  0.6406729971789172  0.1097777534465079  0.9992807686129411
  0.6338912088116718  0.1223494331208013  0.4995724005634621
  0.6414563110368651  0.6100386210195242 -0.0005875446248182
  0.1094604978024289  0.3599616539600567  0.0013400463846377
  0.1192821999599382  0.3640667293355377  0.5017859033306670
  0.1083530038352580  0.8598105122193763  0.9995925117509462
  0.1112056168654684  0.8576511740794605  0.5002343445019880
  0.6101949031234687  0.3602202903347013  0.0012976188832854
  0.6086965285220783  0.8584410246671513 -0.0005084733000521
  0.6112535649961607  0.8556193840464089  0.4886522990112695
  0.3906615544533041  0.1398817464266588  0.0012722690766703
  0.3875659905488843  0.1350055966745625  0.5016004743504922
  0.3900439790780519  0.6404339030689744  1.0000585832833011
  0.8901324115341012  0.1412019932209379  0.0010642798076041
  0.8890600151927878  0.1398800541269579  0.5004093152754805
  0.8902368341617701  0.6420472333468434 -0.0003953993826255
  0.9924422068456507  0.9947708986796534  0.1266581862644224
  0.9987322203213091  0.9973219089074616  0.6236659564382672
  0.9939347980589242  0.5029418681776636  0.1258682028838661
  0.9972096727490998  0.5075328313109596  0.6238120293920090
  0.5064279873073946  0.9969044513539937  0.1258429431466010
  0.5062083595567841  0.9948134537109252  0.6238032266256428
  0.5055149634614673  0.5082346548945986  0.1267529003923737
  0.4930210625708752  0.5028441005643305  0.6266516975209101
  0.0112240261800666  0.0089239801663047  0.3744495742190871
  0.9959421491334428  0.0009314835503779  0.8744764322589760
  0.0082043296659594  0.4955327006575921  0.3737803867404978
  0.0013181698144638  0.4981031213386555  0.8751409243982305
  0.4952726061616832  0.0044481213857575  0.3741074728350701
  0.4985267908202760  0.0004743067864134  0.8750073410833065
  0.4974540642191351  0.4977812448066228  0.8769386746656751
  0.2499200175416809  0.2498713221896172  0.3740600125485488
  0.2495079219335680  0.2487159962944265  0.8756074251664271
  0.2519466970985553  0.7496311917997286  0.3745573195840799
  0.2487329366209926  0.7508026481679786  0.8753069435426827
  0.7518326681000506  0.2493325807756872  0.8742216941100740
  0.7503630223657135  0.7519989088801493  0.8751262547898623
  0.2505509424304415  0.2492292508821194  0.1242990221606362
  0.2498204714774234  0.2495916304621908  0.6258074379417382
  0.2489699061450968  0.7503156800524459  0.1242027977640527
  0.2515654364397219  0.7483933520413169  0.6250950654973396
  0.7511738837304285  0.2497473065744091  0.1254751460796019
  0.7381017843969025  0.2597768085895488  0.6218055586194593
  0.7484611300808349  0.7509264763850751  0.1256142474655454
  0.7395517500587744  0.7367474752181591  0.6285934859430707
  0.7391261585777020  0.2585893833816419  0.3780975134741536
  0.8734740146784902  0.3813948793908437  0.4993515293871847
  0.4047942593638655  0.6507983999017297  0.5002795357738095
  0.4876793773743905  0.4959195676803552  0.3751483656678800
  0.3753047218525408  0.3758381255238314  0.5021017878630165
  0.8844836587124920  0.6363933081816451  0.4867475457612080
  0.6494996686157902  0.4756412627628060  0.4996226159273660
 
  0.00000000E+00  0.00000000E+00  0.00000000E+00
  0.00000000E+00  0.00000000E+00  0.00000000E+00
  0.00000000E+00  0.00000000E+00  0.00000000E+00
  0.00000000E+00  0.00000000E+00  0.00000000E+00
  0.00000000E+00  0.00000000E+00  0.00000000E+00
  0.00000000E+00  0.00000000E+00  0.00000000E+00
  0.00000000E+00  0.00000000E+00  0.00000000E+00
  0.00000000E+00  0.00000000E+00  0.00000000E+00
  0.00000000E+00  0.00000000E+00  0.00000000E+00
  0.00000000E+00  0.00000000E+00  0.00000000E+00
  0.00000000E+00  0.00000000E+00  0.00000000E+00
  0.00000000E+00  0.00000000E+00  0.00000000E+00
  0.00000000E+00  0.00000000E+00  0.00000000E+00
  0.00000000E+00  0.00000000E+00  0.00000000E+00
  0.00000000E+00  0.00000000E+00  0.00000000E+00
  0.00000000E+00  0.00000000E+00  0.00000000E+00
  0.00000000E+00  0.00000000E+00  0.00000000E+00
  0.00000000E+00  0.00000000E+00  0.00000000E+00
  0.00000000E+00  0.00000000E+00  0.00000000E+00
  0.00000000E+00  0.00000000E+00  0.00000000E+00
  0.00000000E+00  0.00000000E+00  0.00000000E+00
  0.00000000E+00  0.00000000E+00  0.00000000E+00
  0.00000000E+00  0.00000000E+00  0.00000000E+00
  0.00000000E+00  0.00000000E+00  0.00000000E+00
  0.00000000E+00  0.00000000E+00  0.00000000E+00
  0.00000000E+00  0.00000000E+00  0.00000000E+00
  0.00000000E+00  0.00000000E+00  0.00000000E+00
  0.00000000E+00  0.00000000E+00  0.00000000E+00
  0.00000000E+00  0.00000000E+00  0.00000000E+00
  0.00000000E+00  0.00000000E+00  0.00000000E+00
  0.00000000E+00  0.00000000E+00  0.00000000E+00
  0.00000000E+00  0.00000000E+00  0.00000000E+00
  0.00000000E+00  0.00000000E+00  0.00000000E+00
  0.00000000E+00  0.00000000E+00  0.00000000E+00
  0.00000000E+00  0.00000000E+00  0.00000000E+00
  0.00000000E+00  0.00000000E+00  0.00000000E+00
  0.00000000E+00  0.00000000E+00  0.00000000E+00
  0.00000000E+00  0.00000000E+00  0.00000000E+00
  0.00000000E+00  0.00000000E+00  0.00000000E+00
  0.00000000E+00  0.00000000E+00  0.00000000E+00
  0.00000000E+00  0.00000000E+00  0.00000000E+00
  0.00000000E+00  0.00000000E+00  0.00000000E+00
  0.00000000E+00  0.00000000E+00  0.00000000E+00
  0.00000000E+00  0.00000000E+00  0.00000000E+00
  0.00000000E+00  0.00000000E+00  0.00000000E+00
  0.00000000E+00  0.00000000E+00  0.00000000E+00
  0.00000000E+00  0.00000000E+00  0.00000000E+00
  0.00000000E+00  0.00000000E+00  0.00000000E+00
  0.00000000E+00  0.00000000E+00  0.00000000E+00
  0.00000000E+00  0.00000000E+00  0.00000000E+00
  0.00000000E+00  0.00000000E+00  0.00000000E+00
  0.00000000E+00  0.00000000E+00  0.00000000E+00
  0.00000000E+00  0.00000000E+00  0.00000000E+00
  0.00000000E+00  0.00000000E+00  0.00000000E+00
  0.00000000E+00  0.00000000E+00  0.00000000E+00
  0.00000000E+00  0.00000000E+00  0.00000000E+00
  0.00000000E+00  0.00000000E+00  0.00000000E+00
  0.00000000E+00  0.00000000E+00  0.00000000E+00
  0.00000000E+00  0.00000000E+00  0.00000000E+00
  0.00000000E+00  0.00000000E+00  0.00000000E+00
  0.00000000E+00  0.00000000E+00  0.00000000E+00
  0.00000000E+00  0.00000000E+00  0.00000000E+00
  0.00000000E+00  0.00000000E+00  0.00000000E+00
  0.00000000E+00  0.00000000E+00  0.00000000E+00
  0.00000000E+00  0.00000000E+00  0.00000000E+00
  0.00000000E+00  0.00000000E+00  0.00000000E+00
  0.00000000E+00  0.00000000E+00  0.00000000E+00
  0.00000000E+00  0.00000000E+00  0.00000000E+00
  0.00000000E+00  0.00000000E+00  0.00000000E+00
  0.00000000E+00  0.00000000E+00  0.00000000E+00
  0.00000000E+00  0.00000000E+00  0.00000000E+00
  0.00000000E+00  0.00000000E+00  0.00000000E+00
  0.00000000E+00  0.00000000E+00  0.00000000E+00
  0.00000000E+00  0.00000000E+00  0.00000000E+00
  0.00000000E+00  0.00000000E+00  0.00000000E+00
  0.00000000E+00  0.00000000E+00  0.00000000E+00
  0.00000000E+00  0.00000000E+00  0.00000000E+00
  0.00000000E+00  0.00000000E+00  0.00000000E+00
  0.00000000E+00  0.00000000E+00  0.00000000E+00
  0.00000000E+00  0.00000000E+00  0.00000000E+00
  0.00000000E+00  0.00000000E+00  0.00000000E+00
  0.00000000E+00  0.00000000E+00  0.00000000E+00
  0.00000000E+00  0.00000000E+00  0.00000000E+00
  0.00000000E+00  0.00000000E+00  0.00000000E+00
  0.00000000E+00  0.00000000E+00  0.00000000E+00
  0.00000000E+00  0.00000000E+00  0.00000000E+00
  0.00000000E+00  0.00000000E+00  0.00000000E+00
  0.00000000E+00  0.00000000E+00  0.00000000E+00
  0.00000000E+00  0.00000000E+00  0.00000000E+00
  0.00000000E+00  0.00000000E+00  0.00000000E+00
  0.00000000E+00  0.00000000E+00  0.00000000E+00
  0.00000000E+00  0.00000000E+00  0.00000000E+00
  0.00000000E+00  0.00000000E+00  0.00000000E+00
  0.00000000E+00  0.00000000E+00  0.00000000E+00
  0.00000000E+00  0.00000000E+00  0.00000000E+00
  0.00000000E+00  0.00000000E+00  0.00000000E+00
  0.00000000E+00  0.00000000E+00  0.00000000E+00
  0.00000000E+00  0.00000000E+00  0.00000000E+00
  0.00000000E+00  0.00000000E+00  0.00000000E+00
  0.00000000E+00  0.00000000E+00  0.00000000E+00
  0.00000000E+00  0.00000000E+00  0.00000000E+00
  0.00000000E+00  0.00000000E+00  0.00000000E+00
  0.00000000E+00  0.00000000E+00  0.00000000E+00
  0.00000000E+00  0.00000000E+00  0.00000000E+00
  0.00000000E+00  0.00000000E+00  0.00000000E+00
  0.00000000E+00  0.00000000E+00  0.00000000E+00
  0.00000000E+00  0.00000000E+00  0.00000000E+00
  0.00000000E+00  0.00000000E+00  0.00000000E+00
  0.00000000E+00  0.00000000E+00  0.00000000E+00
  0.00000000E+00  0.00000000E+00  0.00000000E+00
  0.00000000E+00  0.00000000E+00  0.00000000E+00
  0.00000000E+00  0.00000000E+00  0.00000000E+00
  0.00000000E+00  0.00000000E+00  0.00000000E+00
  0.00000000E+00  0.00000000E+00  0.00000000E+00
  0.00000000E+00  0.00000000E+00  0.00000000E+00
  0.00000000E+00  0.00000000E+00  0.00000000E+00
  0.00000000E+00  0.00000000E+00  0.00000000E+00
  0.00000000E+00  0.00000000E+00  0.00000000E+00
  0.00000000E+00  0.00000000E+00  0.00000000E+00
  0.00000000E+00  0.00000000E+00  0.00000000E+00
  0.00000000E+00  0.00000000E+00  0.00000000E+00
  0.00000000E+00  0.00000000E+00  0.00000000E+00
  0.00000000E+00  0.00000000E+00  0.00000000E+00
  0.00000000E+00  0.00000000E+00  0.00000000E+00
  0.00000000E+00  0.00000000E+00  0.00000000E+00
  0.00000000E+00  0.00000000E+00  0.00000000E+00
  0.00000000E+00  0.00000000E+00  0.00000000E+00
  0.00000000E+00  0.00000000E+00  0.00000000E+00
  0.00000000E+00  0.00000000E+00  0.00000000E+00
  0.00000000E+00  0.00000000E+00  0.00000000E+00
  0.00000000E+00  0.00000000E+00  0.00000000E+00
  0.00000000E+00  0.00000000E+00  0.00000000E+00
  0.00000000E+00  0.00000000E+00  0.00000000E+00
  0.00000000E+00  0.00000000E+00  0.00000000E+00
  0.00000000E+00  0.00000000E+00  0.00000000E+00
  0.00000000E+00  0.00000000E+00  0.00000000E+00
  0.00000000E+00  0.00000000E+00  0.00000000E+00
  0.00000000E+00  0.00000000E+00  0.00000000E+00
  0.00000000E+00  0.00000000E+00  0.00000000E+00
  0.00000000E+00  0.00000000E+00  0.00000000E+00
  0.00000000E+00  0.00000000E+00  0.00000000E+00
  0.00000000E+00  0.00000000E+00  0.00000000E+00
  0.00000000E+00  0.00000000E+00  0.00000000E+00
  0.00000000E+00  0.00000000E+00  0.00000000E+00
  0.00000000E+00  0.00000000E+00  0.00000000E+00
  0.00000000E+00  0.00000000E+00  0.00000000E+00
  0.00000000E+00  0.00000000E+00  0.00000000E+00
  0.00000000E+00  0.00000000E+00  0.00000000E+00
  0.00000000E+00  0.00000000E+00  0.00000000E+00
  0.00000000E+00  0.00000000E+00  0.00000000E+00
  0.00000000E+00  0.00000000E+00  0.00000000E+00
  0.00000000E+00  0.00000000E+00  0.00000000E+00
  0.00000000E+00  0.00000000E+00  0.00000000E+00
  0.00000000E+00  0.00000000E+00  0.00000000E+00
  0.00000000E+00  0.00000000E+00  0.00000000E+00
  0.00000000E+00  0.00000000E+00  0.00000000E+00
  0.00000000E+00  0.00000000E+00  0.00000000E+00
  0.00000000E+00  0.00000000E+00  0.00000000E+00
