Sr   Ti   Fe   O                        
   1.00000000000000     
    11.1989999999999998    0.0000000000000000    0.0000000000000000
     0.0000000000000000   11.1989999999999998    0.0000000000000000
     0.0000000000000000    0.0000000000000000   15.9830000000000005
   Sr   Ti   Fe   O 
    32    31     1    94
Direct
  0.0003821941031449  0.2499221143728615  0.1251005302094154
  0.0045657997242532  0.2516165451621794  0.6253633343545556
  0.9978142797228511  0.7504122082560948  0.1253816053705079
  0.9958521786837644  0.7485491491394937  0.6239991307220126
  0.5006085892349527  0.2501403990351659  0.1232638941784190
  0.4972543965407132  0.2439899531342426  0.6303271171895117
  0.5001935547918590  0.7487631348137014  0.1244283756376162
  0.4991587103126997  0.7545543792344858  0.6284735873277062
  0.0045657997242532  0.2516165451621794  0.3746366656454445
  0.0003821941031449  0.2499221143728615  0.8748994697905846
  0.9958521786837644  0.7485491491394937  0.3760008692779877
  0.9978142797228511  0.7504122082560948  0.8746183946294847
  0.4972543965407132  0.2439899531342426  0.3696728828104883
  0.5006085892349527  0.2501403990351659  0.8767361058215808
  0.4991587103126997  0.7545543792344858  0.3715264126722940
  0.5001935547918590  0.7487631348137014  0.8755716243623840
  0.2495594749977349  0.9998433125634344  0.1247446033713850
  0.2489832167167747  0.9980648886224023  0.6262663512290066
  0.2512345126755779  0.4995770022358362  0.1239036192949885
  0.2438128966886153  0.5024873393993673  0.6290582383911246
  0.7499022021881155  0.9989400955499060  0.1255602912939204
  0.7485277557499536  0.9908313419459808  0.6242383181009056
  0.7481426093908606  0.5006270061725812  0.1238362058312964
  0.7606462067523105  0.4983766989117748  0.6306977170936944
  0.2489832167167747  0.9980648886224023  0.3737336487709933
  0.2495594749977349  0.9998433125634344  0.8752553966286006
  0.2438128966886153  0.5024873393993673  0.3709417616088753
  0.2512345126755779  0.4995770022358362  0.8760963807050117
  0.7485277557499536  0.9908313419459808  0.3757616818990944
  0.7499022021881155  0.9989400955499060  0.8744397087060799
  0.7606462067523105  0.4983766989117748  0.3693022829063055
  0.7481426093908606  0.5006270061725812  0.8761637941687037
  0.9992738322314095  0.0004470857975790  0.0000000000000000
  0.9983801576994559  0.9924145125281202  0.5000000000000000
  0.0002215484480724  0.4998645009708936  0.0000000000000000
  0.0019474669669710  0.5022743232805424  0.5000000000000000
  0.4997710655160786  0.9997584091974051  0.0000000000000000
  0.5011582436943077  0.9975060274252173  0.5000000000000000
  0.4996083175634263  0.5000727141234591  0.0000000000000000
  0.2493690424928154  0.2490381064751564  0.0000000000000000
  0.2504239909061790  0.2431635552539451  0.5000000000000000
  0.2491092208695711  0.7501890150603838  0.0000000000000000
  0.2498377424178047  0.7513219227888561  0.5000000000000000
  0.7508677697100680  0.2496929731867332  0.0000000000000000
  0.7496452207717055  0.7502110881976358  0.0000000000000000
  0.2508024676073667  0.2499769955596704  0.2489336448202600
  0.2508024676073667  0.2499769955596704  0.7510663551797470
  0.2488185855597358  0.7502178612664343  0.2493236260254741
  0.2488185855597358  0.7502178612664343  0.7506763739745259
  0.7488558658256452  0.2500060347548805  0.2500824187082137
  0.7488558658256452  0.2500060347548805  0.7499175812917784
  0.7487045793254935  0.7481858214666163  0.2510330822516022
  0.7487045793254935  0.7481858214666163  0.7489669177483980
  0.9990306699719135  0.0001183514187281  0.2509289647165312
  0.9990306699719135  0.0001183514187281  0.7490710352834687
  0.0005660247688103  0.4998033287809530  0.2482052405173759
  0.0005660247688103  0.4998033287809530  0.7517947594826240
  0.4998211779758686  0.9992784511943648  0.2489710816782501
  0.4998211779758686  0.9992784511943648  0.7510289183217495
  0.4984534866783993  0.4989425158202024  0.2502596992938617
  0.4984534866783993  0.4989425158202024  0.7497403007061375
  0.7615719146874210  0.2425845221472885  0.5000000000000000
  0.4976740895646700  0.5058477401076145  0.5000000000000000
  0.7492895815798477  0.7436453883679198  0.5000000000000000
  0.1100431885484747  0.1413991165612549  0.2525047546530597
  0.1100431885484747  0.1413991165612549  0.7474952453469402
  0.1095324611498482  0.6403880146709703  0.2504614596704440
  0.1095324611498482  0.6403880146709703  0.7495385403295479
  0.6098872144721419  0.1399477922135325  0.2488316184619811
  0.6098872144721419  0.1399477922135325  0.7511683815380189
  0.6068421001269878  0.6378099432496005  0.2487898128473122
  0.6068421001269878  0.6378099432496005  0.7512101871526806
  0.3898895895634333  0.3579641313493879  0.2442202485534651
  0.3898895895634333  0.3579641313493879  0.7557797514465353
  0.3893831994098733  0.8599223466070016  0.2487440432743943
  0.3893831994098733  0.8599223466070016  0.7512559567255985
  0.8898405378021799  0.3596259122591683  0.2519197137876658
  0.8898405378021799  0.3596259122591683  0.7480802862123349
  0.8889301323545764  0.8613984662094752  0.2509128840495102
  0.8889301323545764  0.8613984662094752  0.7490871159504898
  0.3594512523234459  0.1093772177230590  0.2511970297649292
  0.3594512523234459  0.1093772177230590  0.7488029702350709
  0.3581845679308490  0.6096146809130704  0.2491667021028588
  0.3581845679308490  0.6096146809130704  0.7508332978971413
  0.8582857893368457  0.1112442175049814  0.2554437790098044
  0.8582857893368457  0.1112442175049814  0.7445562209901956
  0.8616894664679371  0.6095938377411185  0.2456253589291665
  0.8616894664679371  0.6095938377411185  0.7543746410708334
  0.1407070242188319  0.3899371234818373  0.2486246559993248
  0.1407070242188319  0.3899371234818373  0.7513753440006752
  0.1394190143704206  0.8907860292247101  0.2485797544583981
  0.1394190143704206  0.8907860292247101  0.7514202455416169
  0.6391697162749812  0.3902628358968958  0.2484898849210206
  0.6391697162749812  0.3902628358968958  0.7515101150789792
  0.6382628115848047  0.8895439681466634  0.2487964543505294
  0.6382628115848047  0.8895439681466634  0.7512035456494707
  0.3590856906330099  0.3891923466060145  0.0000000000000000
  0.3586072183217953  0.8906991261373082  0.0000000000000000
  0.3559658557742066  0.8936951620037760  0.5000000000000000
  0.8591234934559430  0.3908040949553760  0.0000000000000000
  0.8591365041475804  0.8916298847288053  0.0000000000000000
  0.8622956746290866  0.8951961545691848  0.5000000000000000
  0.1403073316742139  0.1080159371213455  0.0000000000000000
  0.1410560461695231  0.1125311761333372  0.5000000000000000
  0.1404718956219352  0.6089533100912210  0.0000000000000000
  0.1426671189553917  0.6124681949880575  0.5000000000000000
  0.6409671442187178  0.1097559968539886  0.0000000000000000
  0.6393247031414236  0.1148127138564248  0.5000000000000000
  0.6398135142227021  0.6095418852901394  0.0000000000000000
  0.1093936574501619  0.3584422476660269  0.0000000000000000
  0.1302699621350686  0.3703757125768820  0.5000000000000000
  0.1078488237516631  0.8597324757295477  0.0000000000000000
  0.1093301373942325  0.8585262331982939  0.5000000000000000
  0.6103960819812664  0.3594102730464264  0.0000000000000000
  0.6084051528218795  0.8599982438242473  0.0000000000000000
  0.6024246453984987  0.8562268231325166  0.5000000000000000
  0.3905113885818695  0.1405153914094831  0.0000000000000000
  0.3928516511440779  0.1424915411443080  0.5000000000000000
  0.3894648591699805  0.6405376436012011  0.0000000000000000
  0.8910508537206461  0.1417173679747057  0.0000000000000000
  0.8924080472071083  0.1394793425312787  0.5000000000000000
  0.8910031363395970  0.6402512631349696  0.0000000000000000
  0.9974931023848933  0.0032218518236153  0.1258494873266332
  0.0034994863084226  0.0001096862377005  0.6247262834503858
  0.0014288642814086  0.4979272782446348  0.1244462469707910
  0.0030135459949931  0.4989448285085157  0.6263191369198196
  0.4989469374796461  0.0010942213409165  0.1246557525118525
  0.5003078129030366  0.9994847940154172  0.6258279158304436
  0.4989403732766589  0.5000824539831836  0.1240727562610943
  0.4867141598286926  0.4897268221838325  0.6241137995037253
  0.0034994863084226  0.0001096862377005  0.3752737165496140
  0.9974931023848933  0.0032218518236153  0.8741505126733667
  0.0030135459949931  0.4989448285085157  0.3736808630801806
  0.0014288642814086  0.4979272782446348  0.8755537530292102
  0.5003078129030366  0.9994847940154172  0.3741720841695559
  0.4989469374796461  0.0010942213409165  0.8753442474881475
  0.4989403732766589  0.5000824539831836  0.8759272437389041
  0.2578608701189963  0.2573251840018477  0.3755867143443261
  0.2478818537566115  0.2466194073496840  0.8753876422663203
  0.2505737060342919  0.7519830339948010  0.3744931506290251
  0.2485093799229129  0.7501377424037968  0.8753641262054134
  0.7519194222523942  0.2493492500018905  0.8743065313260445
  0.7491543943247548  0.7504402394667015  0.8761904059615581
  0.2478818537566115  0.2466194073496840  0.1246123577336799
  0.2578608701189963  0.2573251840018477  0.6244132856556738
  0.2485093799229129  0.7501377424037968  0.1246358737945866
  0.2505737060342919  0.7519830339948010  0.6255068493709749
  0.7519194222523942  0.2493492500018905  0.1256934686739556
  0.7393219331584213  0.2604026368382071  0.6215531342161890
  0.7491543943247548  0.7504402394667015  0.1238095940384347
  0.7457246014751380  0.7427608289704013  0.6303035148184398
  0.7393219331584213  0.2604026368382071  0.3784468657838181
  0.8730732058812054  0.3800842325569225  0.5000000000000000
  0.3909611554566135  0.6416934244965662  0.5000000000000000
  0.4867141598286926  0.4897268221838325  0.3758862004962748
  0.8956520899822021  0.6344897156192981  0.5000000000000000
  0.7457246014751380  0.7427608289704013  0.3696964851815603
  0.6586100516094038  0.5294781418757727  0.5000000000000000
 
  0.00000000E+00  0.00000000E+00  0.00000000E+00
  0.00000000E+00  0.00000000E+00  0.00000000E+00
  0.00000000E+00  0.00000000E+00  0.00000000E+00
  0.00000000E+00  0.00000000E+00  0.00000000E+00
  0.00000000E+00  0.00000000E+00  0.00000000E+00
  0.00000000E+00  0.00000000E+00  0.00000000E+00
  0.00000000E+00  0.00000000E+00  0.00000000E+00
  0.00000000E+00  0.00000000E+00  0.00000000E+00
  0.00000000E+00  0.00000000E+00  0.00000000E+00
  0.00000000E+00  0.00000000E+00  0.00000000E+00
  0.00000000E+00  0.00000000E+00  0.00000000E+00
  0.00000000E+00  0.00000000E+00  0.00000000E+00
  0.00000000E+00  0.00000000E+00  0.00000000E+00
  0.00000000E+00  0.00000000E+00  0.00000000E+00
  0.00000000E+00  0.00000000E+00  0.00000000E+00
  0.00000000E+00  0.00000000E+00  0.00000000E+00
  0.00000000E+00  0.00000000E+00  0.00000000E+00
  0.00000000E+00  0.00000000E+00  0.00000000E+00
  0.00000000E+00  0.00000000E+00  0.00000000E+00
  0.00000000E+00  0.00000000E+00  0.00000000E+00
  0.00000000E+00  0.00000000E+00  0.00000000E+00
  0.00000000E+00  0.00000000E+00  0.00000000E+00
  0.00000000E+00  0.00000000E+00  0.00000000E+00
  0.00000000E+00  0.00000000E+00  0.00000000E+00
  0.00000000E+00  0.00000000E+00  0.00000000E+00
  0.00000000E+00  0.00000000E+00  0.00000000E+00
  0.00000000E+00  0.00000000E+00  0.00000000E+00
  0.00000000E+00  0.00000000E+00  0.00000000E+00
  0.00000000E+00  0.00000000E+00  0.00000000E+00
  0.00000000E+00  0.00000000E+00  0.00000000E+00
  0.00000000E+00  0.00000000E+00  0.00000000E+00
  0.00000000E+00  0.00000000E+00  0.00000000E+00
  0.00000000E+00  0.00000000E+00  0.00000000E+00
  0.00000000E+00  0.00000000E+00  0.00000000E+00
  0.00000000E+00  0.00000000E+00  0.00000000E+00
  0.00000000E+00  0.00000000E+00  0.00000000E+00
  0.00000000E+00  0.00000000E+00  0.00000000E+00
  0.00000000E+00  0.00000000E+00  0.00000000E+00
  0.00000000E+00  0.00000000E+00  0.00000000E+00
  0.00000000E+00  0.00000000E+00  0.00000000E+00
  0.00000000E+00  0.00000000E+00  0.00000000E+00
  0.00000000E+00  0.00000000E+00  0.00000000E+00
  0.00000000E+00  0.00000000E+00  0.00000000E+00
  0.00000000E+00  0.00000000E+00  0.00000000E+00
  0.00000000E+00  0.00000000E+00  0.00000000E+00
  0.00000000E+00  0.00000000E+00  0.00000000E+00
  0.00000000E+00  0.00000000E+00  0.00000000E+00
  0.00000000E+00  0.00000000E+00  0.00000000E+00
  0.00000000E+00  0.00000000E+00  0.00000000E+00
  0.00000000E+00  0.00000000E+00  0.00000000E+00
  0.00000000E+00  0.00000000E+00  0.00000000E+00
  0.00000000E+00  0.00000000E+00  0.00000000E+00
  0.00000000E+00  0.00000000E+00  0.00000000E+00
  0.00000000E+00  0.00000000E+00  0.00000000E+00
  0.00000000E+00  0.00000000E+00  0.00000000E+00
  0.00000000E+00  0.00000000E+00  0.00000000E+00
  0.00000000E+00  0.00000000E+00  0.00000000E+00
  0.00000000E+00  0.00000000E+00  0.00000000E+00
  0.00000000E+00  0.00000000E+00  0.00000000E+00
  0.00000000E+00  0.00000000E+00  0.00000000E+00
  0.00000000E+00  0.00000000E+00  0.00000000E+00
  0.00000000E+00  0.00000000E+00  0.00000000E+00
  0.00000000E+00  0.00000000E+00  0.00000000E+00
  0.00000000E+00  0.00000000E+00  0.00000000E+00
  0.00000000E+00  0.00000000E+00  0.00000000E+00
  0.00000000E+00  0.00000000E+00  0.00000000E+00
  0.00000000E+00  0.00000000E+00  0.00000000E+00
  0.00000000E+00  0.00000000E+00  0.00000000E+00
  0.00000000E+00  0.00000000E+00  0.00000000E+00
  0.00000000E+00  0.00000000E+00  0.00000000E+00
  0.00000000E+00  0.00000000E+00  0.00000000E+00
  0.00000000E+00  0.00000000E+00  0.00000000E+00
  0.00000000E+00  0.00000000E+00  0.00000000E+00
  0.00000000E+00  0.00000000E+00  0.00000000E+00
  0.00000000E+00  0.00000000E+00  0.00000000E+00
  0.00000000E+00  0.00000000E+00  0.00000000E+00
  0.00000000E+00  0.00000000E+00  0.00000000E+00
  0.00000000E+00  0.00000000E+00  0.00000000E+00
  0.00000000E+00  0.00000000E+00  0.00000000E+00
  0.00000000E+00  0.00000000E+00  0.00000000E+00
  0.00000000E+00  0.00000000E+00  0.00000000E+00
  0.00000000E+00  0.00000000E+00  0.00000000E+00
  0.00000000E+00  0.00000000E+00  0.00000000E+00
  0.00000000E+00  0.00000000E+00  0.00000000E+00
  0.00000000E+00  0.00000000E+00  0.00000000E+00
  0.00000000E+00  0.00000000E+00  0.00000000E+00
  0.00000000E+00  0.00000000E+00  0.00000000E+00
  0.00000000E+00  0.00000000E+00  0.00000000E+00
  0.00000000E+00  0.00000000E+00  0.00000000E+00
  0.00000000E+00  0.00000000E+00  0.00000000E+00
  0.00000000E+00  0.00000000E+00  0.00000000E+00
  0.00000000E+00  0.00000000E+00  0.00000000E+00
  0.00000000E+00  0.00000000E+00  0.00000000E+00
  0.00000000E+00  0.00000000E+00  0.00000000E+00
  0.00000000E+00  0.00000000E+00  0.00000000E+00
  0.00000000E+00  0.00000000E+00  0.00000000E+00
  0.00000000E+00  0.00000000E+00  0.00000000E+00
  0.00000000E+00  0.00000000E+00  0.00000000E+00
  0.00000000E+00  0.00000000E+00  0.00000000E+00
  0.00000000E+00  0.00000000E+00  0.00000000E+00
  0.00000000E+00  0.00000000E+00  0.00000000E+00
  0.00000000E+00  0.00000000E+00  0.00000000E+00
  0.00000000E+00  0.00000000E+00  0.00000000E+00
  0.00000000E+00  0.00000000E+00  0.00000000E+00
  0.00000000E+00  0.00000000E+00  0.00000000E+00
  0.00000000E+00  0.00000000E+00  0.00000000E+00
  0.00000000E+00  0.00000000E+00  0.00000000E+00
  0.00000000E+00  0.00000000E+00  0.00000000E+00
  0.00000000E+00  0.00000000E+00  0.00000000E+00
  0.00000000E+00  0.00000000E+00  0.00000000E+00
  0.00000000E+00  0.00000000E+00  0.00000000E+00
  0.00000000E+00  0.00000000E+00  0.00000000E+00
  0.00000000E+00  0.00000000E+00  0.00000000E+00
  0.00000000E+00  0.00000000E+00  0.00000000E+00
  0.00000000E+00  0.00000000E+00  0.00000000E+00
  0.00000000E+00  0.00000000E+00  0.00000000E+00
  0.00000000E+00  0.00000000E+00  0.00000000E+00
  0.00000000E+00  0.00000000E+00  0.00000000E+00
  0.00000000E+00  0.00000000E+00  0.00000000E+00
  0.00000000E+00  0.00000000E+00  0.00000000E+00
  0.00000000E+00  0.00000000E+00  0.00000000E+00
  0.00000000E+00  0.00000000E+00  0.00000000E+00
  0.00000000E+00  0.00000000E+00  0.00000000E+00
  0.00000000E+00  0.00000000E+00  0.00000000E+00
  0.00000000E+00  0.00000000E+00  0.00000000E+00
  0.00000000E+00  0.00000000E+00  0.00000000E+00
  0.00000000E+00  0.00000000E+00  0.00000000E+00
  0.00000000E+00  0.00000000E+00  0.00000000E+00
  0.00000000E+00  0.00000000E+00  0.00000000E+00
  0.00000000E+00  0.00000000E+00  0.00000000E+00
  0.00000000E+00  0.00000000E+00  0.00000000E+00
  0.00000000E+00  0.00000000E+00  0.00000000E+00
  0.00000000E+00  0.00000000E+00  0.00000000E+00
  0.00000000E+00  0.00000000E+00  0.00000000E+00
  0.00000000E+00  0.00000000E+00  0.00000000E+00
  0.00000000E+00  0.00000000E+00  0.00000000E+00
  0.00000000E+00  0.00000000E+00  0.00000000E+00
  0.00000000E+00  0.00000000E+00  0.00000000E+00
  0.00000000E+00  0.00000000E+00  0.00000000E+00
  0.00000000E+00  0.00000000E+00  0.00000000E+00
  0.00000000E+00  0.00000000E+00  0.00000000E+00
  0.00000000E+00  0.00000000E+00  0.00000000E+00
  0.00000000E+00  0.00000000E+00  0.00000000E+00
  0.00000000E+00  0.00000000E+00  0.00000000E+00
  0.00000000E+00  0.00000000E+00  0.00000000E+00
  0.00000000E+00  0.00000000E+00  0.00000000E+00
  0.00000000E+00  0.00000000E+00  0.00000000E+00
  0.00000000E+00  0.00000000E+00  0.00000000E+00
  0.00000000E+00  0.00000000E+00  0.00000000E+00
  0.00000000E+00  0.00000000E+00  0.00000000E+00
  0.00000000E+00  0.00000000E+00  0.00000000E+00
  0.00000000E+00  0.00000000E+00  0.00000000E+00
  0.00000000E+00  0.00000000E+00  0.00000000E+00
  0.00000000E+00  0.00000000E+00  0.00000000E+00
  0.00000000E+00  0.00000000E+00  0.00000000E+00
  0.00000000E+00  0.00000000E+00  0.00000000E+00
  0.00000000E+00  0.00000000E+00  0.00000000E+00
  0.00000000E+00  0.00000000E+00  0.00000000E+00
