SrTiFeO                                 
   1.00000000000000     
    11.1989999999999998    0.0000000000000000    0.0000000000000000
     0.0000000000000000   11.1989999999999998    0.0000000000000000
     0.0000000000000000    0.0000000000000000   15.9830000000000005
   Sr   Ti   Fe   O 
    32    31     1    94
Direct
  0.0009785637095224  0.2497825005838840  0.1251473528858925
 -0.0007183655503556  0.2510026292243494  0.6246270736867914
  0.9982257490783760  0.7503727403162476  0.1256781634620708
  0.9953914866551676  0.7482627089022325  0.6222134701777173
  0.5004038323894748  0.2502089300793506  0.1242354899618173
  0.5035719365726188  0.2474053551713470  0.6275853079235837
  0.5000268612438653  0.7504661034367625  0.1241541770787157
  0.4983615590443836  0.7523071224949215  0.6275242669677474
 -0.0007183655503556  0.2510026292243494  0.3753729263132087
  0.0009785637095224  0.2497825005838840  0.8748526471141073
  0.9953914866551676  0.7482627089022325  0.3777865298222830
  0.9982257490783760  0.7503727403162476  0.8743218365379288
  0.5035719365726188  0.2474053551713470  0.3724146920764163
  0.5004038323894748  0.2502089300793506  0.8757645100381827
  0.4983615590443836  0.7523071224949215  0.3724757330322521
  0.5000268612438653  0.7504661034367625  0.8758458229212848
  0.2502510551710724  0.0002802408202193  0.1248464753774706
  0.2489166062439511  0.9972419347141505  0.6271540182542301
  0.2507921438253444  0.4999330930958760  0.1242151624726045
  0.2442074423919038  0.5036720995581969  0.6278618626287823
  0.7495870939207260  0.9988242725714407  0.1251631201513340
  0.7493229956421824  0.9972543254181426  0.6242608039107740
  0.7490483255539341  0.5009293436964378  0.1245075964785724
  0.7556845568145095  0.4965022896659415  0.6273141370523304
  0.2489166062439511  0.9972419347141505  0.3728459817457694
  0.2502510551710724  0.0002802408202193  0.8751535246225284
  0.2442074423919038  0.5036720995581969  0.3721381373712252
  0.2507921438253444  0.4999330930958760  0.8757848375273957
  0.7493229956421824  0.9972543254181426  0.3757391960892262
  0.7495870939207260  0.9988242725714407  0.8748368798486662
  0.7556845568145095  0.4965022896659415  0.3726858629476700
  0.7490483255539341  0.5009293436964378  0.8754924035214273
 -0.0003417903301697  0.0000436017848441 -0.0000000000000000
  0.9951531290193556  0.9965135601421038  0.5000000000000000
  0.0000347699240252  0.5002767795232937 -0.0000000000000000
  0.9994418980906581  0.5012537508743428  0.5000000000000000
  0.4999911592628223  0.0002888633301785 -0.0000000000000000
  0.5000050863257187  0.9979903583870829  0.5000000000000000
  0.4997397427638683  0.4999725607794664 -0.0000000000000000
  0.2498311091827136  0.2498199859225873 -0.0000000000000000
  0.2469564778676848  0.2410108886143579  0.5000000000000000
  0.2491702604959752  0.7500331574538939 -0.0000000000000000
  0.2491506145726112  0.7517460710508967  0.5000000000000000
  0.7507120554255730  0.2501820483167492 -0.0000000000000000
  0.7500747980746837  0.7503223923214263 -0.0000000000000000
  0.2511616574367608  0.2508345505512891  0.2500893290620790
  0.2511616574367608  0.2508345505512891  0.7499106709379215
  0.2488802152712765  0.7500427787395505  0.2495598266127646
  0.2488802152712765  0.7500427787395505  0.7504401733872359
  0.7504705321946389  0.2491336228357916  0.2495086504028129
  0.7504705321946389  0.2491336228357916  0.7504913495971869
  0.7485381680200436  0.7484645797093246  0.2521806278822177
  0.7485381680200436  0.7484645797093246  0.7478193721177824
  0.9996683173733477  0.9997741438618744  0.2507423687038395
  0.9996683173733477  0.9997741438618744  0.7492576312961601
  1.0001137694838329  0.4997253891638444  0.2492674715633802
  1.0001137694838329  0.4997253891638444  0.7507325284366194
  0.4997805216050432  1.0000405008158524  0.2497571914876254
  0.4997805216050432  1.0000405008158524  0.7502428085123759
  0.4999933996044280  0.5000491553493872  0.2497516858675615
  0.4999933996044280  0.5000491553493872  0.7502483141324375
  0.7510586473789069  0.2481613002071174  0.5000000000000000
  0.4994411119940055  0.5001232656155929  0.5000000000000000
  0.7472176050541917  0.7505085812690879  0.5000000000000000
  0.1107298701510139  0.1418129506603896  0.2528499985432482
  0.1107298701510139  0.1418129506603896  0.7471500014567521
  0.1086600253442076  0.6409979222314873  0.2514657517407564
  0.1086600253442076  0.6409979222314873  0.7485342482592428
  0.6099371251241338  0.1402997701504633  0.2486164418205188
  0.6099371251241338  0.1402997701504633  0.7513835581794805
  0.6072711534013577  0.6396622205983457  0.2461705250248743
  0.6072711534013577  0.6396622205983457  0.7538294749751259
  0.3921323122658890  0.3596943326509240  0.2485707750403948
  0.3921323122658890  0.3596943326509240  0.7514292249596053
  0.3894745348115077  0.8600754934850400  0.2491864669572025
  0.3894745348115077  0.8600754934850400  0.7508135330427980
  0.8912240022848025  0.3587462227608720  0.2508063923571929
  0.8912240022848025  0.3587462227608720  0.7491936076428073
  0.8897309287084579  0.8591389989248425  0.2536808299042334
  0.8897309287084579  0.8591389989248425  0.7463191700957675
  0.3593533452602882  0.1102798395299838  0.2500457248351654
  0.3593533452602882  0.1102798395299838  0.7499542751648348
  0.3584475641725904  0.6091771788797277  0.2502095475474371
  0.3584475641725904  0.6091771788797277  0.7497904524525627
  0.8594217249219336  0.1087924910039750  0.2502478634957670
  0.8594217249219336  0.1087924910039750  0.7497521365042326
  0.8592957724142658  0.6078171928662046  0.2487806139710404
  0.8592957724142658  0.6078171928662046  0.7512193860289667
  0.1417687535719025  0.3912310040045495  0.2487362619618643
  0.1417687535719025  0.3912310040045495  0.7512637380381348
  0.1403591463640022  0.8908789109181835  0.2487796083586664
  0.1403591463640022  0.8908789109181835  0.7512203916413336
  0.6414702864803915  0.3906435469345321  0.2504644527716759
  0.6414702864803915  0.3906435469345321  0.7495355472283243
  0.6393971555583017  0.8903780797732511  0.2504594133359254
  0.6393971555583017  0.8903780797732511  0.7495405866640742
  0.3590133460595106  0.3900868329406988 -0.0000000000000000
  0.3589584801939666  0.8903968559838654 -0.0000000000000000
  0.3533210853308340  0.8965568675848855  0.5000000000000000
  0.8593961635281486  0.3911813288612371 -0.0000000000000000
  0.8595843938732132  0.8916722381620693 -0.0000000000000000
  0.8618986464443605  0.8954008041368290  0.5000000000000000
  0.1407597426168677  0.1088211833398249 -0.0000000000000000
  0.1444712842062830  0.1098172772582705  0.5000000000000000
  0.1407986603758704  0.6088815392074199 -0.0000000000000000
  0.1397223611145941  0.6130142880904136  0.5000000000000000
  0.6409515855637473  0.1096169425039970 -0.0000000000000000
  0.6422682686983533  0.1098558970284830  0.5000000000000000
  0.6401871132380927  0.6098323038830680 -0.0000000000000000
  0.1093324031100278  0.3588707388344390 -0.0000000000000000
  0.1252780268305779  0.3669958696966729  0.5000000000000000
  0.1086423240597085  0.8590764854682559 -0.0000000000000000
  0.1086339585855419  0.8591905521499920  0.5000000000000000
  0.6098536980951297  0.3594644558035415 -0.0000000000000000
  0.6091469744847888  0.8599292747115731 -0.0000000000000000
  0.5975081720299013  0.8602249343095048  0.5000000000000000
  0.3906972595671765  0.1407414694253610 -0.0000000000000000
  0.3963768800001461  0.1524042392809312  0.5000000000000000
  0.3902102545412269  0.6404347566729346 -0.0000000000000000
  0.8914086097050129  0.1412855478920870 -0.0000000000000000
  0.8932909960250731  0.1419945268891835  0.5000000000000000
  0.8910487646693169  0.6407480005711913 -0.0000000000000000
  0.9996421773970739  0.0005288591848980  0.1256342250743393
  0.0025311721973932  0.0017813516900910  0.6249429237483128
  0.0008001220027808  0.4997484208781994  0.1248467516032126
  0.0019605448688465  0.4975815797259165  0.6258495691022816
  0.4993334004318817  0.0002930781832286  0.1247525031302088
  0.4979481396660796  0.0026622133895638  0.6257486574468518
  0.4992546209151466  0.4988086511419548  0.1244744414659212
  0.5007740883418001  0.5010184797826729  0.6235739115102945
  0.0025311721973932  0.0017813516900910  0.3750570762516870
  0.9996421773970739  0.0005288591848980  0.8743657749256609
  0.0019605448688465  0.4975815797259165  0.3741504308977185
  0.0008001220027808  0.4997484208781994  0.8751532483967875
  0.4979481396660796  0.0026622133895638  0.3742513425531547
  0.4993334004318817  0.0002930781832286  0.8752474968697905
  0.4992546209151466  0.4988086511419548  0.8755255585340790
  0.2585864944721614  0.2596092666059950  0.3765657996345668
  0.2497596948822884  0.2490528519627120  0.8749002667913787
  0.2503702574136197  0.7515752182171921  0.3747971227646030
  0.2490609484433084  0.7490720030351914  0.8750829878857834
  0.7511835946088579  0.2503647277386189  0.8750381409170804
  0.7512073097188191  0.7514351245968477  0.8753091507378694
  0.2497596948822884  0.2490528519627120  0.1250997332086208
  0.2585864944721614  0.2596092666059950  0.6234342003654330
  0.2490609484433084  0.7490720030351914  0.1249170121142165
  0.2503702574136197  0.7515752182171921  0.6252028772353972
  0.7511835946088579  0.2503647277386189  0.1249618590829194
  0.7502649718988184  0.2489694015172223  0.6252119419336823
  0.7512073097188191  0.7514351245968477  0.1246908492621310
  0.7409055301403064  0.7389536527812518  0.6267236113263482
  0.7502649718988184  0.2489694015172223  0.3747880580663172
  0.8662935192167551  0.3837171493138518  0.5000000000000000
  0.3912600984925731  0.6396237259107536  0.5000000000000000
  0.5007740883418001  0.5010184797826729  0.3764260884897054
  0.8885046462136515  0.6289275968512316  0.5000000000000000
  0.7409055301403064  0.7389536527812518  0.3732763886736523
  0.6137152241663714  0.3658062584829291  0.5000000000000000
 
  0.00000000E+00  0.00000000E+00  0.00000000E+00
  0.00000000E+00  0.00000000E+00  0.00000000E+00
  0.00000000E+00  0.00000000E+00  0.00000000E+00
  0.00000000E+00  0.00000000E+00  0.00000000E+00
  0.00000000E+00  0.00000000E+00  0.00000000E+00
  0.00000000E+00  0.00000000E+00  0.00000000E+00
  0.00000000E+00  0.00000000E+00  0.00000000E+00
  0.00000000E+00  0.00000000E+00  0.00000000E+00
  0.00000000E+00  0.00000000E+00  0.00000000E+00
  0.00000000E+00  0.00000000E+00  0.00000000E+00
  0.00000000E+00  0.00000000E+00  0.00000000E+00
  0.00000000E+00  0.00000000E+00  0.00000000E+00
  0.00000000E+00  0.00000000E+00  0.00000000E+00
  0.00000000E+00  0.00000000E+00  0.00000000E+00
  0.00000000E+00  0.00000000E+00  0.00000000E+00
  0.00000000E+00  0.00000000E+00  0.00000000E+00
  0.00000000E+00  0.00000000E+00  0.00000000E+00
  0.00000000E+00  0.00000000E+00  0.00000000E+00
  0.00000000E+00  0.00000000E+00  0.00000000E+00
  0.00000000E+00  0.00000000E+00  0.00000000E+00
  0.00000000E+00  0.00000000E+00  0.00000000E+00
  0.00000000E+00  0.00000000E+00  0.00000000E+00
  0.00000000E+00  0.00000000E+00  0.00000000E+00
  0.00000000E+00  0.00000000E+00  0.00000000E+00
  0.00000000E+00  0.00000000E+00  0.00000000E+00
  0.00000000E+00  0.00000000E+00  0.00000000E+00
  0.00000000E+00  0.00000000E+00  0.00000000E+00
  0.00000000E+00  0.00000000E+00  0.00000000E+00
  0.00000000E+00  0.00000000E+00  0.00000000E+00
  0.00000000E+00  0.00000000E+00  0.00000000E+00
  0.00000000E+00  0.00000000E+00  0.00000000E+00
  0.00000000E+00  0.00000000E+00  0.00000000E+00
  0.00000000E+00  0.00000000E+00  0.00000000E+00
  0.00000000E+00  0.00000000E+00  0.00000000E+00
  0.00000000E+00  0.00000000E+00  0.00000000E+00
  0.00000000E+00  0.00000000E+00  0.00000000E+00
  0.00000000E+00  0.00000000E+00  0.00000000E+00
  0.00000000E+00  0.00000000E+00  0.00000000E+00
  0.00000000E+00  0.00000000E+00  0.00000000E+00
  0.00000000E+00  0.00000000E+00  0.00000000E+00
  0.00000000E+00  0.00000000E+00  0.00000000E+00
  0.00000000E+00  0.00000000E+00  0.00000000E+00
  0.00000000E+00  0.00000000E+00  0.00000000E+00
  0.00000000E+00  0.00000000E+00  0.00000000E+00
  0.00000000E+00  0.00000000E+00  0.00000000E+00
  0.00000000E+00  0.00000000E+00  0.00000000E+00
  0.00000000E+00  0.00000000E+00  0.00000000E+00
  0.00000000E+00  0.00000000E+00  0.00000000E+00
  0.00000000E+00  0.00000000E+00  0.00000000E+00
  0.00000000E+00  0.00000000E+00  0.00000000E+00
  0.00000000E+00  0.00000000E+00  0.00000000E+00
  0.00000000E+00  0.00000000E+00  0.00000000E+00
  0.00000000E+00  0.00000000E+00  0.00000000E+00
  0.00000000E+00  0.00000000E+00  0.00000000E+00
  0.00000000E+00  0.00000000E+00  0.00000000E+00
  0.00000000E+00  0.00000000E+00  0.00000000E+00
  0.00000000E+00  0.00000000E+00  0.00000000E+00
  0.00000000E+00  0.00000000E+00  0.00000000E+00
  0.00000000E+00  0.00000000E+00  0.00000000E+00
  0.00000000E+00  0.00000000E+00  0.00000000E+00
  0.00000000E+00  0.00000000E+00  0.00000000E+00
  0.00000000E+00  0.00000000E+00  0.00000000E+00
  0.00000000E+00  0.00000000E+00  0.00000000E+00
  0.00000000E+00  0.00000000E+00  0.00000000E+00
  0.00000000E+00  0.00000000E+00  0.00000000E+00
  0.00000000E+00  0.00000000E+00  0.00000000E+00
  0.00000000E+00  0.00000000E+00  0.00000000E+00
  0.00000000E+00  0.00000000E+00  0.00000000E+00
  0.00000000E+00  0.00000000E+00  0.00000000E+00
  0.00000000E+00  0.00000000E+00  0.00000000E+00
  0.00000000E+00  0.00000000E+00  0.00000000E+00
  0.00000000E+00  0.00000000E+00  0.00000000E+00
  0.00000000E+00  0.00000000E+00  0.00000000E+00
  0.00000000E+00  0.00000000E+00  0.00000000E+00
  0.00000000E+00  0.00000000E+00  0.00000000E+00
  0.00000000E+00  0.00000000E+00  0.00000000E+00
  0.00000000E+00  0.00000000E+00  0.00000000E+00
  0.00000000E+00  0.00000000E+00  0.00000000E+00
  0.00000000E+00  0.00000000E+00  0.00000000E+00
  0.00000000E+00  0.00000000E+00  0.00000000E+00
  0.00000000E+00  0.00000000E+00  0.00000000E+00
  0.00000000E+00  0.00000000E+00  0.00000000E+00
  0.00000000E+00  0.00000000E+00  0.00000000E+00
  0.00000000E+00  0.00000000E+00  0.00000000E+00
  0.00000000E+00  0.00000000E+00  0.00000000E+00
  0.00000000E+00  0.00000000E+00  0.00000000E+00
  0.00000000E+00  0.00000000E+00  0.00000000E+00
  0.00000000E+00  0.00000000E+00  0.00000000E+00
  0.00000000E+00  0.00000000E+00  0.00000000E+00
  0.00000000E+00  0.00000000E+00  0.00000000E+00
  0.00000000E+00  0.00000000E+00  0.00000000E+00
  0.00000000E+00  0.00000000E+00  0.00000000E+00
  0.00000000E+00  0.00000000E+00  0.00000000E+00
  0.00000000E+00  0.00000000E+00  0.00000000E+00
  0.00000000E+00  0.00000000E+00  0.00000000E+00
  0.00000000E+00  0.00000000E+00  0.00000000E+00
  0.00000000E+00  0.00000000E+00  0.00000000E+00
  0.00000000E+00  0.00000000E+00  0.00000000E+00
  0.00000000E+00  0.00000000E+00  0.00000000E+00
  0.00000000E+00  0.00000000E+00  0.00000000E+00
  0.00000000E+00  0.00000000E+00  0.00000000E+00
  0.00000000E+00  0.00000000E+00  0.00000000E+00
  0.00000000E+00  0.00000000E+00  0.00000000E+00
  0.00000000E+00  0.00000000E+00  0.00000000E+00
  0.00000000E+00  0.00000000E+00  0.00000000E+00
  0.00000000E+00  0.00000000E+00  0.00000000E+00
  0.00000000E+00  0.00000000E+00  0.00000000E+00
  0.00000000E+00  0.00000000E+00  0.00000000E+00
  0.00000000E+00  0.00000000E+00  0.00000000E+00
  0.00000000E+00  0.00000000E+00  0.00000000E+00
  0.00000000E+00  0.00000000E+00  0.00000000E+00
  0.00000000E+00  0.00000000E+00  0.00000000E+00
  0.00000000E+00  0.00000000E+00  0.00000000E+00
  0.00000000E+00  0.00000000E+00  0.00000000E+00
  0.00000000E+00  0.00000000E+00  0.00000000E+00
  0.00000000E+00  0.00000000E+00  0.00000000E+00
  0.00000000E+00  0.00000000E+00  0.00000000E+00
  0.00000000E+00  0.00000000E+00  0.00000000E+00
  0.00000000E+00  0.00000000E+00  0.00000000E+00
  0.00000000E+00  0.00000000E+00  0.00000000E+00
  0.00000000E+00  0.00000000E+00  0.00000000E+00
  0.00000000E+00  0.00000000E+00  0.00000000E+00
  0.00000000E+00  0.00000000E+00  0.00000000E+00
  0.00000000E+00  0.00000000E+00  0.00000000E+00
  0.00000000E+00  0.00000000E+00  0.00000000E+00
  0.00000000E+00  0.00000000E+00  0.00000000E+00
  0.00000000E+00  0.00000000E+00  0.00000000E+00
  0.00000000E+00  0.00000000E+00  0.00000000E+00
  0.00000000E+00  0.00000000E+00  0.00000000E+00
  0.00000000E+00  0.00000000E+00  0.00000000E+00
  0.00000000E+00  0.00000000E+00  0.00000000E+00
  0.00000000E+00  0.00000000E+00  0.00000000E+00
  0.00000000E+00  0.00000000E+00  0.00000000E+00
  0.00000000E+00  0.00000000E+00  0.00000000E+00
  0.00000000E+00  0.00000000E+00  0.00000000E+00
  0.00000000E+00  0.00000000E+00  0.00000000E+00
  0.00000000E+00  0.00000000E+00  0.00000000E+00
  0.00000000E+00  0.00000000E+00  0.00000000E+00
  0.00000000E+00  0.00000000E+00  0.00000000E+00
  0.00000000E+00  0.00000000E+00  0.00000000E+00
  0.00000000E+00  0.00000000E+00  0.00000000E+00
  0.00000000E+00  0.00000000E+00  0.00000000E+00
  0.00000000E+00  0.00000000E+00  0.00000000E+00
  0.00000000E+00  0.00000000E+00  0.00000000E+00
  0.00000000E+00  0.00000000E+00  0.00000000E+00
  0.00000000E+00  0.00000000E+00  0.00000000E+00
  0.00000000E+00  0.00000000E+00  0.00000000E+00
  0.00000000E+00  0.00000000E+00  0.00000000E+00
  0.00000000E+00  0.00000000E+00  0.00000000E+00
  0.00000000E+00  0.00000000E+00  0.00000000E+00
  0.00000000E+00  0.00000000E+00  0.00000000E+00
  0.00000000E+00  0.00000000E+00  0.00000000E+00
  0.00000000E+00  0.00000000E+00  0.00000000E+00
  0.00000000E+00  0.00000000E+00  0.00000000E+00
  0.00000000E+00  0.00000000E+00  0.00000000E+00
  0.00000000E+00  0.00000000E+00  0.00000000E+00
  0.00000000E+00  0.00000000E+00  0.00000000E+00
  0.00000000E+00  0.00000000E+00  0.00000000E+00
