SrTiFeO                                 
   1.00000000000000     
    11.1989999999999998    0.0000000000000000    0.0000000000000000
     0.0000000000000000   11.1989999999999998    0.0000000000000000
     0.0000000000000000    0.0000000000000000   15.9830000000000005
   Sr   Ti   Fe   O 
    32    31     1    94
Direct
  0.9993676053226052  0.2501382371969342  0.1245059765164745
  0.0046433658354860  0.2478283174136357  0.6267769715515917
  0.0001511049068613  0.7503268093986902  0.1250909440484104
  0.0010969913011358  0.7512785949772787  0.6255342297075250
  0.5013734033454861  0.2508272489316450  0.1243472206809140
  0.4963582770416216  0.2370220519376479  0.6268641149970072
  0.4995857405208397  0.7488895215949414  0.1252182838418575
  0.4985018198210197  0.7560977986626882  0.6246064590974548
  0.0066078755898747  0.2502454011316991  0.3734530363633752
  0.9988536836609450  0.2497843825080108  0.8750640113381128
  0.0008101379988488  0.7488041927942113  0.3746849254233965
  0.0008082388166494  0.7509938122385360  0.8750613533270325
  0.4961655587464551  0.2466359680502854  0.3712981635279778
  0.5004557280226702  0.2481028555881760  0.8756452023953721
  0.4985804618265879  0.7454105332338341  0.3761595624096449
  0.4993852135073599  0.7501283334210118  0.8755483685187243
  0.2492695399589770  0.9998056593766644  0.1249909461786584
  0.2481700798117008  0.9988086474389319  0.6252663560388361
  0.2515865114464632  0.5005596010552681  0.1255257185113801
  0.2455117995123902  0.4994061251468399  0.6246593151378649
  0.7506072037042160  0.0008479917111472  0.1250537812101905
  0.7502732900453777  0.9967235200320516  0.6254739115817965
  0.7497727905562374  0.5009273696745414  0.1238776618888501
  0.7608255443653704  0.5022341085369598  0.6278576304047221
  0.2498309647792920  0.9984153211869686  0.3749851087186855
  0.2494525993997081  0.9994623097767099  0.8746924019810636
  0.2557808027889483  0.4991576555443794  0.3775547455929178
  0.2499313679266975  0.5017636504369676  0.8757022770183234
  0.7485948836517426  0.9952805683383162  0.3743619182407431
  0.7507041811683329  0.0010880043757020  0.8740599632029362
  0.7496790459025232  0.5016102665655995  0.3721310979189784
  0.7518124323439559  0.4991419278126920  0.8764722583807452
  0.9994982692508025  0.0003752969679208  0.9996438654287423
  0.0033076694125313  0.9948700343295832  0.4991355926353220
  0.0004131706442880  0.4999502382503121  0.0002948105500030
  0.0003149405330110  0.5006695210426663  0.4993800484904374
  0.4997384859816932  0.9998252205513908  0.0003196149256500
  0.4987753772054793  0.9989235674524033  0.4991604249465779
  0.4994654544810442  0.5004965925221138  0.0011375888257717
  0.2504126175526915  0.2502691939522062  0.9999752356350097
  0.2524722972561390  0.2500812748988946  0.5011213018157185
  0.2504192383374407  0.7500128897039358  0.0000588279673041
  0.2521809500646052  0.7480510317849781  0.5007264537490861
  0.7500306209817539  0.2498838460274007  0.9991409113721045
  0.7606307387318062  0.2438690759499756  0.4992959266894633
  0.7495902652743210  0.7500010224847151  0.9999509854397889
  0.2507523513208378  0.2503766605679965  0.2493510450478935
  0.2503208735741514  0.2499778696925885  0.7499485362329142
  0.2500791984755491  0.7491601252350587  0.2502179485727319
  0.2503223088526939  0.7486279072115675  0.7494389729301120
  0.7492627766687969  0.2509260273774488  0.2494790688611563
  0.7493176109764520  0.2511838324080857  0.7480414788481820
  0.7495588384563172  0.7491967217493638  0.2498758000414495
  0.7502122056754370  0.7494925383765940  0.7498750831430709
  0.9997767642421485  0.0000326772999408  0.2506809195917559
  0.9999534758735200  0.9999164734370836  0.7503839411930279
  0.0008838001236080  0.4997110876629585  0.2500647070608576
  0.0010923651802121  0.4999388048986353  0.7506734649840549
  0.5000889053816087  0.9987547778042728  0.2497830466072953
  0.5000880997115037  0.9988330998490882  0.7508358893885281
  0.5007348284090598  0.4989445569407461  0.2509472664545232
  0.5017984038870146  0.4985538294259485  0.7539974784544774
  0.7493692785005184  0.7464970506313043  0.5011164963339525
  0.5014761669187908  0.5006340362079507  0.5021537631932882
  0.1097441363997425  0.1413039794154934  0.2509458287504375
  0.1099427013335964  0.1408629785521051  0.7527946011907913
  0.1085547827405376  0.6408935981293049  0.2498260109278931
  0.1084288440337198  0.6404269028194159  0.7503606362078333
  0.6089706197061094  0.1405935584731020  0.2500443603377756
  0.6102509336561626  0.1390230522205843  0.7505744969789808
  0.6096186965404666  0.6413242438026154  0.2489630580306366
  0.3906347340639508  0.3578314020535108  0.2464669376853314
  0.3916205110052956  0.3606280952743705  0.7403383472464781
  0.3912286881348651  0.8588786891337041  0.2505762413734073
  0.3897902801564087  0.8608351796003818  0.7504040203474044
  0.8912262600468208  0.3586155863936275  0.2518711095858831
  0.8912078715004526  0.3597635139192267  0.7480679271995073
  0.8897515132466289  0.8596382488868048  0.2515270129773861
  0.8894520901826136  0.8601947203168928  0.7518384391768379
  0.3594410607160878  0.1092525718660355  0.2517291811757298
  0.3611336856531053  0.1107216042126292  0.7486955298400148
  0.3586669949330366  0.6090998494430323  0.2514566730160241
  0.3578160428605432  0.6118634219525545  0.7430273225094912
  0.8581634824422077  0.1107784565023049  0.2554761337074099
  0.8600900434404268  0.1102645491295350  0.7468008140696534
  0.8596066858643672  0.6092932399994860  0.2496449308510477
  0.8602710845075864  0.6097771985165594  0.7512862363795364
  0.1414600979575004  0.3911416866693302  0.2510062164571386
  0.1414159302301708  0.3909863759660233  0.7500682148440383
  0.1399795110848822  0.8912087890733745  0.2498513353375763
  0.1388215064301057  0.8914056073646195  0.7525040957307889
  0.6420572203613814  0.3905969677235430  0.2436071756594627
  0.6413041643602762  0.8909161927507814  0.2495408170896687
  0.6395226148309563  0.8891474388827144  0.7502779744757054
  0.3587935855202551  0.3906323008162504  0.0009501558898496
  0.3586993777524536  0.8916501828871904  0.9998251024420055
  0.3589447842373072  0.8922827867784221  0.5001432882610589
  0.8595133666124307  0.3906966836105746  0.0004672990848115
  0.8531350019611172  0.3942122064712682  0.4995267100940659
  0.8584667567691104  0.8903305084584519  0.9987659478348432
  0.8582227938520398  0.8925956290581836  0.4984638843200505
  0.1408055798634761  0.1096079628007097  0.9987181114649045
  0.1400159567458356  0.1098815788516098  0.4981630887829954
  0.1402003551341917  0.6091931511802463  0.0003975556036221
  0.1397684162739270  0.6087532946968633  0.4996755026486073
  0.6404351442263650  0.1092760010951601  0.9994728324255489
  0.6345099210107118  0.1202462272225673  0.4999050994817265
  0.6408549075382415  0.6094657447606368  0.0000485133176428
  0.1094404625138380  0.3590300326707236  0.9992023330105748
  0.1108784695112377  0.3607848831176246  0.5004566854241183
  0.1085832272150343  0.8601240943579822  0.0003588455782693
  0.1073351754555722  0.8591606612733580  0.4983066383733251
  0.6096996274350235  0.3593669675875917  0.0000214054697605
  0.6085556954632428  0.8591274355800523  0.0000624593533257
  0.6102072749574893  0.8606957896528085  0.5000539601217876
  0.3910871621369079  0.1411447032688832  0.0000173412073195
  0.3883169997455830  0.1371045341844909  0.4995396194176801
  0.3897021537835623  0.6426399309589306  0.0014892512066171
  0.3863812625402143  0.6455927526722062  0.5051499256213241
  0.8907168142654488  0.1407278956138981  0.9994968047151960
  0.8925624815499322  0.1427598168556152  0.4983257333956117
  0.8905724906239814  0.6405480706044848  0.9993436658198334
  0.9970993740028439  0.0020497275765451  0.1256872484257172
  0.0010893411579496  1.0000075932884109  0.6243933457298211
  0.0000231233565771  0.4987552499062161  0.1252017934732511
  0.0003573877875586  0.4999790359181479  0.6248474119821331
  0.4992247937006962  0.0003128570799610  0.1251156085023254
  0.5013969956392539  0.9994097779154426  0.6248910848649200
  0.4982333945544287  0.5024679484608835  0.1241866346721039
  0.0008293256840665  0.0004032280348110  0.3749256793546707
  0.9974282543437014  0.0013524670089796  0.8753886927951017
  0.9996688126027604  0.4999374269088484  0.3752903114938790
  0.9996882531199580  0.4987413650197668  0.8750916543810586
  0.5015552920807147  0.9992642257256145  0.3750022081487714
  0.4992595093557643  0.0003844520358212  0.8751277134514029
  0.4940664682987966  0.5051027100968272  0.8766681560090170
  0.2535419588670228  0.2556244225291212  0.3758151147734010
  0.2555001218878470  0.2529941037751983  0.8740601588155132
  0.2497780456287855  0.7506271669490810  0.3750110690825864
  0.2506619675723978  0.7483038561645564  0.8752786954189560
  0.7351802207820469  0.2629613726611414  0.3781613459762456
  0.7507010501567303  0.2510946256810533  0.8746023418248017
  0.7467716445558698  0.7466243322212547  0.3757789462369154
  0.7452398503292202  0.7466223202371929  0.8740980693378104
  0.2481943618043038  0.2482564862038883  0.1247758667130608
  0.2434425659390717  0.2440778552569187  0.6255511745030072
  0.2492114238754914  0.7508731356420779  0.1256471290159631
  0.2425264591901380  0.7572748799337194  0.6250153307260394
  0.7528648355089086  0.2465066780097288  0.1253748460361370
  0.7431686895005517  0.2552312864191287  0.6215708175720231
  0.7511096611636646  0.7504532140449776  0.1246934114902617
  0.6409759038184044  0.3903878938432964  0.7467849786685091
  0.6100443513669503  0.6380083458522154  0.7396433985896596
  0.5048704868052828  0.4918358801328155  0.3707464920155862
  0.3716948644172202  0.3823063281568458  0.5114166895086218
  0.7558705973453063  0.7555515134654458  0.6252697138812600
  0.8924957818190851  0.6422532005962274  0.5003070823712602
  0.6437702073038591  0.6042798423332820  0.5089299334700421
 
  0.00000000E+00  0.00000000E+00  0.00000000E+00
  0.00000000E+00  0.00000000E+00  0.00000000E+00
  0.00000000E+00  0.00000000E+00  0.00000000E+00
  0.00000000E+00  0.00000000E+00  0.00000000E+00
  0.00000000E+00  0.00000000E+00  0.00000000E+00
  0.00000000E+00  0.00000000E+00  0.00000000E+00
  0.00000000E+00  0.00000000E+00  0.00000000E+00
  0.00000000E+00  0.00000000E+00  0.00000000E+00
  0.00000000E+00  0.00000000E+00  0.00000000E+00
  0.00000000E+00  0.00000000E+00  0.00000000E+00
  0.00000000E+00  0.00000000E+00  0.00000000E+00
  0.00000000E+00  0.00000000E+00  0.00000000E+00
  0.00000000E+00  0.00000000E+00  0.00000000E+00
  0.00000000E+00  0.00000000E+00  0.00000000E+00
  0.00000000E+00  0.00000000E+00  0.00000000E+00
  0.00000000E+00  0.00000000E+00  0.00000000E+00
  0.00000000E+00  0.00000000E+00  0.00000000E+00
  0.00000000E+00  0.00000000E+00  0.00000000E+00
  0.00000000E+00  0.00000000E+00  0.00000000E+00
  0.00000000E+00  0.00000000E+00  0.00000000E+00
  0.00000000E+00  0.00000000E+00  0.00000000E+00
  0.00000000E+00  0.00000000E+00  0.00000000E+00
  0.00000000E+00  0.00000000E+00  0.00000000E+00
  0.00000000E+00  0.00000000E+00  0.00000000E+00
  0.00000000E+00  0.00000000E+00  0.00000000E+00
  0.00000000E+00  0.00000000E+00  0.00000000E+00
  0.00000000E+00  0.00000000E+00  0.00000000E+00
  0.00000000E+00  0.00000000E+00  0.00000000E+00
  0.00000000E+00  0.00000000E+00  0.00000000E+00
  0.00000000E+00  0.00000000E+00  0.00000000E+00
  0.00000000E+00  0.00000000E+00  0.00000000E+00
  0.00000000E+00  0.00000000E+00  0.00000000E+00
  0.00000000E+00  0.00000000E+00  0.00000000E+00
  0.00000000E+00  0.00000000E+00  0.00000000E+00
  0.00000000E+00  0.00000000E+00  0.00000000E+00
  0.00000000E+00  0.00000000E+00  0.00000000E+00
  0.00000000E+00  0.00000000E+00  0.00000000E+00
  0.00000000E+00  0.00000000E+00  0.00000000E+00
  0.00000000E+00  0.00000000E+00  0.00000000E+00
  0.00000000E+00  0.00000000E+00  0.00000000E+00
  0.00000000E+00  0.00000000E+00  0.00000000E+00
  0.00000000E+00  0.00000000E+00  0.00000000E+00
  0.00000000E+00  0.00000000E+00  0.00000000E+00
  0.00000000E+00  0.00000000E+00  0.00000000E+00
  0.00000000E+00  0.00000000E+00  0.00000000E+00
  0.00000000E+00  0.00000000E+00  0.00000000E+00
  0.00000000E+00  0.00000000E+00  0.00000000E+00
  0.00000000E+00  0.00000000E+00  0.00000000E+00
  0.00000000E+00  0.00000000E+00  0.00000000E+00
  0.00000000E+00  0.00000000E+00  0.00000000E+00
  0.00000000E+00  0.00000000E+00  0.00000000E+00
  0.00000000E+00  0.00000000E+00  0.00000000E+00
  0.00000000E+00  0.00000000E+00  0.00000000E+00
  0.00000000E+00  0.00000000E+00  0.00000000E+00
  0.00000000E+00  0.00000000E+00  0.00000000E+00
  0.00000000E+00  0.00000000E+00  0.00000000E+00
  0.00000000E+00  0.00000000E+00  0.00000000E+00
  0.00000000E+00  0.00000000E+00  0.00000000E+00
  0.00000000E+00  0.00000000E+00  0.00000000E+00
  0.00000000E+00  0.00000000E+00  0.00000000E+00
  0.00000000E+00  0.00000000E+00  0.00000000E+00
  0.00000000E+00  0.00000000E+00  0.00000000E+00
  0.00000000E+00  0.00000000E+00  0.00000000E+00
  0.00000000E+00  0.00000000E+00  0.00000000E+00
  0.00000000E+00  0.00000000E+00  0.00000000E+00
  0.00000000E+00  0.00000000E+00  0.00000000E+00
  0.00000000E+00  0.00000000E+00  0.00000000E+00
  0.00000000E+00  0.00000000E+00  0.00000000E+00
  0.00000000E+00  0.00000000E+00  0.00000000E+00
  0.00000000E+00  0.00000000E+00  0.00000000E+00
  0.00000000E+00  0.00000000E+00  0.00000000E+00
  0.00000000E+00  0.00000000E+00  0.00000000E+00
  0.00000000E+00  0.00000000E+00  0.00000000E+00
  0.00000000E+00  0.00000000E+00  0.00000000E+00
  0.00000000E+00  0.00000000E+00  0.00000000E+00
  0.00000000E+00  0.00000000E+00  0.00000000E+00
  0.00000000E+00  0.00000000E+00  0.00000000E+00
  0.00000000E+00  0.00000000E+00  0.00000000E+00
  0.00000000E+00  0.00000000E+00  0.00000000E+00
  0.00000000E+00  0.00000000E+00  0.00000000E+00
  0.00000000E+00  0.00000000E+00  0.00000000E+00
  0.00000000E+00  0.00000000E+00  0.00000000E+00
  0.00000000E+00  0.00000000E+00  0.00000000E+00
  0.00000000E+00  0.00000000E+00  0.00000000E+00
  0.00000000E+00  0.00000000E+00  0.00000000E+00
  0.00000000E+00  0.00000000E+00  0.00000000E+00
  0.00000000E+00  0.00000000E+00  0.00000000E+00
  0.00000000E+00  0.00000000E+00  0.00000000E+00
  0.00000000E+00  0.00000000E+00  0.00000000E+00
  0.00000000E+00  0.00000000E+00  0.00000000E+00
  0.00000000E+00  0.00000000E+00  0.00000000E+00
  0.00000000E+00  0.00000000E+00  0.00000000E+00
  0.00000000E+00  0.00000000E+00  0.00000000E+00
  0.00000000E+00  0.00000000E+00  0.00000000E+00
  0.00000000E+00  0.00000000E+00  0.00000000E+00
  0.00000000E+00  0.00000000E+00  0.00000000E+00
  0.00000000E+00  0.00000000E+00  0.00000000E+00
  0.00000000E+00  0.00000000E+00  0.00000000E+00
  0.00000000E+00  0.00000000E+00  0.00000000E+00
  0.00000000E+00  0.00000000E+00  0.00000000E+00
  0.00000000E+00  0.00000000E+00  0.00000000E+00
  0.00000000E+00  0.00000000E+00  0.00000000E+00
  0.00000000E+00  0.00000000E+00  0.00000000E+00
  0.00000000E+00  0.00000000E+00  0.00000000E+00
  0.00000000E+00  0.00000000E+00  0.00000000E+00
  0.00000000E+00  0.00000000E+00  0.00000000E+00
  0.00000000E+00  0.00000000E+00  0.00000000E+00
  0.00000000E+00  0.00000000E+00  0.00000000E+00
  0.00000000E+00  0.00000000E+00  0.00000000E+00
  0.00000000E+00  0.00000000E+00  0.00000000E+00
  0.00000000E+00  0.00000000E+00  0.00000000E+00
  0.00000000E+00  0.00000000E+00  0.00000000E+00
  0.00000000E+00  0.00000000E+00  0.00000000E+00
  0.00000000E+00  0.00000000E+00  0.00000000E+00
  0.00000000E+00  0.00000000E+00  0.00000000E+00
  0.00000000E+00  0.00000000E+00  0.00000000E+00
  0.00000000E+00  0.00000000E+00  0.00000000E+00
  0.00000000E+00  0.00000000E+00  0.00000000E+00
  0.00000000E+00  0.00000000E+00  0.00000000E+00
  0.00000000E+00  0.00000000E+00  0.00000000E+00
  0.00000000E+00  0.00000000E+00  0.00000000E+00
  0.00000000E+00  0.00000000E+00  0.00000000E+00
  0.00000000E+00  0.00000000E+00  0.00000000E+00
  0.00000000E+00  0.00000000E+00  0.00000000E+00
  0.00000000E+00  0.00000000E+00  0.00000000E+00
  0.00000000E+00  0.00000000E+00  0.00000000E+00
  0.00000000E+00  0.00000000E+00  0.00000000E+00
  0.00000000E+00  0.00000000E+00  0.00000000E+00
  0.00000000E+00  0.00000000E+00  0.00000000E+00
  0.00000000E+00  0.00000000E+00  0.00000000E+00
  0.00000000E+00  0.00000000E+00  0.00000000E+00
  0.00000000E+00  0.00000000E+00  0.00000000E+00
  0.00000000E+00  0.00000000E+00  0.00000000E+00
  0.00000000E+00  0.00000000E+00  0.00000000E+00
  0.00000000E+00  0.00000000E+00  0.00000000E+00
  0.00000000E+00  0.00000000E+00  0.00000000E+00
  0.00000000E+00  0.00000000E+00  0.00000000E+00
  0.00000000E+00  0.00000000E+00  0.00000000E+00
  0.00000000E+00  0.00000000E+00  0.00000000E+00
  0.00000000E+00  0.00000000E+00  0.00000000E+00
  0.00000000E+00  0.00000000E+00  0.00000000E+00
  0.00000000E+00  0.00000000E+00  0.00000000E+00
  0.00000000E+00  0.00000000E+00  0.00000000E+00
  0.00000000E+00  0.00000000E+00  0.00000000E+00
  0.00000000E+00  0.00000000E+00  0.00000000E+00
  0.00000000E+00  0.00000000E+00  0.00000000E+00
  0.00000000E+00  0.00000000E+00  0.00000000E+00
  0.00000000E+00  0.00000000E+00  0.00000000E+00
  0.00000000E+00  0.00000000E+00  0.00000000E+00
  0.00000000E+00  0.00000000E+00  0.00000000E+00
  0.00000000E+00  0.00000000E+00  0.00000000E+00
  0.00000000E+00  0.00000000E+00  0.00000000E+00
  0.00000000E+00  0.00000000E+00  0.00000000E+00
  0.00000000E+00  0.00000000E+00  0.00000000E+00
  0.00000000E+00  0.00000000E+00  0.00000000E+00
  0.00000000E+00  0.00000000E+00  0.00000000E+00
  0.00000000E+00  0.00000000E+00  0.00000000E+00
  0.00000000E+00  0.00000000E+00  0.00000000E+00
