SrTiFeO                                 
   1.00000000000000     
    11.1989999999999998    0.0000000000000000    0.0000000000000000
     0.0000000000000000   11.1989999999999998    0.0000000000000000
     0.0000000000000000    0.0000000000000000   15.9830000000000005
   Sr   Ti   Fe   O 
    32    29     3    94
Direct
  0.9998525849259574  0.2502857255621151  0.1248848360660021
  0.0010529331965869  0.2501980908107838  0.6236702849661602
  0.9983575216993935  0.7499232800518116  0.1263023818435749
  0.0070403801157898  0.7485698903157826  0.6218610595215779
  0.4998957165575515  0.2527650605095068  0.1256158620650678
  0.5018769900725751  0.2502004110396355  0.6238306644174775
  0.5006699814976278  0.7495721031172738  0.1245413132780771
  0.4926780688343584  0.7535874141908557  0.6223452871140386
  0.0006483449271365  0.2491597311850907  0.3754522512804051
  0.0008591215270575  0.2509148863611539  0.8762729154474446
  0.9998934068954682  0.7478613011228560  0.3764563719360310
  0.0050450861191245  0.7505284332690719  0.8770129605946730
  0.5021626532327753  0.2495988796362185  0.3763467726239381
  0.4998568883218856  0.2545810450567922  0.8732275251134918
  0.4985801949246255  0.7507904340034091  0.3715590151932512
  0.4941975630218351  0.7536758979215378  0.8788562028230198
  0.2500279774703236  1.0003455834016088  0.1250784121191009
  0.2498736998944188  0.0004612017693633  0.6249188105439234
  0.2527236737901091  0.5003948621116182  0.1243985249707485
  0.2499351279514550  0.5016293500661821  0.6264926389167448
  0.7498141633265989  0.9982938807609982  0.1244393755055919
  0.7488201127780429  0.0063718949730915  0.6251736949594817
  0.7494810978432269  0.4993546897485803  0.1268084310744292
  0.7542016701825605  0.4939518162024522  0.6239659209924859
  0.2497349153185385  0.9999169002550107  0.3746050464881516
  0.2498253956512073  0.0011938290013093  0.8749737943104746
  0.2493424557046809  0.4997727024149471  0.3760239317625181
  0.2550674411024613  0.5023982617347474  0.8729360907785354
  0.7509911574301814  0.0009311312860773  0.3748393639795634
  0.7472823498760087  0.0035791680032893  0.8751500956929104
  0.7539366380276642  0.4957739954616490  0.3720781780978893
  0.7503011545316335  0.4978905663411083  0.8793544208336661
  0.9992863576983603  0.9996303922859526  0.9996444121013806
  0.0014206051093189  0.0012598007074488  0.5001154040837947
  0.0007911624140467  0.5000208781483388  0.0001432363277926
  0.9987736224988184  0.4999608763949961  0.5001008430273740
  0.5000084425124618  0.0012711797450466  0.0002393626686286
  0.5007458444746570  0.9980117801683291  0.4996331988729636
  0.5009160466673164  0.5012375587300480  0.9983966801981715
  0.2509097162716460  0.2510904514864987  0.9995403915173726
  0.2494298298622899  0.2486602786046145  0.5004371115568861
  0.2496461166496992  0.7501890385197361  0.0008892985656037
  0.2515586334961618  0.7499744394719197  0.4989261747149757
  0.7499758368091185  0.2498900688178207  0.0004341935240305
  0.7495734441715791  0.2506293802680914  0.4995668014887228
  0.7491766018479314  0.7491736821391044  0.0005767610828699
  0.2507868051079333  0.2504297285825932  0.2505098923922202
  0.2525657381406009  0.2519478464567847  0.7494018596658065
  0.2492001499275471  0.7503200472816915  0.2500015780699609
  0.2512257092612069  0.7499224485411509  0.7499310857574709
  0.7500865252302202  0.2488674024497390  0.2498389533507264
  0.7501608016367128  0.2525416365563159  0.7504068978471101
  0.7493793169946130  0.7491541534335987  0.2526088835881886
  0.7613770390764227  0.7555388497806148  0.7477058090222568
  0.9993695472041335  0.9993283628322344  0.2501687966562069
  0.0040497365502987  0.0059855463985473  0.7498854744531167
  0.0011338027056866  0.4999760768727565  0.2498422112772773
  1.0001223925846687  0.4987740421309498  0.7505381805135674
  0.4998633266498319  0.0003644227884464  0.2499145016706505
  0.4983450952507311  0.0003845216464086  0.7499524503861784
  0.5008429302768432  0.5007202695696112  0.2517925680923296
  0.4998187946738470  0.4963121522476774  0.7451228029452097
  0.4900169029278366  0.4937339128035370  0.5006702364112846
  0.7564080087969739  0.7612806644007203  0.5015528843244751
  0.1091308166395106  0.1404115779063979  0.2477531613215122
  0.1068066218875980  0.1423188913573538  0.7519331375426268
  0.1087691479584486  0.6412425371249925  0.2500497925857487
  0.1075728779139025  0.6410864838441157  0.7501887499456737
  0.6087164201364325  0.1407365212310696  0.2497804990810507
  0.6107597882307364  0.1374823587413726  0.7501801615690236
  0.6102940758872687  0.6409141632383951  0.2433995863146045
  0.3912956829406511  0.3603990384513053  0.2569592455830516
  0.3874441538150532  0.3530275919174065  0.7451381802320367
  0.3896644925493053  0.8603147702680305  0.2496274703670498
  0.3869242999789781  0.8633862614962117  0.7503981895706042
  0.8907541020960372  0.3595376981847489  0.2512521571208435
  0.8948303496847269  0.3554600915565663  0.7490665425308309
  0.8894885724471299  0.8582069555312244  0.2563221297535928
  0.8917870672922732  0.8554348987917401  0.7461881057177467
  0.3592026224601051  0.1097683114652431  0.2495969148894189
  0.3582212282606239  0.1075407476892343  0.7501921097660778
  0.3592798495199951  0.6103011841926381  0.2528055184958206
  0.3659184491682968  0.6188211783898451  0.7479029034696224
  0.8587855007307452  0.1083272041914809  0.2490137246684839
  0.8578251724734495  0.1050537348501818  0.7503544155729733
  0.8595483793833764  0.6090531497964087  0.2495893240300264
  0.8502082076858259  0.6032851730440609  0.7503994652422064
  0.1411985016145353  0.3913434195088206  0.2499813905613643
  0.1419493865717558  0.3930233463733586  0.7504721950574436
  0.1397054131214664  0.8912711348878614  0.2487029481251234
  0.1390066516229597  0.8912200166823319  0.7503443309512408
  0.6413664005179726  0.3898200439953294  0.2505535451839206
  0.6403357078081746  0.8904440118693501  0.2515641823412954
  0.6338261568026153  0.8773322020121652  0.7490475749075393
  0.3596334658293289  0.3911518171195047  0.9964577755488724
  0.3595376660519264  0.8907613219382364  0.9990365870217017
  0.3579658524066970  0.8920606059233677  0.5007933886024506
  0.8604443507484464  0.3897732168629595  0.0005947310062020
  0.8635277819093757  0.3858683071451468  0.4993258123937443
  0.8580255335220706  0.8886920969056810  0.9924777900921253
  0.8597057943253931  0.8924714146911382  0.5038761729465376
  0.1399191246740040  0.1094240064010354  0.0018857517307864
  0.1406205915117617  0.1087015432641243  0.4984408686227369
  0.1406212311023237  0.6093634364757768  0.9993744914498424
  0.1363208835657637  0.6121929565636569  0.5002881144184287
  0.6411123568065514  0.1090524664294401  0.0006539655081498
  0.6401477955940474  0.1088258522192351  0.4995293684188171
  0.6413055065622620  0.6104349497072882  0.0089074586727267
  0.1096326056459252  0.3593553760586683  0.0007905201953399
  0.1099731647090188  0.3603768449383846  0.4992583446324377
  0.1091209545671389  0.8592598775218695  0.0009102694644260
  0.1081168995519444  0.8600392613650448  0.4992945908127358
  0.6104666335062564  0.3592123482381289  0.9999561992957769
  0.6093315678389952  0.8594065247181427  0.9995172895676991
  0.6051297652512067  0.8526355389697202  0.4999098525316148
  0.3912522387371331  0.1411850345193595  0.9999835893407835
  0.3910544527798055  0.1407651182484585  0.5002311608513874
  0.3898780304307336  0.6419188756917485  0.0022828918382305
  0.3898164809110574  0.6438814535784146  0.4965881162459191
  0.8906372935805720  0.1396618161562384  0.0005229708979709
  0.8905003358062604  0.1393415171716759  0.5000206869412002
  0.8903225484001233  0.6406998159699727  0.9980257402347481
  0.9940475414722826  0.9945613195350248  0.1246934699551269
  0.0025538739663915  0.0023085992677592  0.6253191656377487
 -0.0003058120369165  0.5006083897897549  0.1248998558883948
  0.0015770028173545  0.5001533227445250  0.6254378384481700
  0.5000448387358699  0.9990688954319680  0.1249299676821543
  0.5009459615261860  0.0014379334894463  0.6249368621094159
  0.4944994858851393  0.4945075522792554  0.1272073448939953
  0.9994651169401658  0.0013624165355350  0.3749312062610988
  1.0005161842014449  0.9987373087210429  0.8747852161995456
  0.0004757030926202  0.5016622273067028  0.3750005357880440
  0.9996314542798861  0.4991382753642175  0.8749359433904339
  0.4991494717442315  0.0006583490995458  0.3749985770029444
  0.5013060018015324  0.0002780364984872  0.8750240498283769
  0.5079734495442843  0.5111877956800569  0.8786457522604756
  0.2483962939478118  0.2489750058049600  0.3752765647127063
  0.2494484646814912  0.2486883512717682  0.8753343708193159
  0.2463972057765131  0.7530464436491940  0.3743567001286695
  0.2488841921894359  0.7496560143073404  0.8755457373463269
  0.7508482767661725  0.2468459825595820  0.3744418950670050
  0.7515988862499626  0.2479885266910042  0.8756056696059783
  0.7397134124145647  0.7374535509268522  0.3777684368530935
  0.7343654725779896  0.7359982311834035  0.8698313385022910
  0.2543503017122088  0.2538729882915254  0.1254868106391046
  0.2434045669593561  0.2446480754479212  0.6245151998321428
  0.2496285651912091  0.7501005586441684  0.1253451220546070
  0.2469118948088911  0.7509261757855276  0.6243457364169975
  0.7508019508735876  0.2502925603660594  0.1252034200007488
  0.7500131244543142  0.2470678396116944  0.6248596182035407
  0.7565554716445279  0.7571338527051391  0.1247598135394832
  0.6478928277456488  0.3920440896224359  0.7507192662475248
  0.5147582335154669  0.5121188365026647  0.3776629669123431
  0.6165783784393042  0.3651504822802299  0.4986504594343110
  0.3572402536261981  0.3888991525315699  0.5040231412217939
  0.7296946300064641  0.7298560577553888  0.6275207936485742
  0.8769713965649502  0.6320803555311613  0.5020656160217087
  0.5279375721290176  0.5273540454581765  0.6152820141988246
 
  0.00000000E+00  0.00000000E+00  0.00000000E+00
  0.00000000E+00  0.00000000E+00  0.00000000E+00
  0.00000000E+00  0.00000000E+00  0.00000000E+00
  0.00000000E+00  0.00000000E+00  0.00000000E+00
  0.00000000E+00  0.00000000E+00  0.00000000E+00
  0.00000000E+00  0.00000000E+00  0.00000000E+00
  0.00000000E+00  0.00000000E+00  0.00000000E+00
  0.00000000E+00  0.00000000E+00  0.00000000E+00
  0.00000000E+00  0.00000000E+00  0.00000000E+00
  0.00000000E+00  0.00000000E+00  0.00000000E+00
  0.00000000E+00  0.00000000E+00  0.00000000E+00
  0.00000000E+00  0.00000000E+00  0.00000000E+00
  0.00000000E+00  0.00000000E+00  0.00000000E+00
  0.00000000E+00  0.00000000E+00  0.00000000E+00
  0.00000000E+00  0.00000000E+00  0.00000000E+00
  0.00000000E+00  0.00000000E+00  0.00000000E+00
  0.00000000E+00  0.00000000E+00  0.00000000E+00
  0.00000000E+00  0.00000000E+00  0.00000000E+00
  0.00000000E+00  0.00000000E+00  0.00000000E+00
  0.00000000E+00  0.00000000E+00  0.00000000E+00
  0.00000000E+00  0.00000000E+00  0.00000000E+00
  0.00000000E+00  0.00000000E+00  0.00000000E+00
  0.00000000E+00  0.00000000E+00  0.00000000E+00
  0.00000000E+00  0.00000000E+00  0.00000000E+00
  0.00000000E+00  0.00000000E+00  0.00000000E+00
  0.00000000E+00  0.00000000E+00  0.00000000E+00
  0.00000000E+00  0.00000000E+00  0.00000000E+00
  0.00000000E+00  0.00000000E+00  0.00000000E+00
  0.00000000E+00  0.00000000E+00  0.00000000E+00
  0.00000000E+00  0.00000000E+00  0.00000000E+00
  0.00000000E+00  0.00000000E+00  0.00000000E+00
  0.00000000E+00  0.00000000E+00  0.00000000E+00
  0.00000000E+00  0.00000000E+00  0.00000000E+00
  0.00000000E+00  0.00000000E+00  0.00000000E+00
  0.00000000E+00  0.00000000E+00  0.00000000E+00
  0.00000000E+00  0.00000000E+00  0.00000000E+00
  0.00000000E+00  0.00000000E+00  0.00000000E+00
  0.00000000E+00  0.00000000E+00  0.00000000E+00
  0.00000000E+00  0.00000000E+00  0.00000000E+00
  0.00000000E+00  0.00000000E+00  0.00000000E+00
  0.00000000E+00  0.00000000E+00  0.00000000E+00
  0.00000000E+00  0.00000000E+00  0.00000000E+00
  0.00000000E+00  0.00000000E+00  0.00000000E+00
  0.00000000E+00  0.00000000E+00  0.00000000E+00
  0.00000000E+00  0.00000000E+00  0.00000000E+00
  0.00000000E+00  0.00000000E+00  0.00000000E+00
  0.00000000E+00  0.00000000E+00  0.00000000E+00
  0.00000000E+00  0.00000000E+00  0.00000000E+00
  0.00000000E+00  0.00000000E+00  0.00000000E+00
  0.00000000E+00  0.00000000E+00  0.00000000E+00
  0.00000000E+00  0.00000000E+00  0.00000000E+00
  0.00000000E+00  0.00000000E+00  0.00000000E+00
  0.00000000E+00  0.00000000E+00  0.00000000E+00
  0.00000000E+00  0.00000000E+00  0.00000000E+00
  0.00000000E+00  0.00000000E+00  0.00000000E+00
  0.00000000E+00  0.00000000E+00  0.00000000E+00
  0.00000000E+00  0.00000000E+00  0.00000000E+00
  0.00000000E+00  0.00000000E+00  0.00000000E+00
  0.00000000E+00  0.00000000E+00  0.00000000E+00
  0.00000000E+00  0.00000000E+00  0.00000000E+00
  0.00000000E+00  0.00000000E+00  0.00000000E+00
  0.00000000E+00  0.00000000E+00  0.00000000E+00
  0.00000000E+00  0.00000000E+00  0.00000000E+00
  0.00000000E+00  0.00000000E+00  0.00000000E+00
  0.00000000E+00  0.00000000E+00  0.00000000E+00
  0.00000000E+00  0.00000000E+00  0.00000000E+00
  0.00000000E+00  0.00000000E+00  0.00000000E+00
  0.00000000E+00  0.00000000E+00  0.00000000E+00
  0.00000000E+00  0.00000000E+00  0.00000000E+00
  0.00000000E+00  0.00000000E+00  0.00000000E+00
  0.00000000E+00  0.00000000E+00  0.00000000E+00
  0.00000000E+00  0.00000000E+00  0.00000000E+00
  0.00000000E+00  0.00000000E+00  0.00000000E+00
  0.00000000E+00  0.00000000E+00  0.00000000E+00
  0.00000000E+00  0.00000000E+00  0.00000000E+00
  0.00000000E+00  0.00000000E+00  0.00000000E+00
  0.00000000E+00  0.00000000E+00  0.00000000E+00
  0.00000000E+00  0.00000000E+00  0.00000000E+00
  0.00000000E+00  0.00000000E+00  0.00000000E+00
  0.00000000E+00  0.00000000E+00  0.00000000E+00
  0.00000000E+00  0.00000000E+00  0.00000000E+00
  0.00000000E+00  0.00000000E+00  0.00000000E+00
  0.00000000E+00  0.00000000E+00  0.00000000E+00
  0.00000000E+00  0.00000000E+00  0.00000000E+00
  0.00000000E+00  0.00000000E+00  0.00000000E+00
  0.00000000E+00  0.00000000E+00  0.00000000E+00
  0.00000000E+00  0.00000000E+00  0.00000000E+00
  0.00000000E+00  0.00000000E+00  0.00000000E+00
  0.00000000E+00  0.00000000E+00  0.00000000E+00
  0.00000000E+00  0.00000000E+00  0.00000000E+00
  0.00000000E+00  0.00000000E+00  0.00000000E+00
  0.00000000E+00  0.00000000E+00  0.00000000E+00
  0.00000000E+00  0.00000000E+00  0.00000000E+00
  0.00000000E+00  0.00000000E+00  0.00000000E+00
  0.00000000E+00  0.00000000E+00  0.00000000E+00
  0.00000000E+00  0.00000000E+00  0.00000000E+00
  0.00000000E+00  0.00000000E+00  0.00000000E+00
  0.00000000E+00  0.00000000E+00  0.00000000E+00
  0.00000000E+00  0.00000000E+00  0.00000000E+00
  0.00000000E+00  0.00000000E+00  0.00000000E+00
  0.00000000E+00  0.00000000E+00  0.00000000E+00
  0.00000000E+00  0.00000000E+00  0.00000000E+00
  0.00000000E+00  0.00000000E+00  0.00000000E+00
  0.00000000E+00  0.00000000E+00  0.00000000E+00
  0.00000000E+00  0.00000000E+00  0.00000000E+00
  0.00000000E+00  0.00000000E+00  0.00000000E+00
  0.00000000E+00  0.00000000E+00  0.00000000E+00
  0.00000000E+00  0.00000000E+00  0.00000000E+00
  0.00000000E+00  0.00000000E+00  0.00000000E+00
  0.00000000E+00  0.00000000E+00  0.00000000E+00
  0.00000000E+00  0.00000000E+00  0.00000000E+00
  0.00000000E+00  0.00000000E+00  0.00000000E+00
  0.00000000E+00  0.00000000E+00  0.00000000E+00
  0.00000000E+00  0.00000000E+00  0.00000000E+00
  0.00000000E+00  0.00000000E+00  0.00000000E+00
  0.00000000E+00  0.00000000E+00  0.00000000E+00
  0.00000000E+00  0.00000000E+00  0.00000000E+00
  0.00000000E+00  0.00000000E+00  0.00000000E+00
  0.00000000E+00  0.00000000E+00  0.00000000E+00
  0.00000000E+00  0.00000000E+00  0.00000000E+00
  0.00000000E+00  0.00000000E+00  0.00000000E+00
  0.00000000E+00  0.00000000E+00  0.00000000E+00
  0.00000000E+00  0.00000000E+00  0.00000000E+00
  0.00000000E+00  0.00000000E+00  0.00000000E+00
  0.00000000E+00  0.00000000E+00  0.00000000E+00
  0.00000000E+00  0.00000000E+00  0.00000000E+00
  0.00000000E+00  0.00000000E+00  0.00000000E+00
  0.00000000E+00  0.00000000E+00  0.00000000E+00
  0.00000000E+00  0.00000000E+00  0.00000000E+00
  0.00000000E+00  0.00000000E+00  0.00000000E+00
  0.00000000E+00  0.00000000E+00  0.00000000E+00
  0.00000000E+00  0.00000000E+00  0.00000000E+00
  0.00000000E+00  0.00000000E+00  0.00000000E+00
  0.00000000E+00  0.00000000E+00  0.00000000E+00
  0.00000000E+00  0.00000000E+00  0.00000000E+00
  0.00000000E+00  0.00000000E+00  0.00000000E+00
  0.00000000E+00  0.00000000E+00  0.00000000E+00
  0.00000000E+00  0.00000000E+00  0.00000000E+00
  0.00000000E+00  0.00000000E+00  0.00000000E+00
  0.00000000E+00  0.00000000E+00  0.00000000E+00
  0.00000000E+00  0.00000000E+00  0.00000000E+00
  0.00000000E+00  0.00000000E+00  0.00000000E+00
  0.00000000E+00  0.00000000E+00  0.00000000E+00
  0.00000000E+00  0.00000000E+00  0.00000000E+00
  0.00000000E+00  0.00000000E+00  0.00000000E+00
  0.00000000E+00  0.00000000E+00  0.00000000E+00
  0.00000000E+00  0.00000000E+00  0.00000000E+00
  0.00000000E+00  0.00000000E+00  0.00000000E+00
  0.00000000E+00  0.00000000E+00  0.00000000E+00
  0.00000000E+00  0.00000000E+00  0.00000000E+00
  0.00000000E+00  0.00000000E+00  0.00000000E+00
  0.00000000E+00  0.00000000E+00  0.00000000E+00
  0.00000000E+00  0.00000000E+00  0.00000000E+00
  0.00000000E+00  0.00000000E+00  0.00000000E+00
  0.00000000E+00  0.00000000E+00  0.00000000E+00
  0.00000000E+00  0.00000000E+00  0.00000000E+00
  0.00000000E+00  0.00000000E+00  0.00000000E+00
  0.00000000E+00  0.00000000E+00  0.00000000E+00
