Sr   Ti   Fe   O                        
   1.00000000000000     
    11.1989999999999998    0.0000000000000000    0.0000000000000000
     0.0000000000000000   11.1989999999999998    0.0000000000000000
     0.0000000000000000    0.0000000000000000   15.9830000000000005
   Sr   Ti   Fe   O 
    32    31     1    94
Direct
  0.9989353683348622  0.2491324253587892  0.1247315318763964
  0.0017401871666263  0.2489026266707013  0.6238142182962731
  0.9992982373905276  0.7513433410675215  0.1256730709806573
  0.0018924543979595  0.7502273890465536  0.6260973423770785
  0.4994394881786083  0.2511061623426343  0.1267581032682528
  0.5016056703899132  0.2405307398556013  0.6178565628301359
  0.4983188350825026  0.7493061916268566  0.1238915794284505
  0.4952195470696978  0.7542898782061276  0.6253876344809582
  0.9991896835952453  0.2487606088316064  0.3756358288189509
  0.0025637957293747  0.2510606522607340  0.8754344332136321
  0.0006533711835903  0.7478678626846123  0.3763584075134860
  0.0018854417173469  0.7505942343995938  0.8758352097557754
  0.4999188108516917  0.2499779291886702  0.3736354987604470
  0.4991734775614710  0.2490284922173182  0.8777844603844154
  0.4944397889822426  0.7468401654448168  0.3731711551953938
  0.5021680283409280  0.7518708427726283  0.8760477891485468
  0.2499031042980630  0.0005745585748988  0.1248738236079430
  0.2495957495694683  0.9996453818753869  0.6246502455058930
  0.2512382644489634  0.5004933789546645  0.1260199038873871
  0.2423152956334590  0.5015924942370593  0.6221645153872539
  0.7489623757917102  0.9992231291858399  0.1249848251905716
  0.7526944379176139  0.0001134920575313  0.6254800260891875
  0.7484453299894411  0.4999305704028171  0.1252409556972933
  0.7675296697872597  0.4970110962223693  0.6267239056592234
  0.2489593385459039  0.0001894736278979  0.3742507415399867
  0.2513446890797579  0.0002891122284580  0.8753767935908768
  0.2515685760513245  0.5011138358175250  0.3778324026244174
  0.2515907250255076  0.5019849455850152  0.8757012218353425
  0.7499448883424719  0.0031700110824693  0.3721838768693903
  0.7512478639225172  0.9972007303974457  0.8771441268551403
  0.7499871715226323  0.4929711881946523  0.3734249020841365
  0.7550625040167204  0.5051457943437360  0.8785381558244039
  0.0002866213129764  0.0004770786703809  0.9997347954782241
  0.0032322867795131  0.0025902831713421  0.4995284921045645
  0.0009002417696099  0.4998938516616404  0.0008532617309894
  0.9987081673673027  0.4978425496305138  0.4991439843176827
  0.5002050611325536  0.0004133480288257  0.0003520893284939
  0.4994834760076348  0.9975901314848014  0.4989320656590988
  0.5001731322479307  0.4992635472587580  0.0003359988290024
  0.2507349783396060  0.2512831959020463  0.0001540820817314
  0.2517565687620695  0.2514937989362017  0.4998713086618230
  0.2507086737412346  0.7497866867035099  0.9999083238526608
  0.2490169322746780  0.7510077012969892  0.4997624131915587
  0.7493586142889531  0.2510328590279722  0.0001937344439055
  0.7473343488663696  0.2488039802205730  0.4996452692633416
  0.7509003267449907  0.7506163839678162  0.0008709527414326
  0.2493387410179242  0.2506147812166325  0.2501310324871125
  0.2523983392955966  0.2504060671515782  0.7477592295327643
  0.2483617464294294  0.7500432947485532  0.2499306273344276
  0.2517317851087401  0.7499200643879960  0.7495236186917549
  0.7503656673099260  0.2488150985721960  0.2492876802076979
  0.7540165277005086  0.2433407471696712  0.7506676897966630
  0.7477851751778533  0.7473355091472100  0.2512277803086609
  0.7526889309836701  0.7517719818661344  0.7505560163337215
  0.9991482625442225  0.9997381150096629  0.2501247246467119
  0.0040357944239121  0.9984310975512253  0.7511022391155828
  0.9998553675804570  0.4998367964199384  0.2499742663678349
  0.0026435568821638  0.5010885075147794  0.7512015436331350
  0.4996047291803954  0.9990707202309961  0.2499488503415255
  0.5000856272328708  0.0011595009851637  0.7504082072778535
  0.4997684858463691  0.5006726098977410  0.2509872837886032
  0.5031397579835604  0.5030364284699557  0.7505445860422801
  0.7523740510995017  0.7575923555396344  0.5025139721126781
  0.4977344395503288  0.4966567686198944  0.4978999862160034
  0.1088584509541010  0.1409470670931344  0.2489867456514027
  0.1090143997604803  0.1426371666389424  0.7517432846085228
  0.1070036388894817  0.6413604757797311  0.2490444475252254
  0.1111991676674406  0.6405868631751587  0.7506891132523845
  0.6096688614555589  0.1389927559473262  0.2495808877382938
  0.6066394476376936  0.1461748835318349  0.7504607973522183
  0.6086444061191300  0.6410941745441761  0.2429546646746695
  0.3897256511368117  0.3597101933245553  0.2511553966883853
  0.3996036027424347  0.3607888691085785  0.7337711160600999
  0.3892833693726124  0.8598827808397614  0.2495475531782667
  0.3903438285254593  0.8619770571161666  0.7523722092210148
  0.8907384531602286  0.3586070199997468  0.2508840884622776
  0.8839653366643097  0.3645864445140516  0.7501949059597899
  0.8881178048090068  0.8575954411590351  0.2567262282823639
  0.8925671725889960  0.8613468079904264  0.7541439020703055
  0.3596660314705613  0.1097774611589357  0.2502753822822565
  0.3591090527401773  0.1100247975627653  0.7503922025191334
  0.3571641050821928  0.6103511094612247  0.2519624438536652
  0.3603324281629518  0.6134077130572092  0.7413540786670750
  0.8590345727863776  0.1075105762454954  0.2478825263436256
  0.8591545923564107  0.1085930690300288  0.7529470184593113
  0.8574573247846217  0.6075916486914613  0.2508450341902704
  0.8657907990818633  0.6138966650027882  0.7506773127879640
  0.1405220112747030  0.3917251096796544  0.2509669382902529
  0.1428257664463773  0.3913996606369041  0.7503121059407575
  0.1386749546101103  0.8913432440654904  0.2464665025564160
  0.1418180684788174  0.8925465808004189  0.7520909949398673
  0.6410525422346794  0.3880936630223141  0.2471854166514874
  0.6402556067966141  0.8890279537019303  0.2515513844858869
  0.6403854000746972  0.8912868444305505  0.7516156946259848
  0.3581717145739534  0.3910411736227106  0.0007060475266429
  0.3600330912903092  0.8907619533999391  0.9996908878275677
  0.3559894524526517  0.8927427859909258  0.4997458173065504
  0.8595475133344999  0.3911217062571690  0.0000232588216666
  0.8618994917540329  0.3846700293460883  0.4992097380172594
  0.8600302990068541  0.8912203392719250  0.9998374934997849
  0.8550269015337738  0.8879693846375691  0.4932160840964255
  0.1409643986524413  0.1109071966856759  0.9994395977280870
  0.1394704021517948  0.1079925171073359  0.4998539310702610
  0.1408965002095325  0.6089459162127954  0.0000890289287786
  0.1282349607548254  0.6144707898062394  0.4994637020469893
  0.6409297287249445  0.1095596162823606  0.9990771312822289
  0.6429806696903867  0.0998451457464612  0.5014268402421657
  0.6410685422535601  0.6101128111729909  0.0006925730656213
  0.1092440087370647  0.3590302546793372  0.9997261483296800
  0.1083949664963491  0.3598619996991611  0.4994213575822554
  0.1101189411031239  0.8599113886047136  0.0002416445372735
  0.1023146166468364  0.8602052049843631  0.4995045340098037
  0.6093537770370224  0.3583644078574109  0.0054912397418249
  0.6099901202548429  0.8598027329080175  0.0004493069458353
  0.6021903059282206  0.8476937981835306  0.5007252283054223
  0.3905683668489970  0.1407690315261478  0.0008211521936403
  0.3907529502620896  0.1378995891265672  0.4985016381891733
  0.3911705904251808  0.6410904127695919  0.9978580686459960
  0.3741959637542812  0.6418109203005256  0.4971590047963712
  0.8898955486077259  0.1416527115114809  0.9956950201520126
  0.8896265818402832  0.1360882571733588  0.5035338941422290
  0.8909053394301331  0.6402689427791826  0.9992529832604533
  0.9967660537221444  0.9998620572983917  0.1244277096785568
  0.9974609915398731  0.9974082018434015  0.6261830933648845
  0.9991836275535297  0.4993938300372017  0.1251130495445060
  0.0036090867707884  0.4982454810563613  0.6255311360237812
  0.5007173880754132  0.9994004593059189  0.1250847686627599
  0.4997580489322518  0.0004511096689768  0.6253878041989318
  0.4954244673879389  0.5007572188748268  0.1243023605665223
  0.0005425153271805  0.0037490750830984  0.3743887801124981
  0.0021972924549639  0.0006505642895818  0.8758089507256470
  0.9979074238581157  0.5014852341018641  0.3751497866812933
  0.0013292139428680  0.4988191947455853  0.8753251127469778
  0.5008863866477176  0.9983580344884555  0.3750039599951221
  0.5004963968150827  0.0012318423774879  0.8755332284189299
  0.5030785328145164  0.4902015925970235  0.8767008633476859
  0.2492602217069073  0.2501823590055188  0.3751758635021183
  0.2564251810951297  0.2553660719659642  0.8733087355056796
  0.2425917647387759  0.7552175127667776  0.3732749472602808
  0.2509893663296646  0.7481189146679159  0.8747518328751797
  0.7534684871468141  0.2435859608912831  0.3735255120277093
  0.7409611308198922  0.2611853397617488  0.8734375817522519
  0.7339634041076617  0.7313014416801356  0.3797121456821194
  0.7511690526240787  0.7519774705929443  0.8763844903324642
  0.2499626266911272  0.2509846357380547  0.1251310087245682
  0.2429932262961922  0.2429972604062197  0.6249461949286645
  0.2510463358919758  0.7488614510536071  0.1243350490721916
  0.2431088849439697  0.7566435624075505  0.6252150820953902
  0.7537288071934860  0.2470848074069786  0.1242790281370770
  0.7451174982757138  0.2539157621437506  0.6277635932898508
  0.7545613123160055  0.7525377299892781  0.1257487228142005
  0.6207070412672099  0.6339475167885633  0.7544675246886002
  0.5092366853512810  0.5057480789756367  0.3704101635105027
  0.6116563612307180  0.3456645512366730  0.4951553077496996
  0.3548080250185178  0.3855224497457888  0.5068829440283972
  0.7574685983417307  0.7621162580410420  0.6266055881547853
  0.8720949817921209  0.6295926742645164  0.5037655390554390
  0.5890379974273020  0.5766205593728885  0.5793786827290874
 
  0.00000000E+00  0.00000000E+00  0.00000000E+00
  0.00000000E+00  0.00000000E+00  0.00000000E+00
  0.00000000E+00  0.00000000E+00  0.00000000E+00
  0.00000000E+00  0.00000000E+00  0.00000000E+00
  0.00000000E+00  0.00000000E+00  0.00000000E+00
  0.00000000E+00  0.00000000E+00  0.00000000E+00
  0.00000000E+00  0.00000000E+00  0.00000000E+00
  0.00000000E+00  0.00000000E+00  0.00000000E+00
  0.00000000E+00  0.00000000E+00  0.00000000E+00
  0.00000000E+00  0.00000000E+00  0.00000000E+00
  0.00000000E+00  0.00000000E+00  0.00000000E+00
  0.00000000E+00  0.00000000E+00  0.00000000E+00
  0.00000000E+00  0.00000000E+00  0.00000000E+00
  0.00000000E+00  0.00000000E+00  0.00000000E+00
  0.00000000E+00  0.00000000E+00  0.00000000E+00
  0.00000000E+00  0.00000000E+00  0.00000000E+00
  0.00000000E+00  0.00000000E+00  0.00000000E+00
  0.00000000E+00  0.00000000E+00  0.00000000E+00
  0.00000000E+00  0.00000000E+00  0.00000000E+00
  0.00000000E+00  0.00000000E+00  0.00000000E+00
  0.00000000E+00  0.00000000E+00  0.00000000E+00
  0.00000000E+00  0.00000000E+00  0.00000000E+00
  0.00000000E+00  0.00000000E+00  0.00000000E+00
  0.00000000E+00  0.00000000E+00  0.00000000E+00
  0.00000000E+00  0.00000000E+00  0.00000000E+00
  0.00000000E+00  0.00000000E+00  0.00000000E+00
  0.00000000E+00  0.00000000E+00  0.00000000E+00
  0.00000000E+00  0.00000000E+00  0.00000000E+00
  0.00000000E+00  0.00000000E+00  0.00000000E+00
  0.00000000E+00  0.00000000E+00  0.00000000E+00
  0.00000000E+00  0.00000000E+00  0.00000000E+00
  0.00000000E+00  0.00000000E+00  0.00000000E+00
  0.00000000E+00  0.00000000E+00  0.00000000E+00
  0.00000000E+00  0.00000000E+00  0.00000000E+00
  0.00000000E+00  0.00000000E+00  0.00000000E+00
  0.00000000E+00  0.00000000E+00  0.00000000E+00
  0.00000000E+00  0.00000000E+00  0.00000000E+00
  0.00000000E+00  0.00000000E+00  0.00000000E+00
  0.00000000E+00  0.00000000E+00  0.00000000E+00
  0.00000000E+00  0.00000000E+00  0.00000000E+00
  0.00000000E+00  0.00000000E+00  0.00000000E+00
  0.00000000E+00  0.00000000E+00  0.00000000E+00
  0.00000000E+00  0.00000000E+00  0.00000000E+00
  0.00000000E+00  0.00000000E+00  0.00000000E+00
  0.00000000E+00  0.00000000E+00  0.00000000E+00
  0.00000000E+00  0.00000000E+00  0.00000000E+00
  0.00000000E+00  0.00000000E+00  0.00000000E+00
  0.00000000E+00  0.00000000E+00  0.00000000E+00
  0.00000000E+00  0.00000000E+00  0.00000000E+00
  0.00000000E+00  0.00000000E+00  0.00000000E+00
  0.00000000E+00  0.00000000E+00  0.00000000E+00
  0.00000000E+00  0.00000000E+00  0.00000000E+00
  0.00000000E+00  0.00000000E+00  0.00000000E+00
  0.00000000E+00  0.00000000E+00  0.00000000E+00
  0.00000000E+00  0.00000000E+00  0.00000000E+00
  0.00000000E+00  0.00000000E+00  0.00000000E+00
  0.00000000E+00  0.00000000E+00  0.00000000E+00
  0.00000000E+00  0.00000000E+00  0.00000000E+00
  0.00000000E+00  0.00000000E+00  0.00000000E+00
  0.00000000E+00  0.00000000E+00  0.00000000E+00
  0.00000000E+00  0.00000000E+00  0.00000000E+00
  0.00000000E+00  0.00000000E+00  0.00000000E+00
  0.00000000E+00  0.00000000E+00  0.00000000E+00
  0.00000000E+00  0.00000000E+00  0.00000000E+00
  0.00000000E+00  0.00000000E+00  0.00000000E+00
  0.00000000E+00  0.00000000E+00  0.00000000E+00
  0.00000000E+00  0.00000000E+00  0.00000000E+00
  0.00000000E+00  0.00000000E+00  0.00000000E+00
  0.00000000E+00  0.00000000E+00  0.00000000E+00
  0.00000000E+00  0.00000000E+00  0.00000000E+00
  0.00000000E+00  0.00000000E+00  0.00000000E+00
  0.00000000E+00  0.00000000E+00  0.00000000E+00
  0.00000000E+00  0.00000000E+00  0.00000000E+00
  0.00000000E+00  0.00000000E+00  0.00000000E+00
  0.00000000E+00  0.00000000E+00  0.00000000E+00
  0.00000000E+00  0.00000000E+00  0.00000000E+00
  0.00000000E+00  0.00000000E+00  0.00000000E+00
  0.00000000E+00  0.00000000E+00  0.00000000E+00
  0.00000000E+00  0.00000000E+00  0.00000000E+00
  0.00000000E+00  0.00000000E+00  0.00000000E+00
  0.00000000E+00  0.00000000E+00  0.00000000E+00
  0.00000000E+00  0.00000000E+00  0.00000000E+00
  0.00000000E+00  0.00000000E+00  0.00000000E+00
  0.00000000E+00  0.00000000E+00  0.00000000E+00
  0.00000000E+00  0.00000000E+00  0.00000000E+00
  0.00000000E+00  0.00000000E+00  0.00000000E+00
  0.00000000E+00  0.00000000E+00  0.00000000E+00
  0.00000000E+00  0.00000000E+00  0.00000000E+00
  0.00000000E+00  0.00000000E+00  0.00000000E+00
  0.00000000E+00  0.00000000E+00  0.00000000E+00
  0.00000000E+00  0.00000000E+00  0.00000000E+00
  0.00000000E+00  0.00000000E+00  0.00000000E+00
  0.00000000E+00  0.00000000E+00  0.00000000E+00
  0.00000000E+00  0.00000000E+00  0.00000000E+00
  0.00000000E+00  0.00000000E+00  0.00000000E+00
  0.00000000E+00  0.00000000E+00  0.00000000E+00
  0.00000000E+00  0.00000000E+00  0.00000000E+00
  0.00000000E+00  0.00000000E+00  0.00000000E+00
  0.00000000E+00  0.00000000E+00  0.00000000E+00
  0.00000000E+00  0.00000000E+00  0.00000000E+00
  0.00000000E+00  0.00000000E+00  0.00000000E+00
  0.00000000E+00  0.00000000E+00  0.00000000E+00
  0.00000000E+00  0.00000000E+00  0.00000000E+00
  0.00000000E+00  0.00000000E+00  0.00000000E+00
  0.00000000E+00  0.00000000E+00  0.00000000E+00
  0.00000000E+00  0.00000000E+00  0.00000000E+00
  0.00000000E+00  0.00000000E+00  0.00000000E+00
  0.00000000E+00  0.00000000E+00  0.00000000E+00
  0.00000000E+00  0.00000000E+00  0.00000000E+00
  0.00000000E+00  0.00000000E+00  0.00000000E+00
  0.00000000E+00  0.00000000E+00  0.00000000E+00
  0.00000000E+00  0.00000000E+00  0.00000000E+00
  0.00000000E+00  0.00000000E+00  0.00000000E+00
  0.00000000E+00  0.00000000E+00  0.00000000E+00
  0.00000000E+00  0.00000000E+00  0.00000000E+00
  0.00000000E+00  0.00000000E+00  0.00000000E+00
  0.00000000E+00  0.00000000E+00  0.00000000E+00
  0.00000000E+00  0.00000000E+00  0.00000000E+00
  0.00000000E+00  0.00000000E+00  0.00000000E+00
  0.00000000E+00  0.00000000E+00  0.00000000E+00
  0.00000000E+00  0.00000000E+00  0.00000000E+00
  0.00000000E+00  0.00000000E+00  0.00000000E+00
  0.00000000E+00  0.00000000E+00  0.00000000E+00
  0.00000000E+00  0.00000000E+00  0.00000000E+00
  0.00000000E+00  0.00000000E+00  0.00000000E+00
  0.00000000E+00  0.00000000E+00  0.00000000E+00
  0.00000000E+00  0.00000000E+00  0.00000000E+00
  0.00000000E+00  0.00000000E+00  0.00000000E+00
  0.00000000E+00  0.00000000E+00  0.00000000E+00
  0.00000000E+00  0.00000000E+00  0.00000000E+00
  0.00000000E+00  0.00000000E+00  0.00000000E+00
  0.00000000E+00  0.00000000E+00  0.00000000E+00
  0.00000000E+00  0.00000000E+00  0.00000000E+00
  0.00000000E+00  0.00000000E+00  0.00000000E+00
  0.00000000E+00  0.00000000E+00  0.00000000E+00
  0.00000000E+00  0.00000000E+00  0.00000000E+00
  0.00000000E+00  0.00000000E+00  0.00000000E+00
  0.00000000E+00  0.00000000E+00  0.00000000E+00
  0.00000000E+00  0.00000000E+00  0.00000000E+00
  0.00000000E+00  0.00000000E+00  0.00000000E+00
  0.00000000E+00  0.00000000E+00  0.00000000E+00
  0.00000000E+00  0.00000000E+00  0.00000000E+00
  0.00000000E+00  0.00000000E+00  0.00000000E+00
  0.00000000E+00  0.00000000E+00  0.00000000E+00
  0.00000000E+00  0.00000000E+00  0.00000000E+00
  0.00000000E+00  0.00000000E+00  0.00000000E+00
  0.00000000E+00  0.00000000E+00  0.00000000E+00
  0.00000000E+00  0.00000000E+00  0.00000000E+00
  0.00000000E+00  0.00000000E+00  0.00000000E+00
  0.00000000E+00  0.00000000E+00  0.00000000E+00
  0.00000000E+00  0.00000000E+00  0.00000000E+00
  0.00000000E+00  0.00000000E+00  0.00000000E+00
  0.00000000E+00  0.00000000E+00  0.00000000E+00
  0.00000000E+00  0.00000000E+00  0.00000000E+00
  0.00000000E+00  0.00000000E+00  0.00000000E+00
  0.00000000E+00  0.00000000E+00  0.00000000E+00
  0.00000000E+00  0.00000000E+00  0.00000000E+00
  0.00000000E+00  0.00000000E+00  0.00000000E+00
