SrTiFeO                                 
   1.00000000000000     
    11.1989999999999998    0.0000000000000000    0.0000000000000000
     0.0000000000000000   11.1989999999999998    0.0000000000000000
     0.0000000000000000    0.0000000000000000   15.9830000000000005
   Sr   Ti   Fe   O 
    32    31     1    94
Direct
  0.9993867428830063  0.2497710700334215  0.1246968151244332
  0.0024608678993872  0.2512737924096334  0.6245512859085198
  0.9993256812580462  0.7502955647906836  0.1253521250101008
  0.0048953239271923  0.7479385603713551  0.6246472717092901
  0.4992053713078514  0.2513213421267083  0.1270721745239508
  0.5002196875172954  0.2523765877338383  0.6206029346179538
  0.4986036520128044  0.7498137787587855  0.1230442384580220
  0.4979937655044774  0.7529092694261192  0.6279571013839450
  0.0005026894258406  0.2496619665476668  0.3749765605674494
  0.0020144331756699  0.2519666782303364  0.8759217930076075
  0.0054724235859800  0.7478866835692147  0.3742455090759904
  0.9993846225348867  0.7506003717158509  0.8751391738505093
  0.5016777105209442  0.2523478168270762  0.3758752668963814
  0.4980516623467874  0.2492205057694898  0.8780379793224017
  0.4970351771274089  0.7514782313282622  0.3707171200891621
  0.5007613644006930  0.7524202750089549  0.8769034115964741
  0.2505589573956864  1.0003426511917537  0.1251172435566367
  0.2512292814930822  0.0011214388483821  0.6247550998420773
  0.2512826828201141  0.4999694863183923  0.1252319615730911
  0.2477598698049907  0.4998764126583361  0.6226534053878049
  0.7487485308340013  0.9996957058381256  0.1247986994297860
  0.7496253514491935  0.0038359207841573  0.6258568483360980
  0.7488708895773035  0.5006623787475858  0.1248721857367223
  0.7599736447290172  0.4969169601274044  0.6261577526938340
  0.2510264169692220  0.0008874094758163  0.3739376830060562
  0.2504342457435213  0.0004377094749053  0.8764776297801962
  0.2518682402019187  0.4997929708409297  0.3752442491790609
  0.2482189458752511  0.4999670409445178  0.8767473639957026
  0.7498069541455338  0.0065110863499027  0.3719291686047291
  0.7491258375682950  0.9967621531502291  0.8772016218064727
  0.7544149941063452  0.4932330033747083  0.3708150525405415
  0.7528396027258547  0.5043404551358115  0.8781906136745273
  0.9994533553679974  0.9998054949385947  0.9997789878863312
  0.0059503597952408  0.0040883626282272  0.5000850118621291
  0.0002163915688424  0.4999530424905851  0.0005259560866522
  0.0005385411630060  0.4981958213104470  0.4992823057710256
  0.5001408225020462  0.0004887509586089  0.0003722112134016
  0.4989464917098703  0.9996464882568155  0.4996481348425139
  0.5001731126101312  0.4988727596330392  1.0002722017265029
  0.2500607353266919  0.2505028937591153  0.0004205043377338
  0.2516723421597865  0.2519156678659731  0.4998691005983272
  0.2497074049303021  0.7499370305933759  0.9997554620076644
  0.2537085011985528  0.7498127124283928  0.4999496988921971
  0.7491852062806081  0.2509079986915250  0.0001410069794999
  0.7493042697990276  0.2514257902728644  0.4998147053698199
  0.7508225702013863  0.7508731528776127  0.0005678598823537
  0.2504771925368250  0.2506415274922432  0.2505391569372781
  0.2511529068998922  0.2495495038196086  0.7498726874996748
  0.2503021620813909  0.7497922839409802  0.2492995086832817
  0.2490649801554385  0.7523951972940245  0.7503909580185217
  0.7508873971844883  0.2495763311361421  0.2490373947642109
  0.7532338807349667  0.2435129060262022  0.7509572913187724
  0.7493018636361379  0.7489685304496899  0.2499605335346577
  0.7497401804613031  0.7492240052516930  0.7499934026950223
  0.9999867111116111  1.0000453797601361  0.2501017162798416
  0.0019560875286934  0.9990617211325086  0.7498087460246825
  0.0011037017969727  0.5001479355277291  0.2494423974549346
  0.0012734154494961  0.5014522475608523  0.7504930317856463
  0.5002577622939840  0.0005905240408214  0.2499371355704502
  0.4994876891835364  0.0014952547420428  0.7501015920953162
  0.5013422028763266  0.5020442099921553  0.2519718704121541
  0.4947120241792295  0.5045394728296806  0.7492228654247676
  0.7561320032415310  0.7623491149027506  0.4994518699939815
  0.4957395717999029  0.4965989673715918  0.5001734592978866
  0.1091728544082271  0.1401874109088845  0.2485298025037425
  0.1059853068963854  0.1415844952473964  0.7520136562134295
  0.1093441856148450  0.6412008557840875  0.2490382255816054
  0.1091893102963999  0.6415994605746539  0.7506757575067013
  0.6102369980780004  0.1405445984977836  0.2508223899479957
  0.6047492887498453  0.1469380835172898  0.7496026027125956
  0.6101338518370106  0.6420200864857534  0.2415931663241459
  0.3908820013010848  0.3607123910244009  0.2540926299185404
  0.3959675924535738  0.3558235286884947  0.7474374713598468
  0.3895929260458427  0.8606860229099279  0.2489109954663219
  0.3915914919498988  0.8577462124757388  0.7506894205105268
  0.8905808652180428  0.3597563993186309  0.2511545769869881
  0.8811885100683138  0.3650433662474007  0.7485362780984508
  0.8893248167653831  0.8583976489628893  0.2562515476955171
  0.8894336049048059  0.8580573293037644  0.7436428950350593
  0.3600269286512320  0.1102896902859865  0.2494905713573282
  0.3559378556455786  0.1061168653034071  0.7508126277000136
  0.3589210583609127  0.6104832024158648  0.2502322130168673
  0.3573936393411630  0.6073468098203738  0.7491930030210086
  0.8596581108461372  0.1084339385685481  0.2485263909411850
  0.8568074760391085  0.1064041498963695  0.7517082649543033
  0.8594301793959660  0.6094828757871958  0.2500079815398120
  0.8608770789717084  0.6112359584064135  0.7496326884437670
  0.1411556310864453  0.3912374137322685  0.2505455156855155
  0.1400800077058301  0.3901744844882700  0.7497925969553918
  0.1393696175848510  0.8903274844484427  0.2494403648298438
  0.1412384259663090  0.8917505562505676  0.7503811698825080
  0.6413532835624000  0.3895514199182307  0.2478408723053970
  0.6411135163557030  0.8902389989345113  0.2520307552489090
  0.6408672640755783  0.8905337352298834  0.7483664793433398
  0.3588666150949511  0.3902290090561913  0.9987696050243317
  0.3602256500650849  0.8898838715248814  0.9999390092696612
  0.3556859084462990  0.8944467525316712  0.5000526363324462
  0.8593404458246268  0.3905268098012847 -0.0001373342864576
  0.8632793147506457  0.3869065516654666  0.5002801170451078
  0.8595298629068543  0.8913265191633004  0.0000946765145305
  0.8561640089049695  0.8923889286920673  0.4997070373971678
  0.1393221451023799  0.1096669681867492  1.0000600963691424
  0.1417166743312439  0.1073272767305639  0.5000071958677972
  0.1404176697954011  0.6094016645627478 -0.0000519637899784
  0.1371366978795028  0.6113916205512724  0.4999109973522383
  0.6408906316540491  0.1098513847687334  0.9987924580690065
  0.6412620377035988  0.1073505210580981  0.5004674690843440
  0.6405063070436472  0.6107546812186766  0.0001059079596398
  0.1093604220389933  0.3592649747754074  0.0000166605933679
  0.1073761771330516  0.3583154334141112  0.5000345396987850
  0.1094207211738818  0.8596286932269261  0.0001666436585228
  0.1056834054363519  0.8586199882356826  0.4998588064502755
  0.6094347967933684  0.3588475197564269  0.0047964315226467
  0.6103400469475648  0.8598165093684429  0.9999576170048534
  0.6035223576614903  0.8489913771049717  0.4998383103020980
  0.3896889344328832  0.1397697836737690  0.0005278477733127
  0.3920146585201221  0.1409309566685058  0.4997979882051757
  0.3904596139205370  0.6392549924603870  0.9959540742164746
  0.3932050481275273  0.6469161732147708  0.5028652109245855
  0.8898341022234050  0.1409625762005643  0.9956022790775011
  0.8907083661149542  0.1392466301516592  0.5036042332664882
  0.8902203474091706  0.6403965803103342  0.9991747692584524
  0.9970586980967544  0.9984790095527838  0.1248280357421856
  0.0008506696966847  0.0008589124318338  0.6253182318360030
  0.9995229094063195  0.4994378907358207  0.1249610118669131
  0.0015041105312427  0.5008639968025036  0.6249849682647749
  0.5018284098549862  0.0002269809371950  0.1250771162495146
  0.5002375685203951  0.9991848576948098  0.6249174062147600
  0.4955337405898226  0.4996896633702535  0.1237251801758176
  0.9994350646974896  0.0031588402331905  0.3755176841531329
  0.9983460058424629  0.9952651621400423  0.8741915107169244
  0.0002085197173120  0.5018652301786017  0.3751264219815624
  0.0002253104960084  0.4987115394402413  0.8748015329617737
  0.5000118300102564  0.9998681567713699  0.3753704570012373
  0.5011733622605671  0.9995257488572961  0.8747324472154515
  0.5078688836698219  0.4886550487872582  0.8742335240681389
  0.2475567396248326  0.2477134990128137  0.3749140651268596
  0.2502284036176772  0.2507346566082427  0.8748861768107183
  0.2491893519997047  0.7504302116991368  0.3748281851191267
  0.2491695905564576  0.7506421730188734  0.8745693307471206
  0.7533482616272972  0.2462858760571882  0.3743397366545959
  0.7411410176600176  0.2605475364895330  0.8730517911788014
  0.7359539839727185  0.7342937424842060  0.3789017005989176
  0.7534272997761390  0.7541155855332221  0.8746194605850387
  0.2515302016813896  0.2518935805181370  0.1252873625794532
  0.2460622622492282  0.2459513076701896  0.6259875402277530
  0.2513682467248333  0.7492268931379027  0.1241966426358010
  0.2477215373828879  0.7513262042474341  0.6258759410237863
  0.7532173582489241  0.2475381805101377  0.1244602834977160
  0.7431403807536812  0.2550484209659630  0.6272995608770319
  0.7547134574781960  0.7537930368313445  0.1251925197538928
  0.6134946583857268  0.6350318548301901  0.7580096920954933
  0.5116381205398457  0.5130634443967618  0.3715411558843774
  0.6190305226887415  0.3644833431652506  0.4958288369025003
  0.3516174989299016  0.3873364882728473  0.5024242845638419
  0.7350399720356214  0.7359079884833685  0.6210849007397995
  0.8747712861180519  0.6325263865430441  0.5011444993821735
  0.5248106603120818  0.4959519721995225  0.6316184677860556
 
  0.00000000E+00  0.00000000E+00  0.00000000E+00
  0.00000000E+00  0.00000000E+00  0.00000000E+00
  0.00000000E+00  0.00000000E+00  0.00000000E+00
  0.00000000E+00  0.00000000E+00  0.00000000E+00
  0.00000000E+00  0.00000000E+00  0.00000000E+00
  0.00000000E+00  0.00000000E+00  0.00000000E+00
  0.00000000E+00  0.00000000E+00  0.00000000E+00
  0.00000000E+00  0.00000000E+00  0.00000000E+00
  0.00000000E+00  0.00000000E+00  0.00000000E+00
  0.00000000E+00  0.00000000E+00  0.00000000E+00
  0.00000000E+00  0.00000000E+00  0.00000000E+00
  0.00000000E+00  0.00000000E+00  0.00000000E+00
  0.00000000E+00  0.00000000E+00  0.00000000E+00
  0.00000000E+00  0.00000000E+00  0.00000000E+00
  0.00000000E+00  0.00000000E+00  0.00000000E+00
  0.00000000E+00  0.00000000E+00  0.00000000E+00
  0.00000000E+00  0.00000000E+00  0.00000000E+00
  0.00000000E+00  0.00000000E+00  0.00000000E+00
  0.00000000E+00  0.00000000E+00  0.00000000E+00
  0.00000000E+00  0.00000000E+00  0.00000000E+00
  0.00000000E+00  0.00000000E+00  0.00000000E+00
  0.00000000E+00  0.00000000E+00  0.00000000E+00
  0.00000000E+00  0.00000000E+00  0.00000000E+00
  0.00000000E+00  0.00000000E+00  0.00000000E+00
  0.00000000E+00  0.00000000E+00  0.00000000E+00
  0.00000000E+00  0.00000000E+00  0.00000000E+00
  0.00000000E+00  0.00000000E+00  0.00000000E+00
  0.00000000E+00  0.00000000E+00  0.00000000E+00
  0.00000000E+00  0.00000000E+00  0.00000000E+00
  0.00000000E+00  0.00000000E+00  0.00000000E+00
  0.00000000E+00  0.00000000E+00  0.00000000E+00
  0.00000000E+00  0.00000000E+00  0.00000000E+00
  0.00000000E+00  0.00000000E+00  0.00000000E+00
  0.00000000E+00  0.00000000E+00  0.00000000E+00
  0.00000000E+00  0.00000000E+00  0.00000000E+00
  0.00000000E+00  0.00000000E+00  0.00000000E+00
  0.00000000E+00  0.00000000E+00  0.00000000E+00
  0.00000000E+00  0.00000000E+00  0.00000000E+00
  0.00000000E+00  0.00000000E+00  0.00000000E+00
  0.00000000E+00  0.00000000E+00  0.00000000E+00
  0.00000000E+00  0.00000000E+00  0.00000000E+00
  0.00000000E+00  0.00000000E+00  0.00000000E+00
  0.00000000E+00  0.00000000E+00  0.00000000E+00
  0.00000000E+00  0.00000000E+00  0.00000000E+00
  0.00000000E+00  0.00000000E+00  0.00000000E+00
  0.00000000E+00  0.00000000E+00  0.00000000E+00
  0.00000000E+00  0.00000000E+00  0.00000000E+00
  0.00000000E+00  0.00000000E+00  0.00000000E+00
  0.00000000E+00  0.00000000E+00  0.00000000E+00
  0.00000000E+00  0.00000000E+00  0.00000000E+00
  0.00000000E+00  0.00000000E+00  0.00000000E+00
  0.00000000E+00  0.00000000E+00  0.00000000E+00
  0.00000000E+00  0.00000000E+00  0.00000000E+00
  0.00000000E+00  0.00000000E+00  0.00000000E+00
  0.00000000E+00  0.00000000E+00  0.00000000E+00
  0.00000000E+00  0.00000000E+00  0.00000000E+00
  0.00000000E+00  0.00000000E+00  0.00000000E+00
  0.00000000E+00  0.00000000E+00  0.00000000E+00
  0.00000000E+00  0.00000000E+00  0.00000000E+00
  0.00000000E+00  0.00000000E+00  0.00000000E+00
  0.00000000E+00  0.00000000E+00  0.00000000E+00
  0.00000000E+00  0.00000000E+00  0.00000000E+00
  0.00000000E+00  0.00000000E+00  0.00000000E+00
  0.00000000E+00  0.00000000E+00  0.00000000E+00
  0.00000000E+00  0.00000000E+00  0.00000000E+00
  0.00000000E+00  0.00000000E+00  0.00000000E+00
  0.00000000E+00  0.00000000E+00  0.00000000E+00
  0.00000000E+00  0.00000000E+00  0.00000000E+00
  0.00000000E+00  0.00000000E+00  0.00000000E+00
  0.00000000E+00  0.00000000E+00  0.00000000E+00
  0.00000000E+00  0.00000000E+00  0.00000000E+00
  0.00000000E+00  0.00000000E+00  0.00000000E+00
  0.00000000E+00  0.00000000E+00  0.00000000E+00
  0.00000000E+00  0.00000000E+00  0.00000000E+00
  0.00000000E+00  0.00000000E+00  0.00000000E+00
  0.00000000E+00  0.00000000E+00  0.00000000E+00
  0.00000000E+00  0.00000000E+00  0.00000000E+00
  0.00000000E+00  0.00000000E+00  0.00000000E+00
  0.00000000E+00  0.00000000E+00  0.00000000E+00
  0.00000000E+00  0.00000000E+00  0.00000000E+00
  0.00000000E+00  0.00000000E+00  0.00000000E+00
  0.00000000E+00  0.00000000E+00  0.00000000E+00
  0.00000000E+00  0.00000000E+00  0.00000000E+00
  0.00000000E+00  0.00000000E+00  0.00000000E+00
  0.00000000E+00  0.00000000E+00  0.00000000E+00
  0.00000000E+00  0.00000000E+00  0.00000000E+00
  0.00000000E+00  0.00000000E+00  0.00000000E+00
  0.00000000E+00  0.00000000E+00  0.00000000E+00
  0.00000000E+00  0.00000000E+00  0.00000000E+00
  0.00000000E+00  0.00000000E+00  0.00000000E+00
  0.00000000E+00  0.00000000E+00  0.00000000E+00
  0.00000000E+00  0.00000000E+00  0.00000000E+00
  0.00000000E+00  0.00000000E+00  0.00000000E+00
  0.00000000E+00  0.00000000E+00  0.00000000E+00
  0.00000000E+00  0.00000000E+00  0.00000000E+00
  0.00000000E+00  0.00000000E+00  0.00000000E+00
  0.00000000E+00  0.00000000E+00  0.00000000E+00
  0.00000000E+00  0.00000000E+00  0.00000000E+00
  0.00000000E+00  0.00000000E+00  0.00000000E+00
  0.00000000E+00  0.00000000E+00  0.00000000E+00
  0.00000000E+00  0.00000000E+00  0.00000000E+00
  0.00000000E+00  0.00000000E+00  0.00000000E+00
  0.00000000E+00  0.00000000E+00  0.00000000E+00
  0.00000000E+00  0.00000000E+00  0.00000000E+00
  0.00000000E+00  0.00000000E+00  0.00000000E+00
  0.00000000E+00  0.00000000E+00  0.00000000E+00
  0.00000000E+00  0.00000000E+00  0.00000000E+00
  0.00000000E+00  0.00000000E+00  0.00000000E+00
  0.00000000E+00  0.00000000E+00  0.00000000E+00
  0.00000000E+00  0.00000000E+00  0.00000000E+00
  0.00000000E+00  0.00000000E+00  0.00000000E+00
  0.00000000E+00  0.00000000E+00  0.00000000E+00
  0.00000000E+00  0.00000000E+00  0.00000000E+00
  0.00000000E+00  0.00000000E+00  0.00000000E+00
  0.00000000E+00  0.00000000E+00  0.00000000E+00
  0.00000000E+00  0.00000000E+00  0.00000000E+00
  0.00000000E+00  0.00000000E+00  0.00000000E+00
  0.00000000E+00  0.00000000E+00  0.00000000E+00
  0.00000000E+00  0.00000000E+00  0.00000000E+00
  0.00000000E+00  0.00000000E+00  0.00000000E+00
  0.00000000E+00  0.00000000E+00  0.00000000E+00
  0.00000000E+00  0.00000000E+00  0.00000000E+00
  0.00000000E+00  0.00000000E+00  0.00000000E+00
  0.00000000E+00  0.00000000E+00  0.00000000E+00
  0.00000000E+00  0.00000000E+00  0.00000000E+00
  0.00000000E+00  0.00000000E+00  0.00000000E+00
  0.00000000E+00  0.00000000E+00  0.00000000E+00
  0.00000000E+00  0.00000000E+00  0.00000000E+00
  0.00000000E+00  0.00000000E+00  0.00000000E+00
  0.00000000E+00  0.00000000E+00  0.00000000E+00
  0.00000000E+00  0.00000000E+00  0.00000000E+00
  0.00000000E+00  0.00000000E+00  0.00000000E+00
  0.00000000E+00  0.00000000E+00  0.00000000E+00
  0.00000000E+00  0.00000000E+00  0.00000000E+00
  0.00000000E+00  0.00000000E+00  0.00000000E+00
  0.00000000E+00  0.00000000E+00  0.00000000E+00
  0.00000000E+00  0.00000000E+00  0.00000000E+00
  0.00000000E+00  0.00000000E+00  0.00000000E+00
  0.00000000E+00  0.00000000E+00  0.00000000E+00
  0.00000000E+00  0.00000000E+00  0.00000000E+00
  0.00000000E+00  0.00000000E+00  0.00000000E+00
  0.00000000E+00  0.00000000E+00  0.00000000E+00
  0.00000000E+00  0.00000000E+00  0.00000000E+00
  0.00000000E+00  0.00000000E+00  0.00000000E+00
  0.00000000E+00  0.00000000E+00  0.00000000E+00
  0.00000000E+00  0.00000000E+00  0.00000000E+00
  0.00000000E+00  0.00000000E+00  0.00000000E+00
  0.00000000E+00  0.00000000E+00  0.00000000E+00
  0.00000000E+00  0.00000000E+00  0.00000000E+00
  0.00000000E+00  0.00000000E+00  0.00000000E+00
  0.00000000E+00  0.00000000E+00  0.00000000E+00
  0.00000000E+00  0.00000000E+00  0.00000000E+00
  0.00000000E+00  0.00000000E+00  0.00000000E+00
  0.00000000E+00  0.00000000E+00  0.00000000E+00
  0.00000000E+00  0.00000000E+00  0.00000000E+00
  0.00000000E+00  0.00000000E+00  0.00000000E+00
  0.00000000E+00  0.00000000E+00  0.00000000E+00
  0.00000000E+00  0.00000000E+00  0.00000000E+00
