Sr   Ti   Fe   O                        
   1.00000000000000     
    11.1989999999999998    0.0000000000000000    0.0000000000000000
     0.0000000000000000   11.1989999999999998    0.0000000000000000
     0.0000000000000000    0.0000000000000000   15.9830000000000005
   Sr   Ti   Fe   O 
    32    30     2    94
Direct
  0.9984009658119460  0.2543611063586301  0.1244212224523360
  0.0006408962457350  0.2493808044652836  0.6261773220920743
  0.9974322105131836  0.7535164687066946  0.1257561567151096
  0.0077392691681395  0.7604792322578218  0.6258941608545516
  0.4991991028152171  0.2556557728171153  0.1247786470373764
  0.4975095123798979  0.2544476487483245  0.6278064969031195
  0.4995174317466737  0.7531630298142395  0.1242423001398016
  0.4983439784101055  0.7573319005711757  0.6286890703589926
  0.0006408962457350  0.2493808044652836  0.3738226779079187
  0.9984009658119460  0.2543611063586301  0.8755787775476703
  0.0077392691681395  0.7604792322578218  0.3741058391454207
  0.9974322105131836  0.7535164687066946  0.8742438432848915
  0.4975095123798979  0.2544476487483245  0.3721935030968874
  0.4991991028152171  0.2556557728171153  0.8752213529626379
  0.4983439784101055  0.7573319005711757  0.3713109296410141
  0.4995174317466737  0.7531630298142395  0.8757576998601702
  0.2488333902130299  0.0040784192883938  0.1251012701719239
  0.2514564351089764  0.0040228429554611  0.6246667140133850
  0.2500107530725612  0.5031701421234087  0.1255826452846956
  0.2669093983912940  0.5039213163729273  0.6241111617831897
  0.7492212429927185  0.0034362347385679  0.1261959783805211
  0.7506678694983069  0.0069609110740815  0.6226085579098541
  0.7490409186604926  0.5054982952296252  0.1222334786673814
  0.7488040247632763  0.5017430825952042  0.6383025909073049
  0.2514564351089764  0.0040228429554611  0.3753332859865665
  0.2488333902130299  0.0040784192883938  0.8748987298280840
  0.2669093983912940  0.5039213163729273  0.3758888382167885
  0.2500107530725612  0.5031701421234087  0.8744173547153046
  0.7506678694983069  0.0069609110740815  0.3773914420901737
  0.7492212429927185  0.0034362347385679  0.8738040216194783
  0.7488040247632763  0.5017430825952042  0.3616974090926883
  0.7490409186604926  0.5054982952296252  0.8777665213326115
  0.9986974594457736  0.0027471515783569 -0.0000000000000000
  0.0022505826416349  0.0057224662353781  0.5000000000000000
  0.0006453508768570  0.5027962450644158 -0.0000000000000000
  0.0162736179596686  0.4965310694177371  0.5000000000000000
  0.4991579295478674  0.0031554349854380 -0.0000000000000000
  0.5023419559607780  0.0085310414307848  0.5000000000000000
  0.4982904342156971  0.5038537263219636 -0.0000000000000000
  0.2485173636203284  0.2536969408371102 -0.0000000000000000
  0.2569374891397716  0.2505035402698734  0.5000000000000000
  0.2488756793207665  0.7537904764748221 -0.0000000000000000
  0.2555557388343586  0.7551918641608755  0.5000000000000000
  0.7502165589478861  0.2521958831583695 -0.0000000000000000
  0.7488157367102278  0.7555171504342972 -0.0000000000000000
  0.2486713052014116  0.2544335299237468  0.2501870520712124
  0.2486713052014116  0.2544335299237468  0.7498129479288023
  0.2499169712555186  0.7539883165737792  0.2494935356706660
  0.2499169712555186  0.7539883165737792  0.7505064643293194
  0.7495030576862335  0.2544177369426749  0.2491669608797449
  0.7495030576862335  0.2544177369426749  0.7508330391202622
  0.7498179769732675  0.7534923417079165  0.2515418388069723
  0.7498179769732675  0.7534923417079165  0.7484581611930343
  0.9997762481538178  0.0046866120904065  0.2502378866564676
  0.9997762481538178  0.0046866120904065  0.7497621133435336
  0.0002934446473605  0.5060516295271128  0.2505785339461811
  0.0002934446473605  0.5060516295271128  0.7494214660538115
  0.4999937552077016  0.0049813400456232  0.2498764189410393
  0.4999937552077016  0.0049813400456232  0.7501235810589609
  0.5004907390354024  0.5047253702739445  0.2493119647748260
  0.5004907390354024  0.5047253702739445  0.7506880352251875
  0.7513254464353949  0.2679216293203481  0.5000000000000000
  0.5084467515003598  0.4978926912573922  0.5000000000000000
  0.7536097736207861  0.7662414642816214  0.5000000000000000
  0.1097068574157371  0.1441321997676057  0.2474694645838548
  0.1097068574157371  0.1441321997676057  0.7525305354160947
  0.1104674295837013  0.6443496761909592  0.2501091538418788
  0.1104674295837013  0.6443496761909592  0.7498908461581286
  0.6112677456936877  0.1435012896239292  0.2482137480301927
  0.6112677456936877  0.1435012896239292  0.7517862519697998
  0.6115536619125230  0.6440028426668953  0.2452999669929679
  0.6115536619125230  0.6440028426668953  0.7547000330070324
  0.3859106942948335  0.3667163746480750  0.2483043819329071
  0.3859106942948335  0.3667163746480750  0.7516956180671072
  0.3892601120260325  0.8657784126983354  0.2511359297056533
  0.3892601120260325  0.8657784126983354  0.7488640702943549
  0.8879675788477284  0.3677787738435463  0.2523046048880987
  0.8879675788477284  0.3677787738435463  0.7476953951118936
  0.8868518647284419  0.8665889508901962  0.2539382430901108
  0.8868518647284419  0.8665889508901962  0.7460617569098743
  0.3604493742152857  0.1164610960857997  0.2477839652707954
  0.3604493742152857  0.1164610960857997  0.7522160347292112
  0.3605505792908271  0.6169931815412649  0.2486062832430475
  0.3605505792908271  0.6169931815412649  0.7513937167569458
  0.8604235333914609  0.1171756610131429  0.2541052449199022
  0.8604235333914609  0.1171756610131429  0.7458947550800973
  0.8620907892421670  0.6174434997909077  0.2421347385479846
  0.8620907892421670  0.6174434997909077  0.7578652614520438
  0.1365407568998218  0.3957210848749704  0.2582481839900842
  0.1365407568998218  0.3957210848749704  0.7417518160099155
  0.1379233878396305  0.8936664496450833  0.2507015159716489
  0.1379233878396305  0.8936664496450833  0.7492984840283587
  0.6380951576749592  0.3920760267740642  0.2419624922154741
  0.6380951576749592  0.3920760267740642  0.7580375077845187
  0.6385510207276265  0.8927394787530113  0.2551185376661532
  0.6385510207276265  0.8927394787530113  0.7448814623338689
  0.3581109994385911  0.3934704164889758 -0.0000000000000000
  0.3574472542099493  0.8953812897728330 -0.0000000000000000
  0.3900237387550747  0.8694106029421927  0.5000000000000000
  0.8598244470019037  0.3940650926879306 -0.0000000000000000
  0.8578539250459570  0.8954978620629868 -0.0000000000000000
  0.9005916262999483  0.8666098161462199  0.5000000000000000
  0.1402959146930263  0.1114348231056259 -0.0000000000000000
  0.1091272804578825  0.1492830797027957  0.5000000000000000
  0.1403518290315364  0.6123399383818425 -0.0000000000000000
  0.1076247377262954  0.6483154066162842  0.5000000000000000
  0.6402763401391272  0.1127211194136383 -0.0000000000000000
  0.6059076702581087  0.1602811156816952  0.5000000000000000
  0.6396939899124050  0.6148592113906148 -0.0000000000000000
  0.1076304600233588  0.3617504248273095 -0.0000000000000000
  0.1510068601978594  0.4023099955228122  0.5000000000000000
  0.1066571987181630  0.8622392741578758 -0.0000000000000000
  0.1438675183111340  0.8978766521311786  0.5000000000000000
  0.6104241475616096  0.3630128978483188 -0.0000000000000000
  0.6068489674854419  0.8631120910695436 -0.0000000000000000
  0.6340384397247968  0.9007998108400093  0.5000000000000000
  0.3893715008188899  0.1444958997733932 -0.0000000000000000
  0.3569658080144634  0.1115900209696710  0.5000000000000000
  0.3884809735572323  0.6456070667693640 -0.0000000000000000
  0.8913811688645811  0.1440320141140784 -0.0000000000000000
  0.8577822486276432  0.1212687161952781  0.5000000000000000
  0.8893660930335845  0.6431802232911765 -0.0000000000000000
  0.9963833479102163  0.0031885000656452  0.1257332193489831
  0.0027826098924100  0.0085298019172204  0.6252686868194429
  0.0038248930926695  0.5008883118834162  0.1257257318375275
  0.9829217695771334  0.5219839347559811  0.6197204220468084
  0.5003981173218240  0.0023551820414715  0.1251889829300198
  0.4989142529046708  0.0108148241298491  0.6255061984586375
  0.4967398668818436  0.5051873498759881  0.1227757304976335
  0.5055875803630525  0.5056890851269555  0.6313936989517082
  0.0027826098924100  0.0085298019172204  0.3747313131805634
  0.9963833479102163  0.0031885000656452  0.8742667806510167
  0.9829217695771334  0.5219839347559811  0.3802795779531977
  0.0038248930926695  0.5008883118834162  0.8742742681624721
  0.4989142529046708  0.0108148241298491  0.3744938015413761
  0.5003981173218240  0.0023551820414715  0.8748110170699872
  0.4967398668818436  0.5051873498759881  0.8772242695023807
  0.2502802252775964  0.2514265322870233  0.3743252555864275
  0.2455174144570845  0.2574751115224764  0.8748842150390786
  0.2510436746232303  0.7544766630112687  0.3745759039126929
  0.2483291280001787  0.7561973655778614  0.8749533733620593
  0.7544922528036062  0.2510834258191746  0.8753109038963495
  0.7490091359758958  0.7601295780434586  0.8751258837143224
  0.2455174144570845  0.2574751115224764  0.1251157849609142
  0.2502802252775964  0.2514265322870233  0.6256747444135874
  0.2483291280001787  0.7561973655778614  0.1250466266379263
  0.2510436746232303  0.7544766630112687  0.6254240960873211
  0.7544922528036062  0.2510834258191746  0.1246890961036572
  0.7421522635723206  0.2638675672790649  0.6246567592925846
  0.7490091359758958  0.7601295780434586  0.1248741162856700
  0.7473678999423885  0.7345878746824941  0.6216274804545606
  0.7421522635723206  0.2638675672790649  0.3753432407073952
  0.9043657017857326  0.3619924157063100  0.5000000000000000
  0.3725598304865734  0.6254533573911536  0.5000000000000000
  0.5055875803630525  0.5056890851269555  0.3686063010482915
  0.3914350298897228  0.3565639326503612  0.5000000000000000
  0.7473678999423885  0.7345878746824941  0.3783725195454460
  0.6775983516364182  0.4419161882982474  0.5000000000000000
 
  0.00000000E+00  0.00000000E+00  0.00000000E+00
  0.00000000E+00  0.00000000E+00  0.00000000E+00
  0.00000000E+00  0.00000000E+00  0.00000000E+00
  0.00000000E+00  0.00000000E+00  0.00000000E+00
  0.00000000E+00  0.00000000E+00  0.00000000E+00
  0.00000000E+00  0.00000000E+00  0.00000000E+00
  0.00000000E+00  0.00000000E+00  0.00000000E+00
  0.00000000E+00  0.00000000E+00  0.00000000E+00
  0.00000000E+00  0.00000000E+00  0.00000000E+00
  0.00000000E+00  0.00000000E+00  0.00000000E+00
  0.00000000E+00  0.00000000E+00  0.00000000E+00
  0.00000000E+00  0.00000000E+00  0.00000000E+00
  0.00000000E+00  0.00000000E+00  0.00000000E+00
  0.00000000E+00  0.00000000E+00  0.00000000E+00
  0.00000000E+00  0.00000000E+00  0.00000000E+00
  0.00000000E+00  0.00000000E+00  0.00000000E+00
  0.00000000E+00  0.00000000E+00  0.00000000E+00
  0.00000000E+00  0.00000000E+00  0.00000000E+00
  0.00000000E+00  0.00000000E+00  0.00000000E+00
  0.00000000E+00  0.00000000E+00  0.00000000E+00
  0.00000000E+00  0.00000000E+00  0.00000000E+00
  0.00000000E+00  0.00000000E+00  0.00000000E+00
  0.00000000E+00  0.00000000E+00  0.00000000E+00
  0.00000000E+00  0.00000000E+00  0.00000000E+00
  0.00000000E+00  0.00000000E+00  0.00000000E+00
  0.00000000E+00  0.00000000E+00  0.00000000E+00
  0.00000000E+00  0.00000000E+00  0.00000000E+00
  0.00000000E+00  0.00000000E+00  0.00000000E+00
  0.00000000E+00  0.00000000E+00  0.00000000E+00
  0.00000000E+00  0.00000000E+00  0.00000000E+00
  0.00000000E+00  0.00000000E+00  0.00000000E+00
  0.00000000E+00  0.00000000E+00  0.00000000E+00
  0.00000000E+00  0.00000000E+00  0.00000000E+00
  0.00000000E+00  0.00000000E+00  0.00000000E+00
  0.00000000E+00  0.00000000E+00  0.00000000E+00
  0.00000000E+00  0.00000000E+00  0.00000000E+00
  0.00000000E+00  0.00000000E+00  0.00000000E+00
  0.00000000E+00  0.00000000E+00  0.00000000E+00
  0.00000000E+00  0.00000000E+00  0.00000000E+00
  0.00000000E+00  0.00000000E+00  0.00000000E+00
  0.00000000E+00  0.00000000E+00  0.00000000E+00
  0.00000000E+00  0.00000000E+00  0.00000000E+00
  0.00000000E+00  0.00000000E+00  0.00000000E+00
  0.00000000E+00  0.00000000E+00  0.00000000E+00
  0.00000000E+00  0.00000000E+00  0.00000000E+00
  0.00000000E+00  0.00000000E+00  0.00000000E+00
  0.00000000E+00  0.00000000E+00  0.00000000E+00
  0.00000000E+00  0.00000000E+00  0.00000000E+00
  0.00000000E+00  0.00000000E+00  0.00000000E+00
  0.00000000E+00  0.00000000E+00  0.00000000E+00
  0.00000000E+00  0.00000000E+00  0.00000000E+00
  0.00000000E+00  0.00000000E+00  0.00000000E+00
  0.00000000E+00  0.00000000E+00  0.00000000E+00
  0.00000000E+00  0.00000000E+00  0.00000000E+00
  0.00000000E+00  0.00000000E+00  0.00000000E+00
  0.00000000E+00  0.00000000E+00  0.00000000E+00
  0.00000000E+00  0.00000000E+00  0.00000000E+00
  0.00000000E+00  0.00000000E+00  0.00000000E+00
  0.00000000E+00  0.00000000E+00  0.00000000E+00
  0.00000000E+00  0.00000000E+00  0.00000000E+00
  0.00000000E+00  0.00000000E+00  0.00000000E+00
  0.00000000E+00  0.00000000E+00  0.00000000E+00
  0.00000000E+00  0.00000000E+00  0.00000000E+00
  0.00000000E+00  0.00000000E+00  0.00000000E+00
  0.00000000E+00  0.00000000E+00  0.00000000E+00
  0.00000000E+00  0.00000000E+00  0.00000000E+00
  0.00000000E+00  0.00000000E+00  0.00000000E+00
  0.00000000E+00  0.00000000E+00  0.00000000E+00
  0.00000000E+00  0.00000000E+00  0.00000000E+00
  0.00000000E+00  0.00000000E+00  0.00000000E+00
  0.00000000E+00  0.00000000E+00  0.00000000E+00
  0.00000000E+00  0.00000000E+00  0.00000000E+00
  0.00000000E+00  0.00000000E+00  0.00000000E+00
  0.00000000E+00  0.00000000E+00  0.00000000E+00
  0.00000000E+00  0.00000000E+00  0.00000000E+00
  0.00000000E+00  0.00000000E+00  0.00000000E+00
  0.00000000E+00  0.00000000E+00  0.00000000E+00
  0.00000000E+00  0.00000000E+00  0.00000000E+00
  0.00000000E+00  0.00000000E+00  0.00000000E+00
  0.00000000E+00  0.00000000E+00  0.00000000E+00
  0.00000000E+00  0.00000000E+00  0.00000000E+00
  0.00000000E+00  0.00000000E+00  0.00000000E+00
  0.00000000E+00  0.00000000E+00  0.00000000E+00
  0.00000000E+00  0.00000000E+00  0.00000000E+00
  0.00000000E+00  0.00000000E+00  0.00000000E+00
  0.00000000E+00  0.00000000E+00  0.00000000E+00
  0.00000000E+00  0.00000000E+00  0.00000000E+00
  0.00000000E+00  0.00000000E+00  0.00000000E+00
  0.00000000E+00  0.00000000E+00  0.00000000E+00
  0.00000000E+00  0.00000000E+00  0.00000000E+00
  0.00000000E+00  0.00000000E+00  0.00000000E+00
  0.00000000E+00  0.00000000E+00  0.00000000E+00
  0.00000000E+00  0.00000000E+00  0.00000000E+00
  0.00000000E+00  0.00000000E+00  0.00000000E+00
  0.00000000E+00  0.00000000E+00  0.00000000E+00
  0.00000000E+00  0.00000000E+00  0.00000000E+00
  0.00000000E+00  0.00000000E+00  0.00000000E+00
  0.00000000E+00  0.00000000E+00  0.00000000E+00
  0.00000000E+00  0.00000000E+00  0.00000000E+00
  0.00000000E+00  0.00000000E+00  0.00000000E+00
  0.00000000E+00  0.00000000E+00  0.00000000E+00
  0.00000000E+00  0.00000000E+00  0.00000000E+00
  0.00000000E+00  0.00000000E+00  0.00000000E+00
  0.00000000E+00  0.00000000E+00  0.00000000E+00
  0.00000000E+00  0.00000000E+00  0.00000000E+00
  0.00000000E+00  0.00000000E+00  0.00000000E+00
  0.00000000E+00  0.00000000E+00  0.00000000E+00
  0.00000000E+00  0.00000000E+00  0.00000000E+00
  0.00000000E+00  0.00000000E+00  0.00000000E+00
  0.00000000E+00  0.00000000E+00  0.00000000E+00
  0.00000000E+00  0.00000000E+00  0.00000000E+00
  0.00000000E+00  0.00000000E+00  0.00000000E+00
  0.00000000E+00  0.00000000E+00  0.00000000E+00
  0.00000000E+00  0.00000000E+00  0.00000000E+00
  0.00000000E+00  0.00000000E+00  0.00000000E+00
  0.00000000E+00  0.00000000E+00  0.00000000E+00
  0.00000000E+00  0.00000000E+00  0.00000000E+00
  0.00000000E+00  0.00000000E+00  0.00000000E+00
  0.00000000E+00  0.00000000E+00  0.00000000E+00
  0.00000000E+00  0.00000000E+00  0.00000000E+00
  0.00000000E+00  0.00000000E+00  0.00000000E+00
  0.00000000E+00  0.00000000E+00  0.00000000E+00
  0.00000000E+00  0.00000000E+00  0.00000000E+00
  0.00000000E+00  0.00000000E+00  0.00000000E+00
  0.00000000E+00  0.00000000E+00  0.00000000E+00
  0.00000000E+00  0.00000000E+00  0.00000000E+00
  0.00000000E+00  0.00000000E+00  0.00000000E+00
  0.00000000E+00  0.00000000E+00  0.00000000E+00
  0.00000000E+00  0.00000000E+00  0.00000000E+00
  0.00000000E+00  0.00000000E+00  0.00000000E+00
  0.00000000E+00  0.00000000E+00  0.00000000E+00
  0.00000000E+00  0.00000000E+00  0.00000000E+00
  0.00000000E+00  0.00000000E+00  0.00000000E+00
  0.00000000E+00  0.00000000E+00  0.00000000E+00
  0.00000000E+00  0.00000000E+00  0.00000000E+00
  0.00000000E+00  0.00000000E+00  0.00000000E+00
  0.00000000E+00  0.00000000E+00  0.00000000E+00
  0.00000000E+00  0.00000000E+00  0.00000000E+00
  0.00000000E+00  0.00000000E+00  0.00000000E+00
  0.00000000E+00  0.00000000E+00  0.00000000E+00
  0.00000000E+00  0.00000000E+00  0.00000000E+00
  0.00000000E+00  0.00000000E+00  0.00000000E+00
  0.00000000E+00  0.00000000E+00  0.00000000E+00
  0.00000000E+00  0.00000000E+00  0.00000000E+00
  0.00000000E+00  0.00000000E+00  0.00000000E+00
  0.00000000E+00  0.00000000E+00  0.00000000E+00
  0.00000000E+00  0.00000000E+00  0.00000000E+00
  0.00000000E+00  0.00000000E+00  0.00000000E+00
  0.00000000E+00  0.00000000E+00  0.00000000E+00
  0.00000000E+00  0.00000000E+00  0.00000000E+00
  0.00000000E+00  0.00000000E+00  0.00000000E+00
  0.00000000E+00  0.00000000E+00  0.00000000E+00
  0.00000000E+00  0.00000000E+00  0.00000000E+00
  0.00000000E+00  0.00000000E+00  0.00000000E+00
  0.00000000E+00  0.00000000E+00  0.00000000E+00
  0.00000000E+00  0.00000000E+00  0.00000000E+00
  0.00000000E+00  0.00000000E+00  0.00000000E+00
  0.00000000E+00  0.00000000E+00  0.00000000E+00
