SrTiFeO                                 
   1.00000000000000     
    11.1989999999999998    0.0000000000000000    0.0000000000000000
     0.0000000000000000   11.1989999999999998    0.0000000000000000
     0.0000000000000000    0.0000000000000000   15.9830000000000005
   Sr   Ti   Fe   O 
    32    30     2    94
Direct
  0.9997293317560798  0.2504240117752903  0.1242572034089286
  0.0013874291132294  0.2433027195948118  0.6282419124507892
  0.9979992439679889  0.7499316788954908  0.1251711426629780
  0.0069377107622959  0.7546763976876131  0.6274887152708682
  0.4999706132420429  0.2513245731589268  0.1254178576584451
  0.5019008853125591  0.2517130241261163  0.6241762945282426
  0.5004334642475907  0.7494481133651587  0.1234728793589173
  0.4977742483457704  0.7496751867103117  0.6286695903030776
  0.0013874291132294  0.2433027195948118  0.3717580875492107
  0.9997293317560798  0.2504240117752903  0.8757427965910716
  0.0069377107622959  0.7546763976876131  0.3725112847291389
  0.9979992439679889  0.7499316788954908  0.8748288573370220
  0.5019008853125591  0.2517130241261163  0.3758237054717573
  0.4999706132420429  0.2513245731589268  0.8745821423415548
  0.4977742483457704  0.7496751867103117  0.3713304096969223
  0.5004334642475907  0.7494481133651587  0.8765271206410898
  0.2498400825110699  0.0001408244580925  0.1249793195259340
  0.2501072223426768  0.0008173456618998  0.6252922155397236
  0.2504087937671857  0.4994243612571055  0.1249918059350289
  0.2560987068234341  0.5022071376965568  0.6255900676080876
  0.7494614084179986  0.9977256083692674  0.1254115880445324
  0.7530759474939395  0.0029739391517758  0.6241818681827611
  0.7485707078362734  0.5007756600533930  0.1229737953493732
  0.7504820685153889  0.4918512206846277  0.6335539278671881
  0.2501072223426768  0.0008173456618998  0.3747077844602835
  0.2498400825110699  0.0001408244580925  0.8750206804740661
  0.2560987068234341  0.5022071376965568  0.3744099323919124
  0.2504087937671857  0.4994243612571055  0.8750081940649711
  0.7530759474939395  0.0029739391517758  0.3758181318172390
  0.7494614084179986  0.9977256083692674  0.8745884119554677
  0.7504820685153889  0.4918512206846277  0.3664460721328118
  0.7485707078362734  0.5007756600533930  0.8770262046506268
  0.9994997422432047  0.9993280356692509 -0.0000000000000000
  0.0017496037564582  0.0009770452934445  0.5000000000000000
  0.0006783318258005  0.4993389542279219 -0.0000000000000000
  0.0073202127281780  0.4867158493387164  0.5000000000000000
  0.5004527749284952  0.9999794684666331 -0.0000000000000000
  0.4999376182549238  0.9970026524988709  0.5000000000000000
  0.4989935638968975  0.4995761342402855 -0.0000000000000000
  0.2499814741046355  0.2504232224292940 -0.0000000000000000
  0.2552573505092157  0.2459872885225353  0.5000000000000000
  0.2493765799128251  0.7502547805529035 -0.0000000000000000
  0.2526803931065234  0.7516753314356365  0.5000000000000000
  0.7503519486800614  0.2490619238384766 -0.0000000000000000
  0.7500722466944600  0.7511245085406010 -0.0000000000000000
  0.2508221376424507  0.2499671760561227  0.2504663210945038
  0.2508221376424507  0.2499671760561227  0.7495336789054962
  0.2507087186673279  0.7500041087445355  0.2489764339224857
  0.2507087186673279  0.7500041087445355  0.7510235660775144
  0.7502680893080428  0.2487199799990319  0.2488747733501645
  0.7502680893080428  0.2487199799990319  0.7511252266498355
  0.7502037539879770  0.7474568959058221  0.2525946965955020
  0.7502037539879770  0.7474568959058221  0.7474053034044978
  0.0003793223959052  0.9997402557345950  0.2495455825336627
  0.0003793223959052  0.9997402557345950  0.7504544174663372
  0.0002800607693621  0.5009874067112894  0.2499078580735961
  0.0002800607693621  0.5009874067112894  0.7500921419264039
  0.5006183259624333  0.0000953499729351  0.2506079133600452
  0.5006183259624333  0.0000953499729351  0.7493920866399547
  0.5009294991384013  0.5006552052165942  0.2505787016645075
  0.5009294991384013  0.5006552052165942  0.7494212983354924
  0.7479942673130606  0.2526116145801001  0.5000000000000000
  0.4919780271394141  0.4954936243221194  0.5000000000000000
  0.7461933691311352  0.7634919215382325  0.5000000000000000
  0.1092739120748162  0.1402493408730958  0.2463020699539241
  0.1092739120748162  0.1402493408730958  0.7536979300460759
  0.1090782701081174  0.6410448459938032  0.2493110688150649
  0.1090782701081174  0.6410448459938032  0.7506889311849352
  0.6101325710959872  0.1400699330959597  0.2501732985662388
  0.6101325710959872  0.1400699330959597  0.7498267014337612
  0.6103915930217260  0.6411461869341459  0.2436179716154407
  0.6103915930217260  0.6411461869341459  0.7563820283845593
  0.3897169361882528  0.3601158970633175  0.2522183104879007
  0.3897169361882528  0.3601158970633175  0.7477816895120994
  0.3903984293950041  0.8599470483117038  0.2490105107226643
  0.3903984293950041  0.8599470483117038  0.7509894892773358
  0.8905211653194393  0.3600931465341734  0.2524519530567162
  0.8905211653194393  0.3600931465341734  0.7475480469432838
  0.8896431028160532  0.8585451543694755  0.2553157442727967
  0.8896431028160532  0.8585451543694755  0.7446842557272032
  0.3598551616937162  0.1097886968975444  0.2477112969290652
  0.3598551616937162  0.1097886968975444  0.7522887030709349
  0.3590112224124453  0.6103583026456094  0.2484458037757138
  0.3590112224124453  0.6103583026456094  0.7515541962242862
  0.8595365551198245  0.1087259653754080  0.2498801134549833
  0.8595365551198245  0.1087259653754080  0.7501198865450166
  0.8598358253519064  0.6083732752327985  0.2440104627045918
  0.8598358253519064  0.6083732752327985  0.7559895372954083
  0.1392936981275300  0.3916874025657635  0.2552382753833819
  0.1392936981275300  0.3916874025657635  0.7447617246166182
  0.1395917853308677  0.8898721990022953  0.2507005543015478
  0.1395917853308677  0.8898721990022953  0.7492994456984523
  0.6407590283360662  0.3884607307148508  0.2460767645307509
  0.6407590283360662  0.3884607307148508  0.7539232354692491
  0.6412627231198204  0.8887621303798944  0.2567737442612731
  0.6412627231198204  0.8887621303798944  0.7432262557387268
  0.3585721810481122  0.3902209632577064 -0.0000000000000000
  0.3594989932081077  0.8911649960967813 -0.0000000000000000
  0.3525163807166743  0.8971002979124572  0.5000000000000000
  0.8598926892452712  0.3903598224264894 -0.0000000000000000
  0.8591477231103581  0.8913286553775521 -0.0000000000000000
  0.8686696579542000  0.8913595062421574  0.5000000000000000
  0.1407507588126845  0.1088196944554039 -0.0000000000000000
  0.1429412465093162  0.1078929241131328  0.5000000000000000
  0.1404728714235604  0.6089368060558549 -0.0000000000000000
  0.1292778808622128  0.6142159808704202  0.5000000000000000
  0.6414171470447244  0.1090414444500911 -0.0000000000000000
  0.6430699728008598  0.1081582283672042  0.5000000000000000
  0.6401373432070854  0.6108608385769279 -0.0000000000000000
  0.1090155918675481  0.3584511366409692 -0.0000000000000000
  0.1005214148352697  0.3523226031532301  0.5000000000000000
  0.1087401008871923  0.8589357830048606 -0.0000000000000000
  0.1102648453373427  0.8604662818376980  0.5000000000000000
  0.6105105436453523  0.3589396197969560 -0.0000000000000000
  0.6091453279474317  0.8594907626032505 -0.0000000000000000
  0.5934613992544998  0.8538390332697724  0.5000000000000000
  0.3908842761480850  0.1403771250134180 -0.0000000000000000
  0.3944151558899990  0.1448891202960915  0.5000000000000000
  0.3896554635938507  0.6410449636995311 -0.0000000000000000
  0.8919915674240081  0.1405317886025643 -0.0000000000000000
  0.8929854339922682  0.1466079007775892  0.5000000000000000
  0.8902731039413183  0.6396101454356249 -0.0000000000000000
  0.9980091451817307  0.9964342127483999  0.1251999424511590
  0.0023238176533577  0.0046223099672922  0.6259299711987716
  0.0028150274824568  0.4967163606880289  0.1253005967323307
  0.9896814498074484  0.5137790735998813  0.6217646280673715
  0.5035248056755298  0.9982975719699710  0.1254615570033004
  0.4968814445233797  0.0031261468484264  0.6251363467477928
  0.4979683187062251  0.4980875587370646  0.1235376271344208
  0.5091103032371945  0.5079441999913140  0.6297708377215974
  0.0023238176533577  0.0046223099672922  0.3740700288012284
  0.9980091451817307  0.9964342127483999  0.8748000575488409
  0.9896814498074484  0.5137790735998813  0.3782353719326285
  0.0028150274824568  0.4967163606880289  0.8746994032676693
  0.4968814445233797  0.0031261468484264  0.3748636532522072
  0.5035248056755298  0.9982975719699710  0.8745384429966997
  0.4979683187062251  0.4980875587370646  0.8764623728655793
  0.2476962160105632  0.2449549195863998  0.3741606464946949
  0.2495820466824145  0.2533965267269768  0.8748381923838804
  0.2495873854125745  0.7495051418634328  0.3741781903818267
  0.2489551076587250  0.7513970447850079  0.8753521484675050
  0.7527185518334156  0.2484806265386503  0.8752561358205834
  0.7516792293649054  0.7555756050990561  0.8746795937638669
  0.2495820466824145  0.2533965267269768  0.1251618076161196
  0.2476962160105632  0.2449549195863998  0.6258393535053050
  0.2489551076587250  0.7513970447850079  0.1246478515324950
  0.2495873854125745  0.7495051418634328  0.6258218096181732
  0.7527185518334156  0.2484806265386503  0.1247438641794167
  0.7508716507179186  0.2498136147862698  0.6254259748229622
  0.7516792293649054  0.7555756050990561  0.1253204062361331
  0.7512270271834909  0.7239314993149647  0.6206744221705421
  0.7508716507179186  0.2498136147862698  0.3745740251770377
  0.8510045144937257  0.4087859651123044  0.5000000000000000
  0.3909211252433985  0.6472978846514499  0.5000000000000000
  0.5091103032371945  0.5079441999913140  0.3702291622784026
  0.3438046254532401  0.3900746886509401  0.5000000000000000
  0.7512270271834909  0.7239314993149647  0.3793255778294578
  0.6128806019363195  0.3611509832998276  0.5000000000000000
 
  0.00000000E+00  0.00000000E+00  0.00000000E+00
  0.00000000E+00  0.00000000E+00  0.00000000E+00
  0.00000000E+00  0.00000000E+00  0.00000000E+00
  0.00000000E+00  0.00000000E+00  0.00000000E+00
  0.00000000E+00  0.00000000E+00  0.00000000E+00
  0.00000000E+00  0.00000000E+00  0.00000000E+00
  0.00000000E+00  0.00000000E+00  0.00000000E+00
  0.00000000E+00  0.00000000E+00  0.00000000E+00
  0.00000000E+00  0.00000000E+00  0.00000000E+00
  0.00000000E+00  0.00000000E+00  0.00000000E+00
  0.00000000E+00  0.00000000E+00  0.00000000E+00
  0.00000000E+00  0.00000000E+00  0.00000000E+00
  0.00000000E+00  0.00000000E+00  0.00000000E+00
  0.00000000E+00  0.00000000E+00  0.00000000E+00
  0.00000000E+00  0.00000000E+00  0.00000000E+00
  0.00000000E+00  0.00000000E+00  0.00000000E+00
  0.00000000E+00  0.00000000E+00  0.00000000E+00
  0.00000000E+00  0.00000000E+00  0.00000000E+00
  0.00000000E+00  0.00000000E+00  0.00000000E+00
  0.00000000E+00  0.00000000E+00  0.00000000E+00
  0.00000000E+00  0.00000000E+00  0.00000000E+00
  0.00000000E+00  0.00000000E+00  0.00000000E+00
  0.00000000E+00  0.00000000E+00  0.00000000E+00
  0.00000000E+00  0.00000000E+00  0.00000000E+00
  0.00000000E+00  0.00000000E+00  0.00000000E+00
  0.00000000E+00  0.00000000E+00  0.00000000E+00
  0.00000000E+00  0.00000000E+00  0.00000000E+00
  0.00000000E+00  0.00000000E+00  0.00000000E+00
  0.00000000E+00  0.00000000E+00  0.00000000E+00
  0.00000000E+00  0.00000000E+00  0.00000000E+00
  0.00000000E+00  0.00000000E+00  0.00000000E+00
  0.00000000E+00  0.00000000E+00  0.00000000E+00
  0.00000000E+00  0.00000000E+00  0.00000000E+00
  0.00000000E+00  0.00000000E+00  0.00000000E+00
  0.00000000E+00  0.00000000E+00  0.00000000E+00
  0.00000000E+00  0.00000000E+00  0.00000000E+00
  0.00000000E+00  0.00000000E+00  0.00000000E+00
  0.00000000E+00  0.00000000E+00  0.00000000E+00
  0.00000000E+00  0.00000000E+00  0.00000000E+00
  0.00000000E+00  0.00000000E+00  0.00000000E+00
  0.00000000E+00  0.00000000E+00  0.00000000E+00
  0.00000000E+00  0.00000000E+00  0.00000000E+00
  0.00000000E+00  0.00000000E+00  0.00000000E+00
  0.00000000E+00  0.00000000E+00  0.00000000E+00
  0.00000000E+00  0.00000000E+00  0.00000000E+00
  0.00000000E+00  0.00000000E+00  0.00000000E+00
  0.00000000E+00  0.00000000E+00  0.00000000E+00
  0.00000000E+00  0.00000000E+00  0.00000000E+00
  0.00000000E+00  0.00000000E+00  0.00000000E+00
  0.00000000E+00  0.00000000E+00  0.00000000E+00
  0.00000000E+00  0.00000000E+00  0.00000000E+00
  0.00000000E+00  0.00000000E+00  0.00000000E+00
  0.00000000E+00  0.00000000E+00  0.00000000E+00
  0.00000000E+00  0.00000000E+00  0.00000000E+00
  0.00000000E+00  0.00000000E+00  0.00000000E+00
  0.00000000E+00  0.00000000E+00  0.00000000E+00
  0.00000000E+00  0.00000000E+00  0.00000000E+00
  0.00000000E+00  0.00000000E+00  0.00000000E+00
  0.00000000E+00  0.00000000E+00  0.00000000E+00
  0.00000000E+00  0.00000000E+00  0.00000000E+00
  0.00000000E+00  0.00000000E+00  0.00000000E+00
  0.00000000E+00  0.00000000E+00  0.00000000E+00
  0.00000000E+00  0.00000000E+00  0.00000000E+00
  0.00000000E+00  0.00000000E+00  0.00000000E+00
  0.00000000E+00  0.00000000E+00  0.00000000E+00
  0.00000000E+00  0.00000000E+00  0.00000000E+00
  0.00000000E+00  0.00000000E+00  0.00000000E+00
  0.00000000E+00  0.00000000E+00  0.00000000E+00
  0.00000000E+00  0.00000000E+00  0.00000000E+00
  0.00000000E+00  0.00000000E+00  0.00000000E+00
  0.00000000E+00  0.00000000E+00  0.00000000E+00
  0.00000000E+00  0.00000000E+00  0.00000000E+00
  0.00000000E+00  0.00000000E+00  0.00000000E+00
  0.00000000E+00  0.00000000E+00  0.00000000E+00
  0.00000000E+00  0.00000000E+00  0.00000000E+00
  0.00000000E+00  0.00000000E+00  0.00000000E+00
  0.00000000E+00  0.00000000E+00  0.00000000E+00
  0.00000000E+00  0.00000000E+00  0.00000000E+00
  0.00000000E+00  0.00000000E+00  0.00000000E+00
  0.00000000E+00  0.00000000E+00  0.00000000E+00
  0.00000000E+00  0.00000000E+00  0.00000000E+00
  0.00000000E+00  0.00000000E+00  0.00000000E+00
  0.00000000E+00  0.00000000E+00  0.00000000E+00
  0.00000000E+00  0.00000000E+00  0.00000000E+00
  0.00000000E+00  0.00000000E+00  0.00000000E+00
  0.00000000E+00  0.00000000E+00  0.00000000E+00
  0.00000000E+00  0.00000000E+00  0.00000000E+00
  0.00000000E+00  0.00000000E+00  0.00000000E+00
  0.00000000E+00  0.00000000E+00  0.00000000E+00
  0.00000000E+00  0.00000000E+00  0.00000000E+00
  0.00000000E+00  0.00000000E+00  0.00000000E+00
  0.00000000E+00  0.00000000E+00  0.00000000E+00
  0.00000000E+00  0.00000000E+00  0.00000000E+00
  0.00000000E+00  0.00000000E+00  0.00000000E+00
  0.00000000E+00  0.00000000E+00  0.00000000E+00
  0.00000000E+00  0.00000000E+00  0.00000000E+00
  0.00000000E+00  0.00000000E+00  0.00000000E+00
  0.00000000E+00  0.00000000E+00  0.00000000E+00
  0.00000000E+00  0.00000000E+00  0.00000000E+00
  0.00000000E+00  0.00000000E+00  0.00000000E+00
  0.00000000E+00  0.00000000E+00  0.00000000E+00
  0.00000000E+00  0.00000000E+00  0.00000000E+00
  0.00000000E+00  0.00000000E+00  0.00000000E+00
  0.00000000E+00  0.00000000E+00  0.00000000E+00
  0.00000000E+00  0.00000000E+00  0.00000000E+00
  0.00000000E+00  0.00000000E+00  0.00000000E+00
  0.00000000E+00  0.00000000E+00  0.00000000E+00
  0.00000000E+00  0.00000000E+00  0.00000000E+00
  0.00000000E+00  0.00000000E+00  0.00000000E+00
  0.00000000E+00  0.00000000E+00  0.00000000E+00
  0.00000000E+00  0.00000000E+00  0.00000000E+00
  0.00000000E+00  0.00000000E+00  0.00000000E+00
  0.00000000E+00  0.00000000E+00  0.00000000E+00
  0.00000000E+00  0.00000000E+00  0.00000000E+00
  0.00000000E+00  0.00000000E+00  0.00000000E+00
  0.00000000E+00  0.00000000E+00  0.00000000E+00
  0.00000000E+00  0.00000000E+00  0.00000000E+00
  0.00000000E+00  0.00000000E+00  0.00000000E+00
  0.00000000E+00  0.00000000E+00  0.00000000E+00
  0.00000000E+00  0.00000000E+00  0.00000000E+00
  0.00000000E+00  0.00000000E+00  0.00000000E+00
  0.00000000E+00  0.00000000E+00  0.00000000E+00
  0.00000000E+00  0.00000000E+00  0.00000000E+00
  0.00000000E+00  0.00000000E+00  0.00000000E+00
  0.00000000E+00  0.00000000E+00  0.00000000E+00
  0.00000000E+00  0.00000000E+00  0.00000000E+00
  0.00000000E+00  0.00000000E+00  0.00000000E+00
  0.00000000E+00  0.00000000E+00  0.00000000E+00
  0.00000000E+00  0.00000000E+00  0.00000000E+00
  0.00000000E+00  0.00000000E+00  0.00000000E+00
  0.00000000E+00  0.00000000E+00  0.00000000E+00
  0.00000000E+00  0.00000000E+00  0.00000000E+00
  0.00000000E+00  0.00000000E+00  0.00000000E+00
  0.00000000E+00  0.00000000E+00  0.00000000E+00
  0.00000000E+00  0.00000000E+00  0.00000000E+00
  0.00000000E+00  0.00000000E+00  0.00000000E+00
  0.00000000E+00  0.00000000E+00  0.00000000E+00
  0.00000000E+00  0.00000000E+00  0.00000000E+00
  0.00000000E+00  0.00000000E+00  0.00000000E+00
  0.00000000E+00  0.00000000E+00  0.00000000E+00
  0.00000000E+00  0.00000000E+00  0.00000000E+00
  0.00000000E+00  0.00000000E+00  0.00000000E+00
  0.00000000E+00  0.00000000E+00  0.00000000E+00
  0.00000000E+00  0.00000000E+00  0.00000000E+00
  0.00000000E+00  0.00000000E+00  0.00000000E+00
  0.00000000E+00  0.00000000E+00  0.00000000E+00
  0.00000000E+00  0.00000000E+00  0.00000000E+00
  0.00000000E+00  0.00000000E+00  0.00000000E+00
  0.00000000E+00  0.00000000E+00  0.00000000E+00
  0.00000000E+00  0.00000000E+00  0.00000000E+00
  0.00000000E+00  0.00000000E+00  0.00000000E+00
  0.00000000E+00  0.00000000E+00  0.00000000E+00
  0.00000000E+00  0.00000000E+00  0.00000000E+00
  0.00000000E+00  0.00000000E+00  0.00000000E+00
  0.00000000E+00  0.00000000E+00  0.00000000E+00
  0.00000000E+00  0.00000000E+00  0.00000000E+00
  0.00000000E+00  0.00000000E+00  0.00000000E+00
  0.00000000E+00  0.00000000E+00  0.00000000E+00
