Sr   Ti   Fe   O                        
   1.00000000000000     
    11.1989999999999998    0.0000000000000000    0.0000000000000000
     0.0000000000000000   11.1989999999999998    0.0000000000000000
     0.0000000000000000    0.0000000000000000   15.9830000000000005
   Sr   Ti   Fe   O 
    32    30     2    95
Direct
  0.9986612057075107  0.2504127947555280  0.1249718239933316
  1.0016152297948344  0.2512114808312070  0.6240741144147970
  0.9981225290225141  0.7504935610719528  0.1254892274210162
  1.0005680782222248  0.7482971518855390  0.6248563844107493
  0.5005975954471926  0.2512922244817993  0.1245271087269390
  0.4967802533839851  0.2440821160206782  0.6279974277367645
  0.4998373853049504  0.7492736352785775  0.1240258049120064
  0.5002888883242010  0.7561079073751586  0.6291784589542492
  1.0016152297948344  0.2512114808312070  0.3759258855852024
  0.9986612057075107  0.2504127947555280  0.8750281760066683
  1.0005680782222248  0.7482971518855390  0.3751436155892500
  0.9981225290225141  0.7504935610719528  0.8745107725789844
  0.4967802533839851  0.2440821160206782  0.3720025722632347
  0.5005975954471926  0.2512922244817993  0.8754728912730610
  0.5002888883242010  0.7561079073751586  0.3708215410457524
  0.4998373853049504  0.7492736352785775  0.8759741950879940
  0.2494742510234122  0.9995775091452724  0.1248764514946851
  0.2502734581894347  0.9991110891588704  0.6253751747522291
  0.2504835095484293  0.5001055906955055  0.1240559393102940
  0.2470350185946447  0.4981413880048959  0.6279625501392054
  0.7497349152546524  0.0003442466274534  0.1256495843260326
  0.7483386049895744  0.0018192325575894  0.6239778201733721
  0.7487578336733857  0.5008412783652915  0.1244264376747297
  0.7580587972387374  0.4969940574586322  0.6287824757532727
  0.2502734581894347  0.9991110891588704  0.3746248252477706
  0.2494742510234122  0.9995775091452724  0.8751235485053158
  0.2470350185946447  0.4981413880048959  0.3720374498607941
  0.2504835095484293  0.5001055906955055  0.8759440606897052
  0.7483386049895744  0.0018192325575894  0.3760221798266281
  0.7497349152546524  0.0003442466274534  0.8743504156739674
  0.7580587972387374  0.4969940574586322  0.3712175242467281
  0.7487578336733857  0.5008412783652915  0.8755735623252693
  0.9991120135864672  0.0001176956432747 -0.0000000000000000
  1.0018713182674870  0.9989723852886792  0.5000000000000000
 -0.0001947134268169  0.4999930389562055 -0.0000000000000000
  0.9999011772831919  0.5003174312502161  0.5000000000000000
  0.4999006277531652  0.0003065461866965 -0.0000000000000000
  0.5016201614080180  0.9992091944414068  0.5000000000000000
  0.4993117214588666  0.5001669432878563 -0.0000000000000000
  0.2497493575747319  0.2495552204532476 -0.0000000000000000
  0.2499794345824944  0.2461408126609001  0.5000000000000000
  0.2491167174093342  0.7504065124256781 -0.0000000000000000
  0.2506682339882259  0.7516966529633923  0.5000000000000000
  0.7503060778814737  0.2499805472822662 -0.0000000000000000
  0.7498262054525802  0.7509022349596768 -0.0000000000000000
  0.2493934994580876  0.2494152180101409  0.2492308135927685
  0.2493934994580876  0.2494152180101409  0.7507691864072313
  0.2493409553866523  0.7496743994268821  0.2493068545190291
  0.2493409553866523  0.7496743994268821  0.7506931454809714
  0.7487941538891271  0.2507262031064561  0.2519152858011784
  0.7487941538891271  0.2507262031064561  0.7480847141988226
  0.7491035165652450  0.7491306002419070  0.2519837089122642
  0.7491035165652450  0.7491306002419070  0.7480162910877370
  0.9994471972448222  1.0000497383050133  0.2508229736701102
  0.9994471972448222  1.0000497383050133  0.7491770263298895
  1.0004908656902263  0.5001416673489936  0.2491277580628499
  1.0004908656902263  0.5001416673489936  0.7508722419371493
  0.4997353643477741 -0.0001718341418163  0.2491270798635646
  0.4997353643477741 -0.0001718341418163  0.7508729201364356
  0.4988670424986807  0.5002510784676255  0.2501926085314315
  0.4988670424986807  0.5002510784676255  0.7498073914685683
  0.4873848631673496  0.5045302151723707  0.5000000000000000
  0.7623677410434123  0.2440339254300490  0.5000000000000000
  0.7594761467467210  0.7597866523837790  0.5000000000000000
  0.1084288958576508  0.1407438161122180  0.2492034784027879
  0.1084288958576508  0.1407438161122180  0.7507965215972124
  0.1092722356623591  0.6408475511695385  0.2496091711994780
  0.1092722356623591  0.6408475511695385  0.7503908288005212
  0.6088309234748478  0.1404074727470872  0.2491910307375743
  0.6088309234748478  0.1404074727470872  0.7508089692624267
  0.6082868199538586  0.6400829732112056  0.2474165904503465
  0.6082868199538586  0.6400829732112056  0.7525834095496532
  0.3895719722550747  0.3584910019276791  0.2490873717425717
  0.3895719722550747  0.3584910019276791  0.7509126282574289
  0.3897275185400850  0.8600503037248477  0.2486501850910771
  0.3897275185400850  0.8600503037248477  0.7513498149089228
  0.8897721940116655  0.3604306623829260  0.2519520277494918
  0.8897721940116655  0.3604306623829260  0.7480479722505085
  0.8885828418991131  0.8597387051503393  0.2542837367331799
  0.8885828418991131  0.8597387051503393  0.7457162632668197
  0.3594452708152878  0.1095022551246717  0.2508412621914267
  0.3594452708152878  0.1095022551246717  0.7491587378085727
  0.3575533046416527  0.6098999559428184  0.2476002023510390
  0.3575533046416527  0.6098999559428184  0.7523997976489599
  0.8583857779236963  0.1105591560157931  0.2544620397314534
  0.8583857779236963  0.1105591560157931  0.7455379602685472
  0.8610083282365946  0.6108592162622108  0.2479907970686198
  0.8610083282365946  0.6108592162622108  0.7520092029313813
  0.1404784682530562  0.3904221216954528  0.2488219970936201
  0.1404784682530562  0.3904221216954528  0.7511780029063794
  0.1394775580223734  0.8904313444140095  0.2492107120715135
  0.1394775580223734  0.8904313444140095  0.7507892879284864
  0.6388033346728600  0.3910132201044775  0.2478029235520239
  0.6388033346728600  0.3910132201044775  0.7521970764479757
  0.6399546642267244  0.8902725458906728  0.2516186163804643
  0.6399546642267244  0.8902725458906728  0.7483813836195355
  0.3586909932309900  0.3899795446542180 -0.0000000000000000
  0.3588322740543277  0.8910926207219864 -0.0000000000000000
  0.3575406655712187  0.8933204196664924  0.5000000000000000
  0.8591416380663001  0.3909461228776763 -0.0000000000000000
  0.8585646491161839  0.8914080544535659 -0.0000000000000000
  0.8611935385976758  0.8937808226923313  0.5000000000000000
  0.1401211849367888  0.1082868230339191 -0.0000000000000000
  0.1415234784072374  0.1089704278629286  0.5000000000000000
  0.1402349221112550  0.6090815744227289 -0.0000000000000000
  0.1480163832905894  0.6085395613344676  0.5000000000000000
  0.6408238630101726  0.1094198598317534 -0.0000000000000000
  0.6334117689834874  0.1198752575564235  0.5000000000000000
  0.6399910237465047  0.6101368920037284 -0.0000000000000000
  0.1090719545763208  0.3587517674724748 -0.0000000000000000
  0.1203732740854344  0.3634391530546506  0.5000000000000000
  0.1079698073257901  0.8597761886114402 -0.0000000000000000
  0.1096145984018279  0.8568722000762355  0.5000000000000000
  0.6098598444113774  0.3597348673423370 -0.0000000000000000
  0.6087916950099915  0.8596783125778121 -0.0000000000000000
  0.6091789776525414  0.8583286076805946  0.5000000000000000
  0.3909494226325712  0.1406960966417143 -0.0000000000000000
  0.3881442994139269  0.1370759188684810  0.5000000000000000
  0.3896960798355532  0.6411050213762899 -0.0000000000000000
  0.8911571508187848  0.1412017062192633 -0.0000000000000000
  0.8935134154667596  0.1367429898863911  0.5000000000000000
  0.8903980280183046  0.6408414072022584 -0.0000000000000000
  0.9962506148232466  0.9997242490788194  0.1258313886134697
  0.0041218220104462 -0.0003811848328544  0.6246131515610747
 -0.0000731434248430  0.4989545120554396  0.1247624930223778
  0.0034390304149705  0.5014458045708333  0.6258272675097137
  0.5000331736479358  0.9998930292678399  0.1248896400277870
  0.4999177298666440  0.0000738636151060  0.6256466992857410
  0.4976230907705622  0.4997745653779755  0.1241374482554646
  0.4910545787414864  0.5026378064852947  0.6263342546537972
  0.0041218220104462 -0.0003811848328544  0.3753868484389252
  0.9962506148232466  0.9997242490788194  0.8741686113865301
  0.0034390304149705  0.5014458045708333  0.3741727324902869
 -0.0000731434248430  0.4989545120554396  0.8752375069776221
  0.4999177298666440  0.0000738636151060  0.3743533007142589
  0.5000331736479358  0.9998930292678399  0.8751103599722130
  0.4976230907705622  0.4997745653779755  0.8758625517445349
  0.2494888891397140  0.2496562633803299  0.3745565675277787
  0.2497763118273266  0.2483468487729880  0.8752942303614405
  0.2513428870443318  0.7500342052184396  0.3747377773090641
  0.2484843863846145  0.7509216915092141  0.8755520846012735
  0.7517126882574756  0.2491126936547381  0.8744797022452784
  0.7502925730080339  0.7520386464681621  0.8746382623508863
  0.2497763118273266  0.2483468487729880  0.1247057696385599
  0.2494888891397140  0.2496562633803299  0.6254434324722211
  0.2484843863846145  0.7509216915092141  0.1244479153987272
  0.2513428870443318  0.7500342052184396  0.6252622226909353
  0.7517126882574756  0.2491126936547381  0.1255202977547216
  0.7398175790720759  0.2578375282994461  0.6231338154268802
  0.7502925730080339  0.7520386464681621  0.1253617376491143
  0.7418445023072830  0.7390536039623684  0.6228713836756717
  0.7398175790720759  0.2578375282994461  0.3768661845731204
  0.8746599529380166  0.3819911080898497  0.5000000000000000
  0.4056223204153559  0.6537930042416358  0.5000000000000000
  0.4910545787414864  0.5026378064852947  0.3736657453462038
  0.3756430709282184  0.3774562415374109  0.5000000000000000
  0.8904379349133574  0.6375932677624211  0.5000000000000000
  0.7418445023072830  0.7390536039623684  0.3771286163243282
  0.6490240759827278  0.4842840031335502  0.5000000000000000
 
  0.00000000E+00  0.00000000E+00  0.00000000E+00
  0.00000000E+00  0.00000000E+00  0.00000000E+00
  0.00000000E+00  0.00000000E+00  0.00000000E+00
  0.00000000E+00  0.00000000E+00  0.00000000E+00
  0.00000000E+00  0.00000000E+00  0.00000000E+00
  0.00000000E+00  0.00000000E+00  0.00000000E+00
  0.00000000E+00  0.00000000E+00  0.00000000E+00
  0.00000000E+00  0.00000000E+00  0.00000000E+00
  0.00000000E+00  0.00000000E+00  0.00000000E+00
  0.00000000E+00  0.00000000E+00  0.00000000E+00
  0.00000000E+00  0.00000000E+00  0.00000000E+00
  0.00000000E+00  0.00000000E+00  0.00000000E+00
  0.00000000E+00  0.00000000E+00  0.00000000E+00
  0.00000000E+00  0.00000000E+00  0.00000000E+00
  0.00000000E+00  0.00000000E+00  0.00000000E+00
  0.00000000E+00  0.00000000E+00  0.00000000E+00
  0.00000000E+00  0.00000000E+00  0.00000000E+00
  0.00000000E+00  0.00000000E+00  0.00000000E+00
  0.00000000E+00  0.00000000E+00  0.00000000E+00
  0.00000000E+00  0.00000000E+00  0.00000000E+00
  0.00000000E+00  0.00000000E+00  0.00000000E+00
  0.00000000E+00  0.00000000E+00  0.00000000E+00
  0.00000000E+00  0.00000000E+00  0.00000000E+00
  0.00000000E+00  0.00000000E+00  0.00000000E+00
  0.00000000E+00  0.00000000E+00  0.00000000E+00
  0.00000000E+00  0.00000000E+00  0.00000000E+00
  0.00000000E+00  0.00000000E+00  0.00000000E+00
  0.00000000E+00  0.00000000E+00  0.00000000E+00
  0.00000000E+00  0.00000000E+00  0.00000000E+00
  0.00000000E+00  0.00000000E+00  0.00000000E+00
  0.00000000E+00  0.00000000E+00  0.00000000E+00
  0.00000000E+00  0.00000000E+00  0.00000000E+00
  0.00000000E+00  0.00000000E+00  0.00000000E+00
  0.00000000E+00  0.00000000E+00  0.00000000E+00
  0.00000000E+00  0.00000000E+00  0.00000000E+00
  0.00000000E+00  0.00000000E+00  0.00000000E+00
  0.00000000E+00  0.00000000E+00  0.00000000E+00
  0.00000000E+00  0.00000000E+00  0.00000000E+00
  0.00000000E+00  0.00000000E+00  0.00000000E+00
  0.00000000E+00  0.00000000E+00  0.00000000E+00
  0.00000000E+00  0.00000000E+00  0.00000000E+00
  0.00000000E+00  0.00000000E+00  0.00000000E+00
  0.00000000E+00  0.00000000E+00  0.00000000E+00
  0.00000000E+00  0.00000000E+00  0.00000000E+00
  0.00000000E+00  0.00000000E+00  0.00000000E+00
  0.00000000E+00  0.00000000E+00  0.00000000E+00
  0.00000000E+00  0.00000000E+00  0.00000000E+00
  0.00000000E+00  0.00000000E+00  0.00000000E+00
  0.00000000E+00  0.00000000E+00  0.00000000E+00
  0.00000000E+00  0.00000000E+00  0.00000000E+00
  0.00000000E+00  0.00000000E+00  0.00000000E+00
  0.00000000E+00  0.00000000E+00  0.00000000E+00
  0.00000000E+00  0.00000000E+00  0.00000000E+00
  0.00000000E+00  0.00000000E+00  0.00000000E+00
  0.00000000E+00  0.00000000E+00  0.00000000E+00
  0.00000000E+00  0.00000000E+00  0.00000000E+00
  0.00000000E+00  0.00000000E+00  0.00000000E+00
  0.00000000E+00  0.00000000E+00  0.00000000E+00
  0.00000000E+00  0.00000000E+00  0.00000000E+00
  0.00000000E+00  0.00000000E+00  0.00000000E+00
  0.00000000E+00  0.00000000E+00  0.00000000E+00
  0.00000000E+00  0.00000000E+00  0.00000000E+00
  0.00000000E+00  0.00000000E+00  0.00000000E+00
  0.00000000E+00  0.00000000E+00  0.00000000E+00
  0.00000000E+00  0.00000000E+00  0.00000000E+00
  0.00000000E+00  0.00000000E+00  0.00000000E+00
  0.00000000E+00  0.00000000E+00  0.00000000E+00
  0.00000000E+00  0.00000000E+00  0.00000000E+00
  0.00000000E+00  0.00000000E+00  0.00000000E+00
  0.00000000E+00  0.00000000E+00  0.00000000E+00
  0.00000000E+00  0.00000000E+00  0.00000000E+00
  0.00000000E+00  0.00000000E+00  0.00000000E+00
  0.00000000E+00  0.00000000E+00  0.00000000E+00
  0.00000000E+00  0.00000000E+00  0.00000000E+00
  0.00000000E+00  0.00000000E+00  0.00000000E+00
  0.00000000E+00  0.00000000E+00  0.00000000E+00
  0.00000000E+00  0.00000000E+00  0.00000000E+00
  0.00000000E+00  0.00000000E+00  0.00000000E+00
  0.00000000E+00  0.00000000E+00  0.00000000E+00
  0.00000000E+00  0.00000000E+00  0.00000000E+00
  0.00000000E+00  0.00000000E+00  0.00000000E+00
  0.00000000E+00  0.00000000E+00  0.00000000E+00
  0.00000000E+00  0.00000000E+00  0.00000000E+00
  0.00000000E+00  0.00000000E+00  0.00000000E+00
  0.00000000E+00  0.00000000E+00  0.00000000E+00
  0.00000000E+00  0.00000000E+00  0.00000000E+00
  0.00000000E+00  0.00000000E+00  0.00000000E+00
  0.00000000E+00  0.00000000E+00  0.00000000E+00
  0.00000000E+00  0.00000000E+00  0.00000000E+00
  0.00000000E+00  0.00000000E+00  0.00000000E+00
  0.00000000E+00  0.00000000E+00  0.00000000E+00
  0.00000000E+00  0.00000000E+00  0.00000000E+00
  0.00000000E+00  0.00000000E+00  0.00000000E+00
  0.00000000E+00  0.00000000E+00  0.00000000E+00
  0.00000000E+00  0.00000000E+00  0.00000000E+00
  0.00000000E+00  0.00000000E+00  0.00000000E+00
  0.00000000E+00  0.00000000E+00  0.00000000E+00
  0.00000000E+00  0.00000000E+00  0.00000000E+00
  0.00000000E+00  0.00000000E+00  0.00000000E+00
  0.00000000E+00  0.00000000E+00  0.00000000E+00
  0.00000000E+00  0.00000000E+00  0.00000000E+00
  0.00000000E+00  0.00000000E+00  0.00000000E+00
  0.00000000E+00  0.00000000E+00  0.00000000E+00
  0.00000000E+00  0.00000000E+00  0.00000000E+00
  0.00000000E+00  0.00000000E+00  0.00000000E+00
  0.00000000E+00  0.00000000E+00  0.00000000E+00
  0.00000000E+00  0.00000000E+00  0.00000000E+00
  0.00000000E+00  0.00000000E+00  0.00000000E+00
  0.00000000E+00  0.00000000E+00  0.00000000E+00
  0.00000000E+00  0.00000000E+00  0.00000000E+00
  0.00000000E+00  0.00000000E+00  0.00000000E+00
  0.00000000E+00  0.00000000E+00  0.00000000E+00
  0.00000000E+00  0.00000000E+00  0.00000000E+00
  0.00000000E+00  0.00000000E+00  0.00000000E+00
  0.00000000E+00  0.00000000E+00  0.00000000E+00
  0.00000000E+00  0.00000000E+00  0.00000000E+00
  0.00000000E+00  0.00000000E+00  0.00000000E+00
  0.00000000E+00  0.00000000E+00  0.00000000E+00
  0.00000000E+00  0.00000000E+00  0.00000000E+00
  0.00000000E+00  0.00000000E+00  0.00000000E+00
  0.00000000E+00  0.00000000E+00  0.00000000E+00
  0.00000000E+00  0.00000000E+00  0.00000000E+00
  0.00000000E+00  0.00000000E+00  0.00000000E+00
  0.00000000E+00  0.00000000E+00  0.00000000E+00
  0.00000000E+00  0.00000000E+00  0.00000000E+00
  0.00000000E+00  0.00000000E+00  0.00000000E+00
  0.00000000E+00  0.00000000E+00  0.00000000E+00
  0.00000000E+00  0.00000000E+00  0.00000000E+00
  0.00000000E+00  0.00000000E+00  0.00000000E+00
  0.00000000E+00  0.00000000E+00  0.00000000E+00
  0.00000000E+00  0.00000000E+00  0.00000000E+00
  0.00000000E+00  0.00000000E+00  0.00000000E+00
  0.00000000E+00  0.00000000E+00  0.00000000E+00
  0.00000000E+00  0.00000000E+00  0.00000000E+00
  0.00000000E+00  0.00000000E+00  0.00000000E+00
  0.00000000E+00  0.00000000E+00  0.00000000E+00
  0.00000000E+00  0.00000000E+00  0.00000000E+00
  0.00000000E+00  0.00000000E+00  0.00000000E+00
  0.00000000E+00  0.00000000E+00  0.00000000E+00
  0.00000000E+00  0.00000000E+00  0.00000000E+00
  0.00000000E+00  0.00000000E+00  0.00000000E+00
  0.00000000E+00  0.00000000E+00  0.00000000E+00
  0.00000000E+00  0.00000000E+00  0.00000000E+00
  0.00000000E+00  0.00000000E+00  0.00000000E+00
  0.00000000E+00  0.00000000E+00  0.00000000E+00
  0.00000000E+00  0.00000000E+00  0.00000000E+00
  0.00000000E+00  0.00000000E+00  0.00000000E+00
  0.00000000E+00  0.00000000E+00  0.00000000E+00
  0.00000000E+00  0.00000000E+00  0.00000000E+00
  0.00000000E+00  0.00000000E+00  0.00000000E+00
  0.00000000E+00  0.00000000E+00  0.00000000E+00
  0.00000000E+00  0.00000000E+00  0.00000000E+00
  0.00000000E+00  0.00000000E+00  0.00000000E+00
  0.00000000E+00  0.00000000E+00  0.00000000E+00
  0.00000000E+00  0.00000000E+00  0.00000000E+00
  0.00000000E+00  0.00000000E+00  0.00000000E+00
  0.00000000E+00  0.00000000E+00  0.00000000E+00
  0.00000000E+00  0.00000000E+00  0.00000000E+00
  0.00000000E+00  0.00000000E+00  0.00000000E+00
