SrTiFeO                                 
   1.00000000000000     
    11.1989999999999998    0.0000000000000000    0.0000000000000000
     0.0000000000000000   11.1989999999999998    0.0000000000000000
     0.0000000000000000    0.0000000000000000   15.9830000000000005
   Sr   Ti   Fe   O 
    32    31     1    94
Direct
  0.0010965467687145  0.2488533221983954  0.1249522900119234
  0.9977857476643980  0.2519562925547299  0.6257065773703966
  0.9989034532312857  0.7511466778016047  0.1249522900119234
  0.0022142523356020  0.7480437074452704  0.6257065773703966
  0.5004253297843053  0.2505736741939301  0.1236796219334392
  0.5048140948265915  0.2495965550644482  0.6289745685977983
  0.4995746702156948  0.7494263258060705  0.1236796219334392
  0.4951859051734092  0.7504034449355521  0.6289745685977983
  0.9977857476643980  0.2519562925547299  0.3742934226296032
  0.0010965467687145  0.2488533221983954  0.8750477099880763
  0.0022142523356020  0.7480437074452704  0.3742934226296032
  0.9989034532312857  0.7511466778016047  0.8750477099880763
  0.5048140948265915  0.2495965550644482  0.3710254314022019
  0.5004253297843053  0.2505736741939301  0.8763203780665608
  0.4951859051734092  0.7504034449355521  0.3710254314022019
  0.4995746702156948  0.7494263258060705  0.8763203780665608
  0.2504326559225526  0.0008375230319100  0.1245100532902636
  0.2498312344987394  0.9946207684530572  0.6286682601807216
  0.2511783123590982  0.4994391335003482  0.1239398145355031
  0.2448488666052449  0.5061855394262281  0.6291817081601719
  0.7495673440774469  0.9991624769680904  0.1245100532902636
  0.7501687655012605  0.0053792315469427  0.6286682601807216
  0.7488216876409021  0.5005608664996516  0.1239398145355031
  0.7551511333947550  0.4938144605737713  0.6291817081601719
  0.2498312344987394  0.9946207684530572  0.3713317398192783
  0.2504326559225526  0.0008375230319100  0.8754899467097359
  0.2448488666052449  0.5061855394262281  0.3708182918398275
  0.2511783123590982  0.4994391335003482  0.8760601854644968
  0.7501687655012605  0.0053792315469427  0.3713317398192783
  0.7495673440774469  0.9991624769680904  0.8754899467097359
  0.7551511333947550  0.4938144605737713  0.3708182918398275
  0.7488216876409021  0.5005608664996516  0.8760601854644968
  0.0000000000000000  0.0000000000000000  0.0000000000000000
  0.0000000000000000  0.0000000000000000  0.5000000000000000
  0.0000000000000000  0.5000000000000000  0.0000000000000000
  0.0000000000000000  0.5000000000000000  0.5000000000000000
  0.5000000000000000  0.0000000000000000  0.0000000000000000
  0.5000000000000000  0.0000000000000000  0.5000000000000000
  0.5000000000000000  0.5000000000000000  0.0000000000000000
  0.2498494041180094  0.2497940747835942  0.0000000000000000
  0.2464073561537169  0.2386531095649864  0.5000000000000000
  0.2493615596325504  0.7498438243342747  0.0000000000000000
  0.2505896067119172  0.7504943662245496  0.5000000000000000
  0.7506384403674491  0.2501561756657252  0.0000000000000000
  0.7494103932880835  0.2495056337754506  0.5000000000000000
  0.7501505958819910  0.7502059252163988  0.0000000000000000
  0.2515970285637398  0.2513986733397668  0.2501165514221986
  0.2515970285637398  0.2513986733397668  0.7498834485778015
  0.2494130784350491  0.7501233396633540  0.2481560349543152
  0.2494130784350491  0.7501233396633540  0.7518439650456854
  0.7505869215649508  0.2498766603366456  0.2481560349543152
  0.7505869215649508  0.2498766603366456  0.7518439650456854
  0.7484029714362600  0.7486013266602338  0.2501165514221986
  0.7484029714362600  0.7486013266602338  0.7498834485778015
  0.0000000000000000  0.0000000000000000  0.2513859295379695
  0.0000000000000000  0.0000000000000000  0.7486140704620304
  0.0000000000000000  0.5000000000000000  0.2486186236652277
  0.0000000000000000  0.5000000000000000  0.7513813763347719
  0.5000000000000000  0.0000000000000000  0.2495845760881137
  0.5000000000000000  0.0000000000000000  0.7504154239118866
  0.5000000000000000  0.5000000000000000  0.2507969328707539
  0.5000000000000000  0.5000000000000000  0.7492030671292462
  0.7535926438462832  0.7613468904350136  0.5000000000000000
  0.5000000000000000  0.5000000000000000  0.5000000000000000
  0.1123888194276180  0.1422333261610294  0.2540015416105045
  0.1123888194276180  0.1422333261610294  0.7459984583894956
  0.1093457549699898  0.6403718307217227  0.2510636541774067
  0.1093457549699898  0.6403718307217227  0.7489363458225942
  0.6110481281784547  0.1394693683885080  0.2493979317484520
  0.6110481281784547  0.1394693683885080  0.7506020682515475
  0.6078245953199162  0.6399682508507880  0.2469910001360117
  0.3921754046800835  0.3600317491492123  0.2469910001360117
  0.3921754046800835  0.3600317491492123  0.7530089998639884
  0.3889518718215441  0.8605306316114923  0.2493979317484520
  0.3889518718215441  0.8605306316114923  0.7506020682515475
  0.8906542450300104  0.3596281692782777  0.2510636541774067
  0.8906542450300104  0.3596281692782777  0.7489363458225942
  0.8876111805723816  0.8577666738389705  0.2540015416105045
  0.8876111805723816  0.8577666738389705  0.7459984583894956
  0.3601953843849472  0.1105386090822049  0.2518377905714164
  0.3601953843849472  0.1105386090822049  0.7481622094285825
  0.3587247702795602  0.6098392277896696  0.2497269462536053
  0.3587247702795602  0.6098392277896696  0.7502730537464027
  0.8602905959208886  0.1102898803321836  0.2480186985147047
  0.8602905959208886  0.1102898803321836  0.7519813014852951
  0.8586983038886609  0.6087946152523160  0.2501600760467595
  0.8586983038886609  0.6087946152523160  0.7498399239532403
  0.1413016961113385  0.3912053847476837  0.2501600760467595
  0.1413016961113385  0.3912053847476837  0.7498399239532403
  0.1397094040791117  0.8897101196678164  0.2480186985147047
  0.1397094040791117  0.8897101196678164  0.7519813014852951
  0.6412752297204400  0.3901607722103307  0.2497269462536053
  0.6398046156150524  0.8894613909177953  0.2518377905714164
  0.6398046156150524  0.8894613909177953  0.7481622094285825
  0.3593223858599365  0.3898541083215251  0.0000000000000000
  0.3591949610494458  0.8903345201518156  0.0000000000000000
  0.3557911999148026  0.8952001208647398  0.5000000000000000
  0.8593812442708696  0.3909802173670746  0.0000000000000000
  0.8661093244735339  0.3853473726822343  0.5000000000000000
  0.8593313114086969  0.8908681052770197  0.0000000000000000
  0.8512276083938027  0.8921318721943388  0.5000000000000000
  0.1406686885913033  0.1091318947229803  0.0000000000000000
  0.1487723916061970  0.1078681278056609  0.5000000000000000
  0.1406187557291311  0.6090197826329253  0.0000000000000000
  0.1338906755264664  0.6146526273177665  0.5000000000000000
  0.6408050389505534  0.1096654798481845  0.0000000000000000
  0.6442088000851980  0.1047998791352603  0.5000000000000000
  0.6406776141400565  0.6101458916784748  0.0000000000000000
  0.1094919471733510  0.3590052718679452  0.0000000000000000
  0.1243471086271404  0.3672568732695525  0.5000000000000000
  0.1089367461520852  0.8589160461303033  0.0000000000000000
  0.1069450187990989  0.8573875999913639  0.5000000000000000
  0.6098174527709834  0.3596635771173296  0.0000000000000000
  0.6095822967327985  0.8595681962439804  0.0000000000000000
  0.6004211167011305  0.8472033695620088  0.5000000000000000
  0.3904177032672019  0.1404318037560200  0.0000000000000000
  0.3995788832988703  0.1527966304379919  0.5000000000000000
  0.3901825472290162  0.6403364228826706  0.0000000000000000
  0.3857726523539173  0.6362230730126153  0.5000000000000000
  0.8910632538479136  0.1410839538696969  0.0000000000000000
  0.8930549812009012  0.1426124000086364  0.5000000000000000
  0.8905080528266497  0.6409947281320538  0.0000000000000000
  0.0000000000000000  0.0000000000000000  0.1250534518088164
  0.0000000000000000  0.0000000000000000  0.6281017580333871
  0.0000000000000000  0.5000000000000000  0.1251422008049346
  0.0000000000000000  0.5000000000000000  0.6248306646697342
  0.5000000000000000  0.0000000000000000  0.1252728480939023
  0.5000000000000000  0.0000000000000000  0.6243095582137721
  0.5000000000000000  0.5000000000000000  0.1242584973511776
  0.0000000000000000  0.0000000000000000  0.3718982419666128
  0.0000000000000000  0.0000000000000000  0.8749465481911842
  0.0000000000000000  0.5000000000000000  0.3751693353302655
  0.0000000000000000  0.5000000000000000  0.8748577991950655
  0.5000000000000000  0.0000000000000000  0.3756904417862284
  0.5000000000000000  0.0000000000000000  0.8747271519060984
  0.5000000000000000  0.5000000000000000  0.8757415026488219
  0.2639066220957892  0.2652309518529234  0.3785889102279289
  0.2495370802471157  0.2488648319638972  0.8744893207807598
  0.2490816898429165  0.7518770778350189  0.3743739198654855
  0.2495576312638265  0.7490264000248817  0.8753807885018891
  0.7509183101570833  0.2481229221649806  0.3743739198654855
  0.7504423687361743  0.2509735999751191  0.8753807885018891
  0.7360933779042108  0.7347690481470763  0.3785889102279289
  0.7504629197528850  0.7511351680361028  0.8744893207807598
  0.2495370802471157  0.2488648319638972  0.1255106792192400
  0.2639066220957892  0.2652309518529234  0.6214110897720716
  0.2495576312638265  0.7490264000248817  0.1246192114981104
  0.2490816898429165  0.7518770778350189  0.6256260801345153
  0.7504423687361743  0.2509735999751191  0.1246192114981104
  0.7509183101570833  0.2481229221649806  0.6256260801345153
  0.7504629197528850  0.7511351680361028  0.1255106792192400
  0.6412752297204400  0.3901607722103307  0.7502730537464027
  0.6078245953199162  0.6399682508507880  0.7530089998639884
  0.5000000000000000  0.5000000000000000  0.3756217601221085
  0.6142273476460820  0.3637769269873843  0.5000000000000000
  0.7360933779042108  0.7347690481470763  0.6214110897720716
  0.8756528913728590  0.6327431267304470  0.5000000000000000
  0.5000000000000000  0.5000000000000000  0.6243782398778913
 
  0.00000000E+00  0.00000000E+00  0.00000000E+00
  0.00000000E+00  0.00000000E+00  0.00000000E+00
  0.00000000E+00  0.00000000E+00  0.00000000E+00
  0.00000000E+00  0.00000000E+00  0.00000000E+00
  0.00000000E+00  0.00000000E+00  0.00000000E+00
  0.00000000E+00  0.00000000E+00  0.00000000E+00
  0.00000000E+00  0.00000000E+00  0.00000000E+00
  0.00000000E+00  0.00000000E+00  0.00000000E+00
  0.00000000E+00  0.00000000E+00  0.00000000E+00
  0.00000000E+00  0.00000000E+00  0.00000000E+00
  0.00000000E+00  0.00000000E+00  0.00000000E+00
  0.00000000E+00  0.00000000E+00  0.00000000E+00
  0.00000000E+00  0.00000000E+00  0.00000000E+00
  0.00000000E+00  0.00000000E+00  0.00000000E+00
  0.00000000E+00  0.00000000E+00  0.00000000E+00
  0.00000000E+00  0.00000000E+00  0.00000000E+00
  0.00000000E+00  0.00000000E+00  0.00000000E+00
  0.00000000E+00  0.00000000E+00  0.00000000E+00
  0.00000000E+00  0.00000000E+00  0.00000000E+00
  0.00000000E+00  0.00000000E+00  0.00000000E+00
  0.00000000E+00  0.00000000E+00  0.00000000E+00
  0.00000000E+00  0.00000000E+00  0.00000000E+00
  0.00000000E+00  0.00000000E+00  0.00000000E+00
  0.00000000E+00  0.00000000E+00  0.00000000E+00
  0.00000000E+00  0.00000000E+00  0.00000000E+00
  0.00000000E+00  0.00000000E+00  0.00000000E+00
  0.00000000E+00  0.00000000E+00  0.00000000E+00
  0.00000000E+00  0.00000000E+00  0.00000000E+00
  0.00000000E+00  0.00000000E+00  0.00000000E+00
  0.00000000E+00  0.00000000E+00  0.00000000E+00
  0.00000000E+00  0.00000000E+00  0.00000000E+00
  0.00000000E+00  0.00000000E+00  0.00000000E+00
  0.00000000E+00  0.00000000E+00  0.00000000E+00
  0.00000000E+00  0.00000000E+00  0.00000000E+00
  0.00000000E+00  0.00000000E+00  0.00000000E+00
  0.00000000E+00  0.00000000E+00  0.00000000E+00
  0.00000000E+00  0.00000000E+00  0.00000000E+00
  0.00000000E+00  0.00000000E+00  0.00000000E+00
  0.00000000E+00  0.00000000E+00  0.00000000E+00
  0.00000000E+00  0.00000000E+00  0.00000000E+00
  0.00000000E+00  0.00000000E+00  0.00000000E+00
  0.00000000E+00  0.00000000E+00  0.00000000E+00
  0.00000000E+00  0.00000000E+00  0.00000000E+00
  0.00000000E+00  0.00000000E+00  0.00000000E+00
  0.00000000E+00  0.00000000E+00  0.00000000E+00
  0.00000000E+00  0.00000000E+00  0.00000000E+00
  0.00000000E+00  0.00000000E+00  0.00000000E+00
  0.00000000E+00  0.00000000E+00  0.00000000E+00
  0.00000000E+00  0.00000000E+00  0.00000000E+00
  0.00000000E+00  0.00000000E+00  0.00000000E+00
  0.00000000E+00  0.00000000E+00  0.00000000E+00
  0.00000000E+00  0.00000000E+00  0.00000000E+00
  0.00000000E+00  0.00000000E+00  0.00000000E+00
  0.00000000E+00  0.00000000E+00  0.00000000E+00
  0.00000000E+00  0.00000000E+00  0.00000000E+00
  0.00000000E+00  0.00000000E+00  0.00000000E+00
  0.00000000E+00  0.00000000E+00  0.00000000E+00
  0.00000000E+00  0.00000000E+00  0.00000000E+00
  0.00000000E+00  0.00000000E+00  0.00000000E+00
  0.00000000E+00  0.00000000E+00  0.00000000E+00
  0.00000000E+00  0.00000000E+00  0.00000000E+00
  0.00000000E+00  0.00000000E+00  0.00000000E+00
  0.00000000E+00  0.00000000E+00  0.00000000E+00
  0.00000000E+00  0.00000000E+00  0.00000000E+00
  0.00000000E+00  0.00000000E+00  0.00000000E+00
  0.00000000E+00  0.00000000E+00  0.00000000E+00
  0.00000000E+00  0.00000000E+00  0.00000000E+00
  0.00000000E+00  0.00000000E+00  0.00000000E+00
  0.00000000E+00  0.00000000E+00  0.00000000E+00
  0.00000000E+00  0.00000000E+00  0.00000000E+00
  0.00000000E+00  0.00000000E+00  0.00000000E+00
  0.00000000E+00  0.00000000E+00  0.00000000E+00
  0.00000000E+00  0.00000000E+00  0.00000000E+00
  0.00000000E+00  0.00000000E+00  0.00000000E+00
  0.00000000E+00  0.00000000E+00  0.00000000E+00
  0.00000000E+00  0.00000000E+00  0.00000000E+00
  0.00000000E+00  0.00000000E+00  0.00000000E+00
  0.00000000E+00  0.00000000E+00  0.00000000E+00
  0.00000000E+00  0.00000000E+00  0.00000000E+00
  0.00000000E+00  0.00000000E+00  0.00000000E+00
  0.00000000E+00  0.00000000E+00  0.00000000E+00
  0.00000000E+00  0.00000000E+00  0.00000000E+00
  0.00000000E+00  0.00000000E+00  0.00000000E+00
  0.00000000E+00  0.00000000E+00  0.00000000E+00
  0.00000000E+00  0.00000000E+00  0.00000000E+00
  0.00000000E+00  0.00000000E+00  0.00000000E+00
  0.00000000E+00  0.00000000E+00  0.00000000E+00
  0.00000000E+00  0.00000000E+00  0.00000000E+00
  0.00000000E+00  0.00000000E+00  0.00000000E+00
  0.00000000E+00  0.00000000E+00  0.00000000E+00
  0.00000000E+00  0.00000000E+00  0.00000000E+00
  0.00000000E+00  0.00000000E+00  0.00000000E+00
  0.00000000E+00  0.00000000E+00  0.00000000E+00
  0.00000000E+00  0.00000000E+00  0.00000000E+00
  0.00000000E+00  0.00000000E+00  0.00000000E+00
  0.00000000E+00  0.00000000E+00  0.00000000E+00
  0.00000000E+00  0.00000000E+00  0.00000000E+00
  0.00000000E+00  0.00000000E+00  0.00000000E+00
  0.00000000E+00  0.00000000E+00  0.00000000E+00
  0.00000000E+00  0.00000000E+00  0.00000000E+00
  0.00000000E+00  0.00000000E+00  0.00000000E+00
  0.00000000E+00  0.00000000E+00  0.00000000E+00
  0.00000000E+00  0.00000000E+00  0.00000000E+00
  0.00000000E+00  0.00000000E+00  0.00000000E+00
  0.00000000E+00  0.00000000E+00  0.00000000E+00
  0.00000000E+00  0.00000000E+00  0.00000000E+00
  0.00000000E+00  0.00000000E+00  0.00000000E+00
  0.00000000E+00  0.00000000E+00  0.00000000E+00
  0.00000000E+00  0.00000000E+00  0.00000000E+00
  0.00000000E+00  0.00000000E+00  0.00000000E+00
  0.00000000E+00  0.00000000E+00  0.00000000E+00
  0.00000000E+00  0.00000000E+00  0.00000000E+00
  0.00000000E+00  0.00000000E+00  0.00000000E+00
  0.00000000E+00  0.00000000E+00  0.00000000E+00
  0.00000000E+00  0.00000000E+00  0.00000000E+00
  0.00000000E+00  0.00000000E+00  0.00000000E+00
  0.00000000E+00  0.00000000E+00  0.00000000E+00
  0.00000000E+00  0.00000000E+00  0.00000000E+00
  0.00000000E+00  0.00000000E+00  0.00000000E+00
  0.00000000E+00  0.00000000E+00  0.00000000E+00
  0.00000000E+00  0.00000000E+00  0.00000000E+00
  0.00000000E+00  0.00000000E+00  0.00000000E+00
  0.00000000E+00  0.00000000E+00  0.00000000E+00
  0.00000000E+00  0.00000000E+00  0.00000000E+00
  0.00000000E+00  0.00000000E+00  0.00000000E+00
  0.00000000E+00  0.00000000E+00  0.00000000E+00
  0.00000000E+00  0.00000000E+00  0.00000000E+00
  0.00000000E+00  0.00000000E+00  0.00000000E+00
  0.00000000E+00  0.00000000E+00  0.00000000E+00
  0.00000000E+00  0.00000000E+00  0.00000000E+00
  0.00000000E+00  0.00000000E+00  0.00000000E+00
  0.00000000E+00  0.00000000E+00  0.00000000E+00
  0.00000000E+00  0.00000000E+00  0.00000000E+00
  0.00000000E+00  0.00000000E+00  0.00000000E+00
  0.00000000E+00  0.00000000E+00  0.00000000E+00
  0.00000000E+00  0.00000000E+00  0.00000000E+00
  0.00000000E+00  0.00000000E+00  0.00000000E+00
  0.00000000E+00  0.00000000E+00  0.00000000E+00
  0.00000000E+00  0.00000000E+00  0.00000000E+00
  0.00000000E+00  0.00000000E+00  0.00000000E+00
  0.00000000E+00  0.00000000E+00  0.00000000E+00
  0.00000000E+00  0.00000000E+00  0.00000000E+00
  0.00000000E+00  0.00000000E+00  0.00000000E+00
  0.00000000E+00  0.00000000E+00  0.00000000E+00
  0.00000000E+00  0.00000000E+00  0.00000000E+00
  0.00000000E+00  0.00000000E+00  0.00000000E+00
  0.00000000E+00  0.00000000E+00  0.00000000E+00
  0.00000000E+00  0.00000000E+00  0.00000000E+00
  0.00000000E+00  0.00000000E+00  0.00000000E+00
  0.00000000E+00  0.00000000E+00  0.00000000E+00
  0.00000000E+00  0.00000000E+00  0.00000000E+00
  0.00000000E+00  0.00000000E+00  0.00000000E+00
  0.00000000E+00  0.00000000E+00  0.00000000E+00
  0.00000000E+00  0.00000000E+00  0.00000000E+00
  0.00000000E+00  0.00000000E+00  0.00000000E+00
  0.00000000E+00  0.00000000E+00  0.00000000E+00
  0.00000000E+00  0.00000000E+00  0.00000000E+00
  0.00000000E+00  0.00000000E+00  0.00000000E+00
