Sr   Ti   Fe   O                        
   1.00000000000000     
    11.1989999999999998    0.0000000000000000    0.0000000000000000
     0.0000000000000000   11.1989999999999998    0.0000000000000000
     0.0000000000000000    0.0000000000000000   15.9830000000000005
   Sr   Ti   Fe   O 
    32    31     1    94
Direct
  0.0005445979947184  0.2487196880232117  0.1251128012532715
  0.9990407814428549  0.2491331586853798  0.6249321741610108
  0.9988470904495879  0.7514801441948163  0.1254183535563628
  0.0004498723312032  0.7509152104906696  0.6267654610326752
  0.5004562089816993  0.2508843763853039  0.1236967390887137
  0.5040553742555466  0.2417163567874786  0.6266671045002128
  0.4994503573372993  0.7491347627986662  0.1246102415912782
  0.4959129604062851  0.7545337470509632  0.6271122021533869
  0.9975233476096503  0.2505436049389388  0.3756077654732438
  0.0020922806341325  0.2491846620385414  0.8737855877505555
  0.9995866102533514  0.7483845752164294  0.3767402647805424
  0.0002846752191868  0.7505008783303621  0.8749220557348947
  0.5020113173238512  0.2486433152214607  0.3710126676221056
  0.4992423652963718  0.2515219358301305  0.8749733858483338
  0.4940473627529265  0.7476101363045022  0.3732628279893697
  0.5015368356987938  0.7517798887803487  0.8774471563699007
  0.2505340099007294  0.0005415062505171  0.1246085188911713
  0.2490903772424826  0.9983910094514969  0.6270027159266603
  0.2508788701164737  0.4993940636293036  0.1249566745106209
  0.2369606580627558  0.5047896827001767  0.6253653015089988
  0.7489213196752055  0.9989067179043783  0.1247951908957534
  0.7530240250350040  0.0018388261813147  0.6278828085949287
  0.7483421865603771  0.5005161615807268  0.1242981732534272
  0.7643364278691814  0.4941582172405743  0.6277361148857420
  0.2487569989132284  0.9963521770149388  0.3732395410190726
  0.2509250675515657  0.0017044381469017  0.8750022644836465
  0.2456422095384101  0.5054916876474710  0.3738330036700112
  0.2518260871753705  0.4997240610693585  0.8751258558322844
  0.7504051238396958  0.0022256151508854  0.3717437093039999
  0.7519251067334869  0.0004933929498072  0.8759444931342608
  0.7519746812406660  0.4937234031649766  0.3729789666271355
  0.7507982474042532  0.5017460133550811  0.8751805635079410
  0.0005923914686173  0.0005670224512442  0.9999843968954131
  0.0008094263793076  0.0008644668090133  0.4994325479930630
  0.0002287142960286  0.4999636985335273  0.0004233377621620
  0.9977229657549407  0.4994330563758635  0.4995695394527960
  0.5001816475350533  0.0005124217767064  0.0002141669065415
  0.5004305493583249  0.9988718869821114  0.4996300904320755
  0.4998208005738486  0.5001511995247903  0.0001042744463081
  0.2499388902684866  0.2503206474212140  0.9998471357340994
  0.2496190654069072  0.2455815842484728  0.4996257154521106
  0.2500817549552551  0.7494626188595688  0.9999481308692094
  0.2485513985613393  0.7503603075151402  0.5001528093535780
  0.7503583612923399  0.2508035268774158  0.9997379558395800
  0.7464320887814279  0.2469153990423516  0.4997905961789004
  0.7510084118362077  0.7504462706374546  0.0001920436129137
  0.2503962896961831  0.2510554096199873  0.2499769519123508
  0.2540639654723949  0.2527781166303097  0.7484199908818703
  0.2484584099425893  0.7500100097058864  0.2492599171439263
  0.2512307150937137  0.7504303043502482  0.7498946801846357
  0.7501934008607902  0.2491262455141690  0.2486553847523659
  0.7506885216783987  0.2499863887867945  0.7501401382956363
  0.7473340684374363  0.7473795644495268  0.2513874953120999
  0.7502316506058335  0.7518939393575648  0.7509003630396081
  0.9997958011971633  0.9998014270248483  0.2505889903618317
  0.0013521753816224  0.0003831025751370  0.7507303113030885
  0.9990638661738629  0.4997583346027491  0.2494218733232287
  0.0009327318586511  0.5000276463915949  0.7518130234880941
  0.4993902499801370  0.9992404928236329  0.2499209251421688
  0.5009559704343919  0.0002064587602713  0.7510935973300888
  0.4992899689894090  0.4992898372032777  0.2500451064377587
  0.5046538205278523  0.5043099813068493  0.7518466475337282
  0.7513032272832705  0.7573948172462053  0.5032606601231538
  0.4995059121509398  0.4975072342683268  0.4959187965732924
  0.1102513991023500  0.1412526727300199  0.2543378396783582
  0.1114018975152790  0.1399741559070737  0.7459468753462494
  0.1075398509640238  0.6406772355156433  0.2507235171208097
  0.1128871766509978  0.6386505157602974  0.7490558085385874
  0.6101661935219849  0.1385298618741044  0.2485309546466509
  0.6101149217539721  0.1413916952291010  0.7512404136089577
  0.6072455162328523  0.6400634662083406  0.2468681361702324
  0.3904941131315618  0.3590336935420629  0.2452833310952420
  0.3901393056402177  0.3587533619151379  0.7442198707348539
  0.3891458386188572  0.8594953453168588  0.2498353592059941
  0.3903050013021453  0.8613862643854544  0.7524936451902035
  0.8905725777182713  0.3586652323537781  0.2507896750742651
  0.8907719052967956  0.3606470603605361  0.7499068636976240
  0.8875555316400561  0.8580311839580399  0.2564265999027850
  0.8931635395401686  0.8623789739053438  0.7532249740090415
  0.3594295198702583  0.1094980444649925  0.2516926789801041
  0.3607569048337607  0.1099912878496224  0.7487592414174049
  0.3573064565310601  0.6098445201112274  0.2496042755391848
  0.3640983790241803  0.6115932007339518  0.7366486717960492
  0.8599566344219958  0.1086714797282305  0.2474254609329715
  0.8612997535083762  0.1112847337338762  0.7521359491347748
  0.8573255475481211  0.6076190441800216  0.2508069979583364
  0.8637091159107632  0.6124715737818276  0.7504654562103783
  0.1401447466358561  0.3912321515826552  0.2509747131672002
  0.1404192174747673  0.3905035252764332  0.7512915691778395
  0.1390991004646222  0.8906709895915503  0.2478767504769106
  0.1414860216049849  0.8901970772941493  0.7527980022224021
  0.6413109988175341  0.3888792382752967  0.2487310584798931
  0.6393283211683484  0.8886903976697845  0.2517295785022793
  0.6422053098214013  0.8944238279840756  0.7516250093142359
  0.3579800132380250  0.3897804733155569  0.0020614510757326
  0.3594221157135694  0.8903638321386999  0.9991165301078503
  0.3577954307680879  0.8913330445735896  0.4996994074786780
  0.8589773313874496  0.3918588438377737  0.9998612192884777
  0.8655354456138813  0.3814901191556883  0.4989616354002540
  0.8605989563843531  0.8919877842042787  0.0016631383811269
  0.8562320335002488  0.8871461680921838  0.4928022426822394
  0.1409383806637232  0.1091299633935138  0.0008008049226382
  0.1415901142349925  0.1088461976333248  0.4993336233266539
  0.1411279988070830  0.6084012993642581  0.9999797520289557
  0.1219669272838302  0.6206375235574291  0.4996337549094524
  0.6408551614082639  0.1097897462522140  0.0002827011737394
  0.6459324938096342  0.0976271562313520  0.5001655015800127
  0.6414876410461118  0.6106445789012575  0.9994677664096441
  0.1086448510191097  0.3588438458264708  0.9998238077739167
  0.1226082041247209  0.3697775243039202  0.4987536314393212
  0.1099999982404291  0.8587567670411852  0.9984179567285435
  0.1055494956282170  0.8621306414682988  0.4986098100749374
  0.6094851843642496  0.3595463508363754  0.0001863210639301
  0.6099175952365572  0.8602030640598936  0.0010613796412394
  0.6017708276573476  0.8476424427926492  0.5002225722502638
  0.3906766164511891  0.1406536946106883  0.0007574308781804
  0.3961788411957938  0.1453666871013937  0.4995102145318998
  0.3906975326423012  0.6409201466704546  0.0010680809291227
  0.3658813411999241  0.6289569403643143  0.4982258649444371
  0.8909191607143254  0.1415934068759589  0.9989950491080062
  0.8924081694239718  0.1366125947687862  0.4997210924587097
  0.8915748857555421  0.6410226953890533  0.0009028692724404
  0.0004189461998578  0.9995109714997213  0.1256759890503446
  0.9975741251476827  0.9966094074529539  0.6245106985497103
  0.9997759387153576  0.4995737537316984  0.1253703355365960
  0.0025008229905107  0.4977344110591147  0.6251325254845957
  0.4990530411278235  0.9991692152198911  0.1253387055276798
  0.5003767776305204  0.0007471913267030  0.6250515696025729
  0.5005503180943971  0.5003777632430240  0.1240786096092668
  0.0007001990239766  0.0016581690715368  0.3744932618247331
  0.0024284419468068  0.0032625742578320  0.8757247308110399
  0.9971360225945577  0.5003783014703652  0.3750745985135860
  0.0000158717080493  0.5007082951323026  0.8754218167276837
  0.5001997937796376  0.9987654814509709  0.3752206528149835
  0.4999569890931287  0.0014213173355674  0.8757694878425546
  0.4955479533697940  0.4978945207692307  0.8770394190964440
  0.2604252188615409  0.2611411934227254  0.3768348651297722
  0.2513766281801806  0.2496596633033264  0.8748595728252970
  0.2458528380082967  0.7536267852654343  0.3734744711825886
  0.2541479045312106  0.7431237993428332  0.8739115744435908
  0.7516638189298083  0.2449026068206122  0.3734045957805589
  0.7481779860840239  0.2539346803284715  0.8744623861219802
  0.7340682837765197  0.7320295302863614  0.3796816129687243
  0.7548237832275219  0.7542060298556649  0.8771723880986303
  0.2467048610917030  0.2476735222115532  0.1258640319752059
  0.2534679783637113  0.2557237796978080  0.6220155361709118
  0.2486391824403475  0.7500626129010762  0.1243756734839968
  0.2440994802271256  0.7573559792515276  0.6250916141948998
  0.7510629406888439  0.2501360767621970  0.1241616380327934
  0.7533225483467565  0.2441652581933161  0.6253673475902539
  0.7517970502817783  0.7511230033918092  0.1266212538318074
  0.6411973415205964  0.3914746444203068  0.7430252602168429
  0.6151780363445636  0.6480581997301769  0.7556545703116883
  0.4990814290964681  0.4967894956709669  0.3715028690122661
  0.6088500137901951  0.3446982031474032  0.4986307432327483
  0.7580949329391999  0.7628470330707382  0.6258421782690055
  0.8692349331043722  0.6274120527715572  0.5026115069761770
  0.5876464199130965  0.5776535178523162  0.5781766134920198
 
  0.00000000E+00  0.00000000E+00  0.00000000E+00
  0.00000000E+00  0.00000000E+00  0.00000000E+00
  0.00000000E+00  0.00000000E+00  0.00000000E+00
  0.00000000E+00  0.00000000E+00  0.00000000E+00
  0.00000000E+00  0.00000000E+00  0.00000000E+00
  0.00000000E+00  0.00000000E+00  0.00000000E+00
  0.00000000E+00  0.00000000E+00  0.00000000E+00
  0.00000000E+00  0.00000000E+00  0.00000000E+00
  0.00000000E+00  0.00000000E+00  0.00000000E+00
  0.00000000E+00  0.00000000E+00  0.00000000E+00
  0.00000000E+00  0.00000000E+00  0.00000000E+00
  0.00000000E+00  0.00000000E+00  0.00000000E+00
  0.00000000E+00  0.00000000E+00  0.00000000E+00
  0.00000000E+00  0.00000000E+00  0.00000000E+00
  0.00000000E+00  0.00000000E+00  0.00000000E+00
  0.00000000E+00  0.00000000E+00  0.00000000E+00
  0.00000000E+00  0.00000000E+00  0.00000000E+00
  0.00000000E+00  0.00000000E+00  0.00000000E+00
  0.00000000E+00  0.00000000E+00  0.00000000E+00
  0.00000000E+00  0.00000000E+00  0.00000000E+00
  0.00000000E+00  0.00000000E+00  0.00000000E+00
  0.00000000E+00  0.00000000E+00  0.00000000E+00
  0.00000000E+00  0.00000000E+00  0.00000000E+00
  0.00000000E+00  0.00000000E+00  0.00000000E+00
  0.00000000E+00  0.00000000E+00  0.00000000E+00
  0.00000000E+00  0.00000000E+00  0.00000000E+00
  0.00000000E+00  0.00000000E+00  0.00000000E+00
  0.00000000E+00  0.00000000E+00  0.00000000E+00
  0.00000000E+00  0.00000000E+00  0.00000000E+00
  0.00000000E+00  0.00000000E+00  0.00000000E+00
  0.00000000E+00  0.00000000E+00  0.00000000E+00
  0.00000000E+00  0.00000000E+00  0.00000000E+00
  0.00000000E+00  0.00000000E+00  0.00000000E+00
  0.00000000E+00  0.00000000E+00  0.00000000E+00
  0.00000000E+00  0.00000000E+00  0.00000000E+00
  0.00000000E+00  0.00000000E+00  0.00000000E+00
  0.00000000E+00  0.00000000E+00  0.00000000E+00
  0.00000000E+00  0.00000000E+00  0.00000000E+00
  0.00000000E+00  0.00000000E+00  0.00000000E+00
  0.00000000E+00  0.00000000E+00  0.00000000E+00
  0.00000000E+00  0.00000000E+00  0.00000000E+00
  0.00000000E+00  0.00000000E+00  0.00000000E+00
  0.00000000E+00  0.00000000E+00  0.00000000E+00
  0.00000000E+00  0.00000000E+00  0.00000000E+00
  0.00000000E+00  0.00000000E+00  0.00000000E+00
  0.00000000E+00  0.00000000E+00  0.00000000E+00
  0.00000000E+00  0.00000000E+00  0.00000000E+00
  0.00000000E+00  0.00000000E+00  0.00000000E+00
  0.00000000E+00  0.00000000E+00  0.00000000E+00
  0.00000000E+00  0.00000000E+00  0.00000000E+00
  0.00000000E+00  0.00000000E+00  0.00000000E+00
  0.00000000E+00  0.00000000E+00  0.00000000E+00
  0.00000000E+00  0.00000000E+00  0.00000000E+00
  0.00000000E+00  0.00000000E+00  0.00000000E+00
  0.00000000E+00  0.00000000E+00  0.00000000E+00
  0.00000000E+00  0.00000000E+00  0.00000000E+00
  0.00000000E+00  0.00000000E+00  0.00000000E+00
  0.00000000E+00  0.00000000E+00  0.00000000E+00
  0.00000000E+00  0.00000000E+00  0.00000000E+00
  0.00000000E+00  0.00000000E+00  0.00000000E+00
  0.00000000E+00  0.00000000E+00  0.00000000E+00
  0.00000000E+00  0.00000000E+00  0.00000000E+00
  0.00000000E+00  0.00000000E+00  0.00000000E+00
  0.00000000E+00  0.00000000E+00  0.00000000E+00
  0.00000000E+00  0.00000000E+00  0.00000000E+00
  0.00000000E+00  0.00000000E+00  0.00000000E+00
  0.00000000E+00  0.00000000E+00  0.00000000E+00
  0.00000000E+00  0.00000000E+00  0.00000000E+00
  0.00000000E+00  0.00000000E+00  0.00000000E+00
  0.00000000E+00  0.00000000E+00  0.00000000E+00
  0.00000000E+00  0.00000000E+00  0.00000000E+00
  0.00000000E+00  0.00000000E+00  0.00000000E+00
  0.00000000E+00  0.00000000E+00  0.00000000E+00
  0.00000000E+00  0.00000000E+00  0.00000000E+00
  0.00000000E+00  0.00000000E+00  0.00000000E+00
  0.00000000E+00  0.00000000E+00  0.00000000E+00
  0.00000000E+00  0.00000000E+00  0.00000000E+00
  0.00000000E+00  0.00000000E+00  0.00000000E+00
  0.00000000E+00  0.00000000E+00  0.00000000E+00
  0.00000000E+00  0.00000000E+00  0.00000000E+00
  0.00000000E+00  0.00000000E+00  0.00000000E+00
  0.00000000E+00  0.00000000E+00  0.00000000E+00
  0.00000000E+00  0.00000000E+00  0.00000000E+00
  0.00000000E+00  0.00000000E+00  0.00000000E+00
  0.00000000E+00  0.00000000E+00  0.00000000E+00
  0.00000000E+00  0.00000000E+00  0.00000000E+00
  0.00000000E+00  0.00000000E+00  0.00000000E+00
  0.00000000E+00  0.00000000E+00  0.00000000E+00
  0.00000000E+00  0.00000000E+00  0.00000000E+00
  0.00000000E+00  0.00000000E+00  0.00000000E+00
  0.00000000E+00  0.00000000E+00  0.00000000E+00
  0.00000000E+00  0.00000000E+00  0.00000000E+00
  0.00000000E+00  0.00000000E+00  0.00000000E+00
  0.00000000E+00  0.00000000E+00  0.00000000E+00
  0.00000000E+00  0.00000000E+00  0.00000000E+00
  0.00000000E+00  0.00000000E+00  0.00000000E+00
  0.00000000E+00  0.00000000E+00  0.00000000E+00
  0.00000000E+00  0.00000000E+00  0.00000000E+00
  0.00000000E+00  0.00000000E+00  0.00000000E+00
  0.00000000E+00  0.00000000E+00  0.00000000E+00
  0.00000000E+00  0.00000000E+00  0.00000000E+00
  0.00000000E+00  0.00000000E+00  0.00000000E+00
  0.00000000E+00  0.00000000E+00  0.00000000E+00
  0.00000000E+00  0.00000000E+00  0.00000000E+00
  0.00000000E+00  0.00000000E+00  0.00000000E+00
  0.00000000E+00  0.00000000E+00  0.00000000E+00
  0.00000000E+00  0.00000000E+00  0.00000000E+00
  0.00000000E+00  0.00000000E+00  0.00000000E+00
  0.00000000E+00  0.00000000E+00  0.00000000E+00
  0.00000000E+00  0.00000000E+00  0.00000000E+00
  0.00000000E+00  0.00000000E+00  0.00000000E+00
  0.00000000E+00  0.00000000E+00  0.00000000E+00
  0.00000000E+00  0.00000000E+00  0.00000000E+00
  0.00000000E+00  0.00000000E+00  0.00000000E+00
  0.00000000E+00  0.00000000E+00  0.00000000E+00
  0.00000000E+00  0.00000000E+00  0.00000000E+00
  0.00000000E+00  0.00000000E+00  0.00000000E+00
  0.00000000E+00  0.00000000E+00  0.00000000E+00
  0.00000000E+00  0.00000000E+00  0.00000000E+00
  0.00000000E+00  0.00000000E+00  0.00000000E+00
  0.00000000E+00  0.00000000E+00  0.00000000E+00
  0.00000000E+00  0.00000000E+00  0.00000000E+00
  0.00000000E+00  0.00000000E+00  0.00000000E+00
  0.00000000E+00  0.00000000E+00  0.00000000E+00
  0.00000000E+00  0.00000000E+00  0.00000000E+00
  0.00000000E+00  0.00000000E+00  0.00000000E+00
  0.00000000E+00  0.00000000E+00  0.00000000E+00
  0.00000000E+00  0.00000000E+00  0.00000000E+00
  0.00000000E+00  0.00000000E+00  0.00000000E+00
  0.00000000E+00  0.00000000E+00  0.00000000E+00
  0.00000000E+00  0.00000000E+00  0.00000000E+00
  0.00000000E+00  0.00000000E+00  0.00000000E+00
  0.00000000E+00  0.00000000E+00  0.00000000E+00
  0.00000000E+00  0.00000000E+00  0.00000000E+00
  0.00000000E+00  0.00000000E+00  0.00000000E+00
  0.00000000E+00  0.00000000E+00  0.00000000E+00
  0.00000000E+00  0.00000000E+00  0.00000000E+00
  0.00000000E+00  0.00000000E+00  0.00000000E+00
  0.00000000E+00  0.00000000E+00  0.00000000E+00
  0.00000000E+00  0.00000000E+00  0.00000000E+00
  0.00000000E+00  0.00000000E+00  0.00000000E+00
  0.00000000E+00  0.00000000E+00  0.00000000E+00
  0.00000000E+00  0.00000000E+00  0.00000000E+00
  0.00000000E+00  0.00000000E+00  0.00000000E+00
  0.00000000E+00  0.00000000E+00  0.00000000E+00
  0.00000000E+00  0.00000000E+00  0.00000000E+00
  0.00000000E+00  0.00000000E+00  0.00000000E+00
  0.00000000E+00  0.00000000E+00  0.00000000E+00
  0.00000000E+00  0.00000000E+00  0.00000000E+00
  0.00000000E+00  0.00000000E+00  0.00000000E+00
  0.00000000E+00  0.00000000E+00  0.00000000E+00
  0.00000000E+00  0.00000000E+00  0.00000000E+00
  0.00000000E+00  0.00000000E+00  0.00000000E+00
  0.00000000E+00  0.00000000E+00  0.00000000E+00
  0.00000000E+00  0.00000000E+00  0.00000000E+00
  0.00000000E+00  0.00000000E+00  0.00000000E+00
  0.00000000E+00  0.00000000E+00  0.00000000E+00
  0.00000000E+00  0.00000000E+00  0.00000000E+00
