Sr   Ti   Fe   O                        
   1.00000000000000     
    11.1989999999999998    0.0000000000000000    0.0000000000000000
     0.0000000000000000   11.1989999999999998    0.0000000000000000
     0.0000000000000000    0.0000000000000000   15.9830000000000005
   Sr   Ti   Fe   O 
    32    31     1    94
Direct
  0.0000358954457934  0.2502502324417175  0.1243401496431459
  0.0054765221101601  0.2476757861550989  0.6289843127905708
  0.9996196570555576  0.7510519672762838  0.1252841579170803
  0.0022417312846578  0.7491084098203803  0.6282743257549015
  0.5005725024727964  0.2513122933225312  0.1244196781468887
  0.4966362333015285  0.2344886161258461  0.6274869238035108
  0.4989903592829416  0.7496208083086457  0.1236865611679817
  0.5003882174924753  0.7488674847155502  0.6250044499154872
  0.0070082369888057  0.2502336008808774  0.3718759866519127
  0.9998919111801985  0.2501906323422370  0.8757198431332653
  0.0014551134536634  0.7468624255082373  0.3741210867738934
  0.0006519546535438  0.7507817372343707  0.8752759130660791
  0.4947644165557135  0.2427268166018645  0.3693662092143520
  0.5014936713710142  0.2496498883664278  0.8754084686681092
  0.4962712867324375  0.7494368074173379  0.3720233869652722
  0.5005114386395907  0.7517290230159719  0.8763831238066101
  0.2501466595907531  0.0004664152686540  0.1242918413889648
  0.2508189561323625  0.9982480989921820  0.6268070817257630
  0.2512422247411467  0.5011701910139050  0.1257775171333309
  0.2411297057538019  0.4993008560698903  0.6250447134657697
  0.7497481511950670  0.0006887146396794  0.1248407397055404
  0.7488067939486756  0.9996419371852268  0.6290863302841411
  0.7500302002812093  0.5016407341430161  0.1227324929237702
  0.7685701116531998  0.4958262538233826  0.6330167620209978
  0.2504065548565464  0.9986305557126653  0.3725656997517616
  0.2507428098983163  0.0001059203824516  0.8745714362030934
  0.2476332406731684  0.5000187884979235  0.3761852426473678
  0.2506498631142497  0.5020958285001311  0.8760601940475190
  0.7461731522478965  0.9997997271001392  0.3710984107641735
  0.7513467334929179  0.0012458054265422  0.8751401243270014
  0.7548450770580950  0.4977031438402383  0.3688855243400284
  0.7514061856158708  0.5008342743258938  0.8768599029934256
  0.9995560867337868  0.0006709502967516  0.9999052069539306
  0.0082065746825794  0.9971199816892992  0.4992084208749519
  0.0005571503133474  0.4999930690582046  0.0005531506023906
  0.9988771212735512  0.4992988967408832  0.4997955056261835
  0.4999498409277222  0.0004899019221084  0.0001312555824315
  0.4974683350742672  0.9976716023648378  0.4994579606745428
  0.4989879022613579  0.5003817580786623  0.0006737771918925
  0.2509348393527840  0.2508435727801703  0.9999293913278852
  0.2514280294072689  0.2497391490989727  0.5007506218452081
  0.2504632899224732  0.7500200278611650  0.9998870420103503
  0.2495985285985040  0.7499391063084313  0.4996976055695087
  0.7505687536790165  0.2499029525293332  0.9999386920016841
  0.7633973979129944  0.2406529325532095  0.4993374995243561
  0.7504507905679696  0.7509967711159470  0.0001368237928026
  0.2504352739447208  0.2505256003304884  0.2492739606332217
  0.2514733479624999  0.2506607342270977  0.7495067563634786
  0.2490225006878831  0.7497107550999230  0.2499140660353000
  0.2516588434442913  0.7489373426635126  0.7492344172074527
  0.7492346672993804  0.2509238208033796  0.2488733401633992
  0.7493189469509743  0.2515855209757497  0.7505202167974997
  0.7483830631329522  0.7483912022837989  0.2499521439739562
  0.7506857472473035  0.7506479364830079  0.7511303360146383
  0.9995408539058841  0.9997868279299770  0.2505651450744314
  0.0008135202096707  0.9999001513724064  0.7506224715789576
  0.0004719403809287  0.4996687492327964  0.2493663034434100
  0.0022236133442049  0.5000153929968908  0.7524179299307476
  0.4998449578250186  0.9986716467415998  0.2489041534187687
  0.5008109143083420  0.9983714430705568  0.7511955399809161
  0.5015258956383501  0.4990690028787679  0.2506192598108818
  0.5028604939407801  0.5012490920187133  0.7539448693390497
  0.7558526523759814  0.7599356598332782  0.5023618706181096
  0.4892792117557753  0.5016595449700870  0.4942827006110170
  0.1103555864055014  0.1398160843990847  0.2501342388502077
  0.1114322070920564  0.1401476409909052  0.7539250365491962
  0.1094849637266466  0.6394358485894605  0.2492623032910593
  0.1109537534962563  0.6396441546016280  0.7509187879951701
  0.6106603517706477  0.1390672836495734  0.2498586403068809
  0.6120162045448378  0.1386319814337047  0.7500855368128952
  0.6091658980704401  0.6404331407207596  0.2459184631974144
  0.3904305907387330  0.3593001442243446  0.2493423942804192
  0.3917055128773788  0.3641287217480810  0.7337759613859561
  0.3889995768639759  0.8602530856161660  0.2498692375158136
  0.3890222784345184  0.8623542064755878  0.7503570581454713
  0.8897082861552105  0.3595142985758722  0.2534397098291550
  0.8920846848276760  0.3596392089875937  0.7484333012698030
  0.8873161438281365  0.8597310186725654  0.2557345326319909
  0.8905162555271745  0.8620501970636452  0.7513721826779547
  0.3612099948221361  0.1109186585798115  0.2520566723437523
  0.3635652228110066  0.1132155740576654  0.7484508406477552
  0.3600355831317302  0.6097179614566280  0.2562211811914871
  0.3596218720401507  0.6134529701559326  0.7402872055087710
  0.8593001218848040  0.1115838380276384  0.2561162514729590
  0.8613841787167389  0.1119600279877535  0.7455574645899173
  0.8599367838278479  0.6101270985742580  0.2498350790689096
  0.8635766978419765  0.6127316617643378  0.7522996333691111
  0.1402687208118236  0.3899511297459129  0.2509108636247573
  0.1418892939490428  0.3903834006004262  0.7507411788167159
  0.1379953153504577  0.8904096391198227  0.2460879533114906
  0.1390062116983748  0.8910667186772373  0.7513320623346226
  0.6419904149873515  0.3895826039467871  0.2413170969668323
  0.6399124644559474  0.8891032375284783  0.2507505163353464
  0.6407694320831391  0.8906946882166963  0.7515790063799022
  0.3585308971235477  0.3911195316433515  0.0022219712593787
  0.3590475135761549  0.8913021372076244  0.0000598050592484
  0.3549973984368104  0.8938167860147990  0.4996519663533976
  0.8595766029330068  0.3905796978463787  0.0000406850130182
  0.8501677478653515  0.3926465445152961  0.4986991678466735
  0.8593799239171158  0.8914318973737303  0.0001825738379360
  0.8530726559431836  0.8957434136935213  0.4953531406292132
  0.1411819631498062  0.1098510127617018  0.9987303426689503
  0.1419056462049197  0.1048485137242636  0.4978296247975350
  0.1404881112219590  0.6094602202233274  0.0003186745272262
  0.1335771451846558  0.6104509420036840  0.4988564438814340
  0.6409647992207556  0.1097157852874689  0.9999400316365809
  0.6363878388898874  0.1169887862856735  0.4996914990196872
  0.6402224226291964  0.6102564389736990  0.9998894967069955
  0.1098702531008009  0.3588824216637339  0.9995354545863079
  0.1065692372057222  0.3580689841719528  0.5000283496804482
  0.1092173098147404  0.8603158874191608  0.0009382906007919
  0.1005356776845221  0.8556360505073349  0.4999502483393092
  0.6106884150084192  0.3593836959846586  0.0016547045398446
  0.6094047524610519  0.8597300624513857  0.0005399688115129
  0.6045187161617769  0.8517335257151900  0.5003153905076722
  0.3912977598805808  0.1414717291969959  0.0001594512151600
  0.3896963183199439  0.1375764774645692  0.4995404932611517
  0.3903482853973480  0.6421245610454540  0.0000054195144754
  0.3792892584912643  0.6452688051615862  0.4946796291277839
  0.8919014676474868  0.1410830033319771  0.9995277278675854
  0.8951648762884493  0.1427165544344793  0.4977997201943691
  0.8905277318058621  0.6405084111542081  0.0004435447115695
  0.9948939380201333  0.0019011192319419  0.1260032957334017
 -0.0000715774391377  1.0003226675473997  0.6237293885931945
  0.9994225865887519  0.4978076784594505  0.1254356178935251
  0.0028987949987789  0.4995326564779059  0.6251919791920514
  0.4994771019176599  0.0002575872856210  0.1252265017891427
  0.5018590430700683  0.9994672346053808  0.6246366052333835
  0.4955232730010427  0.5023544767114310  0.1247931671951678
  0.0029466521615839 -0.0004571044439747  0.3750936932616955
  0.9974590029447963  0.0010307961661179  0.8753669976568975
  0.9993753454508426  0.5005801491517879  0.3753639199461613
  0.0002698224362154  0.4988008120502845  0.8756150090756765
  0.5016868963103170  0.9979694663120169  0.3751056239772964
  0.4992620906692627  0.0005684026896926  0.8752724151748494
  0.4942873376531714  0.4973895301135006  0.8776268011623192
  0.2504111896740788  0.2528004978233614  0.3755940106002427
  0.2584535145895787  0.2550547793401099  0.8736252911935397
  0.2413155320992946  0.7569267491825762  0.3736500386870000
  0.2517081067025366  0.7484707556456267  0.8747298285526404
  0.7330342942504481  0.2614168359209407  0.3786338431655282
  0.7522786244078176  0.2485827612676187  0.8749652043905984
  0.7365739484689169  0.7358747965178851  0.3793979266518097
  0.7508707455544802  0.7512584158313037  0.8758377849850940
  0.2497181423366246  0.2486082903567834  0.1251888742647743
  0.2403925770611550  0.2410848397547556  0.6250578173024527
  0.2516041460633062  0.7478494240758671  0.1253695270385900
  0.2432176260269082  0.7550567763078726  0.6239438199202082
  0.7554361086993883  0.2454500569072787  0.1254662084169121
  0.7391408237987159  0.2566965465462129  0.6200818712159916
  0.7524943557908276  0.7519796158494229  0.1256924980824066
  0.6445987844107085  0.3885550725405701  0.7508649659372026
  0.6123912917819468  0.6417807085549835  0.7512936788269660
  0.5175653942813448  0.4891020259076042  0.3719272854134074
  0.3622346637229782  0.3809849427222039  0.5093288991929107
  0.7545468076722293  0.7587179002290708  0.6255698612879769
  0.8802102551325502  0.6373021520838505  0.5018322931426197
  0.5971251917357263  0.5652484708961621  0.5692435869596056
 
  0.00000000E+00  0.00000000E+00  0.00000000E+00
  0.00000000E+00  0.00000000E+00  0.00000000E+00
  0.00000000E+00  0.00000000E+00  0.00000000E+00
  0.00000000E+00  0.00000000E+00  0.00000000E+00
  0.00000000E+00  0.00000000E+00  0.00000000E+00
  0.00000000E+00  0.00000000E+00  0.00000000E+00
  0.00000000E+00  0.00000000E+00  0.00000000E+00
  0.00000000E+00  0.00000000E+00  0.00000000E+00
  0.00000000E+00  0.00000000E+00  0.00000000E+00
  0.00000000E+00  0.00000000E+00  0.00000000E+00
  0.00000000E+00  0.00000000E+00  0.00000000E+00
  0.00000000E+00  0.00000000E+00  0.00000000E+00
  0.00000000E+00  0.00000000E+00  0.00000000E+00
  0.00000000E+00  0.00000000E+00  0.00000000E+00
  0.00000000E+00  0.00000000E+00  0.00000000E+00
  0.00000000E+00  0.00000000E+00  0.00000000E+00
  0.00000000E+00  0.00000000E+00  0.00000000E+00
  0.00000000E+00  0.00000000E+00  0.00000000E+00
  0.00000000E+00  0.00000000E+00  0.00000000E+00
  0.00000000E+00  0.00000000E+00  0.00000000E+00
  0.00000000E+00  0.00000000E+00  0.00000000E+00
  0.00000000E+00  0.00000000E+00  0.00000000E+00
  0.00000000E+00  0.00000000E+00  0.00000000E+00
  0.00000000E+00  0.00000000E+00  0.00000000E+00
  0.00000000E+00  0.00000000E+00  0.00000000E+00
  0.00000000E+00  0.00000000E+00  0.00000000E+00
  0.00000000E+00  0.00000000E+00  0.00000000E+00
  0.00000000E+00  0.00000000E+00  0.00000000E+00
  0.00000000E+00  0.00000000E+00  0.00000000E+00
  0.00000000E+00  0.00000000E+00  0.00000000E+00
  0.00000000E+00  0.00000000E+00  0.00000000E+00
  0.00000000E+00  0.00000000E+00  0.00000000E+00
  0.00000000E+00  0.00000000E+00  0.00000000E+00
  0.00000000E+00  0.00000000E+00  0.00000000E+00
  0.00000000E+00  0.00000000E+00  0.00000000E+00
  0.00000000E+00  0.00000000E+00  0.00000000E+00
  0.00000000E+00  0.00000000E+00  0.00000000E+00
  0.00000000E+00  0.00000000E+00  0.00000000E+00
  0.00000000E+00  0.00000000E+00  0.00000000E+00
  0.00000000E+00  0.00000000E+00  0.00000000E+00
  0.00000000E+00  0.00000000E+00  0.00000000E+00
  0.00000000E+00  0.00000000E+00  0.00000000E+00
  0.00000000E+00  0.00000000E+00  0.00000000E+00
  0.00000000E+00  0.00000000E+00  0.00000000E+00
  0.00000000E+00  0.00000000E+00  0.00000000E+00
  0.00000000E+00  0.00000000E+00  0.00000000E+00
  0.00000000E+00  0.00000000E+00  0.00000000E+00
  0.00000000E+00  0.00000000E+00  0.00000000E+00
  0.00000000E+00  0.00000000E+00  0.00000000E+00
  0.00000000E+00  0.00000000E+00  0.00000000E+00
  0.00000000E+00  0.00000000E+00  0.00000000E+00
  0.00000000E+00  0.00000000E+00  0.00000000E+00
  0.00000000E+00  0.00000000E+00  0.00000000E+00
  0.00000000E+00  0.00000000E+00  0.00000000E+00
  0.00000000E+00  0.00000000E+00  0.00000000E+00
  0.00000000E+00  0.00000000E+00  0.00000000E+00
  0.00000000E+00  0.00000000E+00  0.00000000E+00
  0.00000000E+00  0.00000000E+00  0.00000000E+00
  0.00000000E+00  0.00000000E+00  0.00000000E+00
  0.00000000E+00  0.00000000E+00  0.00000000E+00
  0.00000000E+00  0.00000000E+00  0.00000000E+00
  0.00000000E+00  0.00000000E+00  0.00000000E+00
  0.00000000E+00  0.00000000E+00  0.00000000E+00
  0.00000000E+00  0.00000000E+00  0.00000000E+00
  0.00000000E+00  0.00000000E+00  0.00000000E+00
  0.00000000E+00  0.00000000E+00  0.00000000E+00
  0.00000000E+00  0.00000000E+00  0.00000000E+00
  0.00000000E+00  0.00000000E+00  0.00000000E+00
  0.00000000E+00  0.00000000E+00  0.00000000E+00
  0.00000000E+00  0.00000000E+00  0.00000000E+00
  0.00000000E+00  0.00000000E+00  0.00000000E+00
  0.00000000E+00  0.00000000E+00  0.00000000E+00
  0.00000000E+00  0.00000000E+00  0.00000000E+00
  0.00000000E+00  0.00000000E+00  0.00000000E+00
  0.00000000E+00  0.00000000E+00  0.00000000E+00
  0.00000000E+00  0.00000000E+00  0.00000000E+00
  0.00000000E+00  0.00000000E+00  0.00000000E+00
  0.00000000E+00  0.00000000E+00  0.00000000E+00
  0.00000000E+00  0.00000000E+00  0.00000000E+00
  0.00000000E+00  0.00000000E+00  0.00000000E+00
  0.00000000E+00  0.00000000E+00  0.00000000E+00
  0.00000000E+00  0.00000000E+00  0.00000000E+00
  0.00000000E+00  0.00000000E+00  0.00000000E+00
  0.00000000E+00  0.00000000E+00  0.00000000E+00
  0.00000000E+00  0.00000000E+00  0.00000000E+00
  0.00000000E+00  0.00000000E+00  0.00000000E+00
  0.00000000E+00  0.00000000E+00  0.00000000E+00
  0.00000000E+00  0.00000000E+00  0.00000000E+00
  0.00000000E+00  0.00000000E+00  0.00000000E+00
  0.00000000E+00  0.00000000E+00  0.00000000E+00
  0.00000000E+00  0.00000000E+00  0.00000000E+00
  0.00000000E+00  0.00000000E+00  0.00000000E+00
  0.00000000E+00  0.00000000E+00  0.00000000E+00
  0.00000000E+00  0.00000000E+00  0.00000000E+00
  0.00000000E+00  0.00000000E+00  0.00000000E+00
  0.00000000E+00  0.00000000E+00  0.00000000E+00
  0.00000000E+00  0.00000000E+00  0.00000000E+00
  0.00000000E+00  0.00000000E+00  0.00000000E+00
  0.00000000E+00  0.00000000E+00  0.00000000E+00
  0.00000000E+00  0.00000000E+00  0.00000000E+00
  0.00000000E+00  0.00000000E+00  0.00000000E+00
  0.00000000E+00  0.00000000E+00  0.00000000E+00
  0.00000000E+00  0.00000000E+00  0.00000000E+00
  0.00000000E+00  0.00000000E+00  0.00000000E+00
  0.00000000E+00  0.00000000E+00  0.00000000E+00
  0.00000000E+00  0.00000000E+00  0.00000000E+00
  0.00000000E+00  0.00000000E+00  0.00000000E+00
  0.00000000E+00  0.00000000E+00  0.00000000E+00
  0.00000000E+00  0.00000000E+00  0.00000000E+00
  0.00000000E+00  0.00000000E+00  0.00000000E+00
  0.00000000E+00  0.00000000E+00  0.00000000E+00
  0.00000000E+00  0.00000000E+00  0.00000000E+00
  0.00000000E+00  0.00000000E+00  0.00000000E+00
  0.00000000E+00  0.00000000E+00  0.00000000E+00
  0.00000000E+00  0.00000000E+00  0.00000000E+00
  0.00000000E+00  0.00000000E+00  0.00000000E+00
  0.00000000E+00  0.00000000E+00  0.00000000E+00
  0.00000000E+00  0.00000000E+00  0.00000000E+00
  0.00000000E+00  0.00000000E+00  0.00000000E+00
  0.00000000E+00  0.00000000E+00  0.00000000E+00
  0.00000000E+00  0.00000000E+00  0.00000000E+00
  0.00000000E+00  0.00000000E+00  0.00000000E+00
  0.00000000E+00  0.00000000E+00  0.00000000E+00
  0.00000000E+00  0.00000000E+00  0.00000000E+00
  0.00000000E+00  0.00000000E+00  0.00000000E+00
  0.00000000E+00  0.00000000E+00  0.00000000E+00
  0.00000000E+00  0.00000000E+00  0.00000000E+00
  0.00000000E+00  0.00000000E+00  0.00000000E+00
  0.00000000E+00  0.00000000E+00  0.00000000E+00
  0.00000000E+00  0.00000000E+00  0.00000000E+00
  0.00000000E+00  0.00000000E+00  0.00000000E+00
  0.00000000E+00  0.00000000E+00  0.00000000E+00
  0.00000000E+00  0.00000000E+00  0.00000000E+00
  0.00000000E+00  0.00000000E+00  0.00000000E+00
  0.00000000E+00  0.00000000E+00  0.00000000E+00
  0.00000000E+00  0.00000000E+00  0.00000000E+00
  0.00000000E+00  0.00000000E+00  0.00000000E+00
  0.00000000E+00  0.00000000E+00  0.00000000E+00
  0.00000000E+00  0.00000000E+00  0.00000000E+00
  0.00000000E+00  0.00000000E+00  0.00000000E+00
  0.00000000E+00  0.00000000E+00  0.00000000E+00
  0.00000000E+00  0.00000000E+00  0.00000000E+00
  0.00000000E+00  0.00000000E+00  0.00000000E+00
  0.00000000E+00  0.00000000E+00  0.00000000E+00
  0.00000000E+00  0.00000000E+00  0.00000000E+00
  0.00000000E+00  0.00000000E+00  0.00000000E+00
  0.00000000E+00  0.00000000E+00  0.00000000E+00
  0.00000000E+00  0.00000000E+00  0.00000000E+00
  0.00000000E+00  0.00000000E+00  0.00000000E+00
  0.00000000E+00  0.00000000E+00  0.00000000E+00
  0.00000000E+00  0.00000000E+00  0.00000000E+00
  0.00000000E+00  0.00000000E+00  0.00000000E+00
  0.00000000E+00  0.00000000E+00  0.00000000E+00
  0.00000000E+00  0.00000000E+00  0.00000000E+00
  0.00000000E+00  0.00000000E+00  0.00000000E+00
  0.00000000E+00  0.00000000E+00  0.00000000E+00
  0.00000000E+00  0.00000000E+00  0.00000000E+00
  0.00000000E+00  0.00000000E+00  0.00000000E+00
