SrTiFeO                                 
   1.00000000000000     
    11.1989999999999998    0.0000000000000000    0.0000000000000000
     0.0000000000000000   11.1989999999999998    0.0000000000000000
     0.0000000000000000    0.0000000000000000   15.9830000000000005
   Sr   Ti   Fe   O 
    32    31     1    94
Direct
 -0.0002404296667651  0.2506107036215167  0.1243657503684930
  0.0053973525683752  0.2500009687955943  0.6276794760640457
 -0.0006454672737259  0.7499997758069419  0.1251872461003481
  0.0040611080495943  0.7470551130621433  0.6262132618449917
  0.5000665076038026  0.2515628843325893  0.1251077132915593
  0.4964350670286697  0.2456657582757066  0.6272341310296558
  0.4997461899382629  0.7494658674724995  0.1237189774061156
  0.4972496144789479  0.7506241513317793  0.6278127660253269
  0.0053973525683752  0.2500009687955943  0.3723205239359542
 -0.0002404296667651  0.2506107036215167  0.8756342496315072
  0.0040611080495943  0.7470551130621433  0.3737867381550082
 -0.0006454672737259  0.7499997758069419  0.8748127538996521
  0.4964350670286697  0.2456657582757066  0.3727658689703443
  0.5000665076038026  0.2515628843325893  0.8748922867084407
  0.4972496144789479  0.7506241513317793  0.3721872339746729
  0.4997461899382629  0.7494658674724995  0.8762810225938845
  0.2504712335891088  0.0001123324492636  0.1249336025541897
  0.2508761099093961 -0.0002354743010391  0.6263468545314959
  0.2515925213455570  0.5006164744964008  0.1254288508939989
  0.2516216389564230  0.4989105209285826  0.6225932526357536
  0.7495206652366502  0.0004775410846458  0.1248166271085311
  0.7473568589671359  0.0019810369243179  0.6281500081972450
  0.7501526662142001  0.5012450299649762  0.1232065282074262
  0.7563542157985621  0.4978748065132650  0.6314641867188066
  0.2508761099093961 -0.0002354743010391  0.3736531454685038
  0.2504712335891088  0.0001123324492636  0.8750663974458106
  0.2516216389564230  0.4989105209285826  0.3774067473642466
  0.2515925213455570  0.5006164744964008  0.8745711491060010
  0.7473568589671359  0.0019810369243179  0.3718499918027550
  0.7495206652366502  0.0004775410846458  0.8751833728914690
  0.7563542157985621  0.4978748065132650  0.3685358132811933
  0.7501526662142001  0.5012450299649762  0.8767934717925738
 -0.0005903006991379 -0.0001314550123084  0.0000000000000000
  0.0084420903787721 -0.0013435096780023  0.5000000000000000
  0.0007235863400103  0.4997347956344656  0.0000000000000000
 -0.0011717086697587  0.4993974290626507  0.5000000000000000
  0.5000052413972478  0.0003965471721615  0.0000000000000000
  0.4976781349784261 -0.0009425729040394  0.5000000000000000
  0.4991384870200337  0.5001308648406679  0.0000000000000000
  0.2505151973285370  0.2503047210668053  0.0000000000000000
  0.2515571917317311  0.2514570200256660  0.5000000000000000
  0.2500982915230290  0.7496904434189345  0.0000000000000000
  0.2528651511620211  0.7488997959160989  0.5000000000000000
  0.7505956606318266  0.2495847378687794  0.0000000000000000
  0.7608047434612633  0.2440854650821335  0.5000000000000000
  0.7503557421444300  0.7509574399420262  0.0000000000000000
  0.2502035881386646  0.2502293870473693  0.2499208454099973
  0.2502035881386646  0.2502293870473693  0.7500791545900026
  0.2502316228773063  0.7494227966784809  0.2499919930734397
  0.2502316228773063  0.7494227966784809  0.7500080069265604
  0.7494095215609740  0.2507301904479903  0.2492968296783455
  0.7494095215609740  0.2507301904479903  0.7507031703216545
  0.7491690252427073  0.7495127251451449  0.2498015924232491
  0.7491690252427073  0.7495127251451449  0.7501984075767507
 -0.0000593682634799 -0.0004207114621070  0.2503560506051108
 -0.0000593682634799 -0.0004207114621070  0.7496439493948895
  0.0013168895656400  0.4999810456686669  0.2494014577859224
  0.0013168895656400  0.4999810456686669  0.7505985422140776
  0.4999784481947555 -0.0004703516719350  0.2492937213572884
  0.4999784481947555 -0.0004703516719350  0.7507062786427117
  0.5022176214201922  0.4998345764974285  0.2523388743608705
  0.5022176214201922  0.4998345764974285  0.7476611256391292
  0.7564293941839041  0.7614808086418084  0.5000000000000000
  0.5020363316218941  0.5002243783778911  0.5000000000000000
  0.1093353428157930  0.1399305859415783  0.2480633999640598
  0.1093353428157930  0.1399305859415783  0.7519366000359405
  0.1101053973115238  0.6402169968699930  0.2491547393102816
  0.1101053973115238  0.6402169968699930  0.7508452606897182
  0.6100175490947707  0.1405154478181031  0.2504059256255753
  0.6100175490947707  0.1405154478181031  0.7495940743744248
  0.6095025497262728  0.6411489543079720  0.2461565912388885
  0.3913494718680423  0.3602163863168505  0.2539854934983027
  0.3913494718680423  0.3602163863168505  0.7460145065016974
  0.3898630998684288  0.8600536530101320  0.2495790568052458
  0.3898630998684288  0.8600536530101320  0.7504209431947543
  0.8900735380483152  0.3598047361136574  0.2522267709044555
  0.8900735380483152  0.3598047361136574  0.7477732290955447
  0.8888612742652079  0.8594213349409762  0.2549232894401423
  0.8888612742652079  0.8594213349409762  0.7450767105598576
  0.3605642466612650  0.1104819303388475  0.2508314852329985
  0.3605642466612650  0.1104819303388475  0.7491685147670016
  0.3611547212698888  0.6093730642039347  0.2556291449637633
  0.3611547212698888  0.6093730642039347  0.7443708550362366
  0.8590320878958508  0.1109498280369808  0.2541687086174120
  0.8590320878958508  0.1109498280369808  0.7458312913825881
  0.8603758691693093  0.6106547655134861  0.2491216611174787
  0.8603758691693093  0.6106547655134861  0.7508783388825215
  0.1409984116108167  0.3904344262806063  0.2510300561189848
  0.1409984116108167  0.3904344262806063  0.7489699438810152
  0.1393815054268344  0.8903135545421260  0.2486185711546830
  0.1393815054268344  0.8903135545421260  0.7513814288453168
  0.6418298320709401  0.3906287384049499  0.2442023423334215
  0.6409014946332229  0.8905848781262075  0.2509407331448077
  0.6409014946332229  0.8905848781262075  0.7490592668551920
  0.3591510698828419  0.3906661750174431  0.0000000000000000
  0.3590684290728833  0.8906624594586895  0.0000000000000000
  0.3547171620237511  0.8953226238275824  0.5000000000000000
  0.8595884634374584  0.3900923146585510  0.0000000000000000
  0.8512078682850142  0.3940579701900735  0.5000000000000000
  0.8590815009320177  0.8911400768079304  0.0000000000000000
  0.8535412353179161  0.8971789127295902  0.5000000000000000
  0.1403211545286618  0.1089735985071317  0.0000000000000000
  0.1419807696160186  0.1053879823237220  0.5000000000000000
  0.1406697448060993  0.6092147986979531  0.0000000000000000
  0.1378080004341216  0.6094191144128431  0.5000000000000000
  0.6409301599726088  0.1096554545875234  0.0000000000000000
  0.6373335577154586  0.1163136043160762  0.5000000000000000
  0.6400078123667443  0.6103327210120507  0.0000000000000000
  0.1095738098309299  0.3586475523740882  0.0000000000000000
  0.1048007459204221  0.3572465558123087  0.5000000000000000
  0.1091820815031126  0.8593549498019456  0.0000000000000000
  0.1026933946789033  0.8562073171966293  0.5000000000000000
  0.6101964439342716  0.3599711522725275  0.0000000000000000
  0.6095283266235627  0.8595397814339776  0.0000000000000000
  0.6042409432468043  0.8518763151963289  0.5000000000000000
  0.3906353989282946  0.1408175916620020  0.0000000000000000
  0.3909529583237757  0.1396741203791528  0.5000000000000000
  0.3905487619905114  0.6408916059866195  0.0000000000000000
  0.3887639044477574  0.6485405966917107  0.5000000000000000
  0.8915200688919942  0.1405367700177313  0.0000000000000000
  0.8938635174467318  0.1436110006905087  0.5000000000000000
  0.8902557497919547  0.6402716932894404  0.0000000000000000
 -0.0040949682755104 -0.0011529816892662  0.1256785936251773
  0.0011746032417797  0.0010190907669506  0.6243865472249851
  0.0000902318381326  0.4984834643419248  0.1251372900290511
 -0.0003554609821098  0.5011222863195627  0.6248293448435479
  0.5002911217297780  0.0002020318818531  0.1251336186690170
  0.5010173957308124 -0.0007046286307790  0.6247659344847416
  0.4960181349469036  0.5002042636831360  0.1252310479116025
  0.0011746032417797  0.0010190907669506  0.3756134527750148
 -0.0040949682755104 -0.0011529816892662  0.8743214063748229
 -0.0003554609821098  0.5011222863195627  0.3751706551564523
  0.0000902318381326  0.4984834643419248  0.8748627099709492
  0.5010173957308124 -0.0007046286307790  0.3752340655152578
  0.5002911217297780  0.0002020318818531  0.8748663813309830
  0.4960181349469036  0.5002042636831360  0.8747689520883977
  0.2463883650893127  0.2470996919510553  0.3746309594322897
  0.2520432566916037  0.2512357837219786  0.8746248692364239
  0.2463469314961192  0.7531282664974438  0.3746680343967887
  0.2518017522754314  0.7479689235161749  0.8746738028340187
  0.7384474021542632  0.2585987867712751  0.3777090988733517
  0.7528081544737190  0.2474412222365942  0.8747916939998250
  0.7396299999814625  0.7404616684997971  0.3778387254852905
  0.7520809868061403  0.7523314365839032  0.8747015708219876
  0.2520432566916037  0.2512357837219786  0.1253751307635762
  0.2463883650893127  0.2470996919510553  0.6253690405677098
  0.2518017522754314  0.7479689235161749  0.1253261971659811
  0.2463469314961192  0.7531282664974438  0.6253319656032112
  0.7528081544737190  0.2474412222365942  0.1252083060001750
  0.7384474021542632  0.2585987867712751  0.6222909011266486
  0.7520809868061403  0.7523314365839032  0.1252984291780123
  0.6418298320709401  0.3906287384049499  0.7557976576665784
  0.6095025497262728  0.6411489543079720  0.7538434087611119
  0.5206761538099027  0.4978817285292562  0.3771141019665921
  0.3563391648676844  0.3839783490524388  0.5000000000000000
  0.7396299999814625  0.7404616684997971  0.6221612745147094
  0.8816272581971031  0.6388150024247198  0.5000000000000000
  0.5206761538099027  0.4978817285292562  0.6228858980334074
 
  0.00000000E+00  0.00000000E+00  0.00000000E+00
  0.00000000E+00  0.00000000E+00  0.00000000E+00
  0.00000000E+00  0.00000000E+00  0.00000000E+00
  0.00000000E+00  0.00000000E+00  0.00000000E+00
  0.00000000E+00  0.00000000E+00  0.00000000E+00
  0.00000000E+00  0.00000000E+00  0.00000000E+00
  0.00000000E+00  0.00000000E+00  0.00000000E+00
  0.00000000E+00  0.00000000E+00  0.00000000E+00
  0.00000000E+00  0.00000000E+00  0.00000000E+00
  0.00000000E+00  0.00000000E+00  0.00000000E+00
  0.00000000E+00  0.00000000E+00  0.00000000E+00
  0.00000000E+00  0.00000000E+00  0.00000000E+00
  0.00000000E+00  0.00000000E+00  0.00000000E+00
  0.00000000E+00  0.00000000E+00  0.00000000E+00
  0.00000000E+00  0.00000000E+00  0.00000000E+00
  0.00000000E+00  0.00000000E+00  0.00000000E+00
  0.00000000E+00  0.00000000E+00  0.00000000E+00
  0.00000000E+00  0.00000000E+00  0.00000000E+00
  0.00000000E+00  0.00000000E+00  0.00000000E+00
  0.00000000E+00  0.00000000E+00  0.00000000E+00
  0.00000000E+00  0.00000000E+00  0.00000000E+00
  0.00000000E+00  0.00000000E+00  0.00000000E+00
  0.00000000E+00  0.00000000E+00  0.00000000E+00
  0.00000000E+00  0.00000000E+00  0.00000000E+00
  0.00000000E+00  0.00000000E+00  0.00000000E+00
  0.00000000E+00  0.00000000E+00  0.00000000E+00
  0.00000000E+00  0.00000000E+00  0.00000000E+00
  0.00000000E+00  0.00000000E+00  0.00000000E+00
  0.00000000E+00  0.00000000E+00  0.00000000E+00
  0.00000000E+00  0.00000000E+00  0.00000000E+00
  0.00000000E+00  0.00000000E+00  0.00000000E+00
  0.00000000E+00  0.00000000E+00  0.00000000E+00
  0.00000000E+00  0.00000000E+00  0.00000000E+00
  0.00000000E+00  0.00000000E+00  0.00000000E+00
  0.00000000E+00  0.00000000E+00  0.00000000E+00
  0.00000000E+00  0.00000000E+00  0.00000000E+00
  0.00000000E+00  0.00000000E+00  0.00000000E+00
  0.00000000E+00  0.00000000E+00  0.00000000E+00
  0.00000000E+00  0.00000000E+00  0.00000000E+00
  0.00000000E+00  0.00000000E+00  0.00000000E+00
  0.00000000E+00  0.00000000E+00  0.00000000E+00
  0.00000000E+00  0.00000000E+00  0.00000000E+00
  0.00000000E+00  0.00000000E+00  0.00000000E+00
  0.00000000E+00  0.00000000E+00  0.00000000E+00
  0.00000000E+00  0.00000000E+00  0.00000000E+00
  0.00000000E+00  0.00000000E+00  0.00000000E+00
  0.00000000E+00  0.00000000E+00  0.00000000E+00
  0.00000000E+00  0.00000000E+00  0.00000000E+00
  0.00000000E+00  0.00000000E+00  0.00000000E+00
  0.00000000E+00  0.00000000E+00  0.00000000E+00
  0.00000000E+00  0.00000000E+00  0.00000000E+00
  0.00000000E+00  0.00000000E+00  0.00000000E+00
  0.00000000E+00  0.00000000E+00  0.00000000E+00
  0.00000000E+00  0.00000000E+00  0.00000000E+00
  0.00000000E+00  0.00000000E+00  0.00000000E+00
  0.00000000E+00  0.00000000E+00  0.00000000E+00
  0.00000000E+00  0.00000000E+00  0.00000000E+00
  0.00000000E+00  0.00000000E+00  0.00000000E+00
  0.00000000E+00  0.00000000E+00  0.00000000E+00
  0.00000000E+00  0.00000000E+00  0.00000000E+00
  0.00000000E+00  0.00000000E+00  0.00000000E+00
  0.00000000E+00  0.00000000E+00  0.00000000E+00
  0.00000000E+00  0.00000000E+00  0.00000000E+00
  0.00000000E+00  0.00000000E+00  0.00000000E+00
  0.00000000E+00  0.00000000E+00  0.00000000E+00
  0.00000000E+00  0.00000000E+00  0.00000000E+00
  0.00000000E+00  0.00000000E+00  0.00000000E+00
  0.00000000E+00  0.00000000E+00  0.00000000E+00
  0.00000000E+00  0.00000000E+00  0.00000000E+00
  0.00000000E+00  0.00000000E+00  0.00000000E+00
  0.00000000E+00  0.00000000E+00  0.00000000E+00
  0.00000000E+00  0.00000000E+00  0.00000000E+00
  0.00000000E+00  0.00000000E+00  0.00000000E+00
  0.00000000E+00  0.00000000E+00  0.00000000E+00
  0.00000000E+00  0.00000000E+00  0.00000000E+00
  0.00000000E+00  0.00000000E+00  0.00000000E+00
  0.00000000E+00  0.00000000E+00  0.00000000E+00
  0.00000000E+00  0.00000000E+00  0.00000000E+00
  0.00000000E+00  0.00000000E+00  0.00000000E+00
  0.00000000E+00  0.00000000E+00  0.00000000E+00
  0.00000000E+00  0.00000000E+00  0.00000000E+00
  0.00000000E+00  0.00000000E+00  0.00000000E+00
  0.00000000E+00  0.00000000E+00  0.00000000E+00
  0.00000000E+00  0.00000000E+00  0.00000000E+00
  0.00000000E+00  0.00000000E+00  0.00000000E+00
  0.00000000E+00  0.00000000E+00  0.00000000E+00
  0.00000000E+00  0.00000000E+00  0.00000000E+00
  0.00000000E+00  0.00000000E+00  0.00000000E+00
  0.00000000E+00  0.00000000E+00  0.00000000E+00
  0.00000000E+00  0.00000000E+00  0.00000000E+00
  0.00000000E+00  0.00000000E+00  0.00000000E+00
  0.00000000E+00  0.00000000E+00  0.00000000E+00
  0.00000000E+00  0.00000000E+00  0.00000000E+00
  0.00000000E+00  0.00000000E+00  0.00000000E+00
  0.00000000E+00  0.00000000E+00  0.00000000E+00
  0.00000000E+00  0.00000000E+00  0.00000000E+00
  0.00000000E+00  0.00000000E+00  0.00000000E+00
  0.00000000E+00  0.00000000E+00  0.00000000E+00
  0.00000000E+00  0.00000000E+00  0.00000000E+00
  0.00000000E+00  0.00000000E+00  0.00000000E+00
  0.00000000E+00  0.00000000E+00  0.00000000E+00
  0.00000000E+00  0.00000000E+00  0.00000000E+00
  0.00000000E+00  0.00000000E+00  0.00000000E+00
  0.00000000E+00  0.00000000E+00  0.00000000E+00
  0.00000000E+00  0.00000000E+00  0.00000000E+00
  0.00000000E+00  0.00000000E+00  0.00000000E+00
  0.00000000E+00  0.00000000E+00  0.00000000E+00
  0.00000000E+00  0.00000000E+00  0.00000000E+00
  0.00000000E+00  0.00000000E+00  0.00000000E+00
  0.00000000E+00  0.00000000E+00  0.00000000E+00
  0.00000000E+00  0.00000000E+00  0.00000000E+00
  0.00000000E+00  0.00000000E+00  0.00000000E+00
  0.00000000E+00  0.00000000E+00  0.00000000E+00
  0.00000000E+00  0.00000000E+00  0.00000000E+00
  0.00000000E+00  0.00000000E+00  0.00000000E+00
  0.00000000E+00  0.00000000E+00  0.00000000E+00
  0.00000000E+00  0.00000000E+00  0.00000000E+00
  0.00000000E+00  0.00000000E+00  0.00000000E+00
  0.00000000E+00  0.00000000E+00  0.00000000E+00
  0.00000000E+00  0.00000000E+00  0.00000000E+00
  0.00000000E+00  0.00000000E+00  0.00000000E+00
  0.00000000E+00  0.00000000E+00  0.00000000E+00
  0.00000000E+00  0.00000000E+00  0.00000000E+00
  0.00000000E+00  0.00000000E+00  0.00000000E+00
  0.00000000E+00  0.00000000E+00  0.00000000E+00
  0.00000000E+00  0.00000000E+00  0.00000000E+00
  0.00000000E+00  0.00000000E+00  0.00000000E+00
  0.00000000E+00  0.00000000E+00  0.00000000E+00
  0.00000000E+00  0.00000000E+00  0.00000000E+00
  0.00000000E+00  0.00000000E+00  0.00000000E+00
  0.00000000E+00  0.00000000E+00  0.00000000E+00
  0.00000000E+00  0.00000000E+00  0.00000000E+00
  0.00000000E+00  0.00000000E+00  0.00000000E+00
  0.00000000E+00  0.00000000E+00  0.00000000E+00
  0.00000000E+00  0.00000000E+00  0.00000000E+00
  0.00000000E+00  0.00000000E+00  0.00000000E+00
  0.00000000E+00  0.00000000E+00  0.00000000E+00
  0.00000000E+00  0.00000000E+00  0.00000000E+00
  0.00000000E+00  0.00000000E+00  0.00000000E+00
  0.00000000E+00  0.00000000E+00  0.00000000E+00
  0.00000000E+00  0.00000000E+00  0.00000000E+00
  0.00000000E+00  0.00000000E+00  0.00000000E+00
  0.00000000E+00  0.00000000E+00  0.00000000E+00
  0.00000000E+00  0.00000000E+00  0.00000000E+00
  0.00000000E+00  0.00000000E+00  0.00000000E+00
  0.00000000E+00  0.00000000E+00  0.00000000E+00
  0.00000000E+00  0.00000000E+00  0.00000000E+00
  0.00000000E+00  0.00000000E+00  0.00000000E+00
  0.00000000E+00  0.00000000E+00  0.00000000E+00
  0.00000000E+00  0.00000000E+00  0.00000000E+00
  0.00000000E+00  0.00000000E+00  0.00000000E+00
  0.00000000E+00  0.00000000E+00  0.00000000E+00
  0.00000000E+00  0.00000000E+00  0.00000000E+00
  0.00000000E+00  0.00000000E+00  0.00000000E+00
  0.00000000E+00  0.00000000E+00  0.00000000E+00
  0.00000000E+00  0.00000000E+00  0.00000000E+00
  0.00000000E+00  0.00000000E+00  0.00000000E+00
  0.00000000E+00  0.00000000E+00  0.00000000E+00
