Sr   Ti   Fe   O                        
   1.00000000000000     
    11.1989999999999998    0.0000000000000000    0.0000000000000000
     0.0000000000000000   11.1989999999999998    0.0000000000000000
     0.0000000000000000    0.0000000000000000   15.9830000000000005
   Sr   Ti   Fe   O 
    32    30     2    94
Direct
  0.0005229153890708  0.2496619569119387  0.1250207514736257
  0.0031863148079474  0.2528140826120014  0.6263356244713105
  0.9974401073968695  0.7503072490926891  0.1254187435370033
  0.9965305509613031  0.7477811326741627  0.6246048688308686
  0.5008025470717425  0.2503301386538254  0.1228817399739508
  0.5001384427447781  0.2473169602010766  0.6325802962867842
  0.4999858626763157  0.7475549408767203  0.1246775102271218
  0.4975144613970593  0.7533155802625325  0.6285238189078379
  0.0031863148079474  0.2528140826120014  0.3736643755286962
  0.0005229153890708  0.2496619569119387  0.8749792485263743
  0.9965305509613031  0.7477811326741627  0.3753951311691314
  0.9974401073968695  0.7503072490926891  0.8745812564629967
  0.5001384427447781  0.2473169602010766  0.3674197037132156
  0.5008025470717425  0.2503301386538254  0.8771182600260491
  0.4975144613970593  0.7533155802625325  0.3714761810921546
  0.4999858626763157  0.7475549408767203  0.8753224897728782
  0.2493807326864015  0.9999027395360580  0.1241600338069880
  0.2480263479850967  0.9954951418232082  0.6292705918335344
  0.2517784265538178  0.4990803049475285  0.1238642275850931
  0.2451553979363196  0.5045816917763722  0.6290920967900470
  0.7496033835404028  0.9987205150115388  0.1256335642105196
  0.7478458261493802  0.9923722068257423  0.6247450290006239
  0.7469346812828380  0.5002919875580670  0.1242319121168729
  0.7601513823961640  0.4981005734802977  0.6291657616401943
  0.2480263479850967  0.9954951418232082  0.3707294081664656
  0.2493807326864015  0.9999027395360580  0.8758399661930121
  0.2451553979363196  0.5045816917763722  0.3709079032099524
  0.2517784265538178  0.4990803049475285  0.8761357724149069
  0.7478458261493802  0.9923722068257423  0.3752549709993761
  0.7496033835404028  0.9987205150115388  0.8743664357894805
  0.7601513823961640  0.4981005734802977  0.3708342383598131
  0.7469346812828380  0.5002919875580670  0.8757680878831424
  0.9989113946263467  0.0003676594083852 -0.0000000000000000
  0.9967117689814918  0.9906486328458597  0.5000000000000000
  0.9997961072227955  0.4998550815495335 -0.0000000000000000
  0.0039942810913927  0.5028593740294123  0.5000000000000000
  0.4995531661924725  0.9993430661866202 -0.0000000000000000
  0.5009349951153259  0.9990885105529338  0.5000000000000000
  0.4996195586159686  0.5000021728801196 -0.0000000000000000
  0.2488561327945182  0.2487840420485524 -0.0000000000000000
  0.2468362114307205  0.2374412304390644  0.5000000000000000
  0.2488810151973831  0.7499242063054113 -0.0000000000000000
  0.2516691304220426  0.7515137210842583  0.5000000000000000
  0.7508460979414925  0.2494949023238568 -0.0000000000000000
  0.7492375025433344  0.7500067775105915 -0.0000000000000000
  0.2508161903377775  0.2500038259426535  0.2489115282811426
  0.2508161903377775  0.2500038259426535  0.7510884717188573
  0.2486569871126168  0.7500251696166438  0.2485777487040918
  0.2486569871126168  0.7500251696166438  0.7514222512959162
  0.7492393193363759  0.2501958214964632  0.2500068657228944
  0.7492393193363759  0.2501958214964632  0.7499931342771063
  0.7483053094241982  0.7478047209063781  0.2513378235482114
  0.7483053094241982  0.7478047209063781  0.7486621764517887
  0.9986544514749559  0.0000353254542565  0.2508279146068449
  0.9986544514749559  0.0000353254542565  0.7491720853931552
  0.0005609954668294  0.4999259238965431  0.2480540760652342
  0.0005609954668294  0.4999259238965431  0.7519459239347659
  0.4995357948801701  0.9993320304452212  0.2489330107865790
  0.4995357948801701  0.9993320304452212  0.7510669892134211
  0.4976900847862012  0.4985902416736429  0.2522800822119152
  0.4976900847862012  0.4985902416736429  0.7477199177880848
  0.7631496882952535  0.2470992598100501  0.5000000000000000
  0.5033757093469304  0.5148759791054365  0.5000000000000000
  0.7508277004204152  0.7477399186316486  0.5000000000000000
  0.1104005406115548  0.1406608231613816  0.2536682712329928
  0.1104005406115548  0.1406608231613816  0.7463317287669997
  0.1099035778118990  0.6400417106056386  0.2500914421831933
  0.1099035778118990  0.6400417106056386  0.7499085578167999
  0.6104402590821015  0.1391131789126592  0.2493723300620727
  0.6104402590821015  0.1391131789126592  0.7506276699379273
  0.6071523896535399  0.6368580237256701  0.2497725629688516
  0.6071523896535399  0.6368580237256701  0.7502274370311484
  0.3888858070839028  0.3573746892169179  0.2422881652417682
  0.3888858070839028  0.3573746892169179  0.7577118347582243
  0.3886254294278628  0.8606299374374010  0.2491346219777085
  0.3886254294278628  0.8606299374374010  0.7508653780222905
  0.8896745057559916  0.3600359949070654  0.2516973970180963
  0.8896745057559916  0.3600359949070654  0.7483026029818881
  0.8878433175279653  0.8616685711616719  0.2509688110071681
  0.8878433175279653  0.8616685711616719  0.7490311889928321
  0.3596840960359499  0.1096781074076292  0.2510176510133552
  0.3596840960359499  0.1096781074076292  0.7489823489866377
  0.3578155855234530  0.6108589073501954  0.2478341627089331
  0.3578155855234530  0.6108589073501954  0.7521658372910671
  0.8586357526118655  0.1115189195568731  0.2557114502365966
  0.8586357526118655  0.1115189195568731  0.7442885497634038
  0.8622853762215287  0.6105815182866902  0.2454606843257236
  0.8622853762215287  0.6105815182866902  0.7545393156742765
  0.1403107656045030  0.3895021527618374  0.2489036448162308
  0.1403107656045030  0.3895021527618374  0.7510963551837692
  0.1382987579301854  0.8904352161038558  0.2474111803925012
  0.1382987579301854  0.8904352161038558  0.7525888196075055
  0.6381795133516077  0.3885046349885588  0.2490762426159325
  0.6381795133516077  0.3885046349885588  0.7509237573840604
  0.6372065228033330  0.8888164748027292  0.2493370956610002
  0.6372065228033330  0.8888164748027292  0.7506629043389990
  0.3587903269369676  0.3881444999913015 -0.0000000000000000
  0.3583622612366408  0.8907195722376987 -0.0000000000000000
  0.3525031488611812  0.9031785911214726  0.5000000000000000
  0.8587979382140620  0.3908255201251658 -0.0000000000000000
  0.8586751957429293  0.8914568414019327 -0.0000000000000000
  0.8597422269583240  0.8961255166514837  0.5000000000000000
  0.1396971702150679  0.1074315088277229 -0.0000000000000000
  0.1440409399596615  0.1089450142460027  0.5000000000000000
  0.1401914153979031  0.6088593915638575 -0.0000000000000000
  0.1429860704521465  0.6139009346371718  0.5000000000000000
  0.6408068450659902  0.1094255884313184 -0.0000000000000000
  0.6417699154547927  0.1169224594306278  0.5000000000000000
  0.6401042271908105  0.6094801253089828 -0.0000000000000000
  0.1090681416448381  0.3583133312664787 -0.0000000000000000
  0.1396241117415182  0.3736809351677067  0.5000000000000000
  0.1072389121113243  0.8597660746983903 -0.0000000000000000
  0.1065420563264152  0.8575529672846586  0.5000000000000000
  0.6106458104033244  0.3589378575444986 -0.0000000000000000
  0.6079260480481354  0.8596387103020940 -0.0000000000000000
  0.6004347379530559  0.8577744758453689  0.5000000000000000
  0.3900763989364048  0.1400575361606529 -0.0000000000000000
  0.4023183800303552  0.1616615135004344  0.5000000000000000
  0.3890166045658707  0.6404591899191702 -0.0000000000000000
  0.8908966977717100  0.1418337332924461 -0.0000000000000000
  0.8931935927660309  0.1401550477055640  0.5000000000000000
  0.8908140596732255  0.6404710786777018 -0.0000000000000000
  0.9964653190576767  0.0039179734614740  0.1259495833976872
  0.0031986288000218  0.9990549781833925  0.6245840891167480
  0.0013435338560437  0.4977256376783347  0.1244270869007159
  0.0040583581288115  0.4997752173431080  0.6263512982438108
  0.4988864625520704  0.0010813962036065  0.1248018705278228
  0.4991281567645060  0.0013536600517371  0.6251273236642029
  0.4992752603203215  0.5001259937233882  0.1236961821551844
  0.4803843771924136  0.4884420981904600  0.6260601405882547
  0.0031986288000218  0.9990549781833925  0.3754159108832520
  0.9964653190576767  0.0039179734614740  0.8740504166023129
  0.0040583581288115  0.4997752173431080  0.3736487017561819
  0.0013435338560437  0.4977256376783347  0.8755729130992841
  0.4991281567645060  0.0013536600517371  0.3748726763357971
  0.4988864625520704  0.0010813962036065  0.8751981294721772
  0.4992752603203215  0.5001259937233882  0.8763038178448085
  0.2597423432594752  0.2586080338559532  0.3764160448330219
  0.2459338522027273  0.2449656578179183  0.8753939673401658
  0.2493069440913680  0.7540829590766897  0.3739671151219982
  0.2481536578578793  0.7507714499271475  0.8757181054119896
  0.7519201145524567  0.2488040622414038  0.8741954617582265
  0.7482144991283908  0.7504725179707884  0.8758719576782317
  0.2459338522027273  0.2449656578179183  0.1246060326598341
  0.2597423432594752  0.2586080338559532  0.6235839551669853
  0.2481536578578793  0.7507714499271475  0.1242818945880104
  0.2493069440913680  0.7540829590766897  0.6260328848780089
  0.7519201145524567  0.2488040622414038  0.1258045382417735
  0.7420511088097802  0.2599641195674554  0.6218130340380215
  0.7482144991283908  0.7504725179707884  0.1241280423217683
  0.7447194296422446  0.7425769204122336  0.6292836490094492
  0.7420511088097802  0.2599641195674554  0.3781869659619859
  0.8871513557027929  0.3745848241403749  0.5000000000000000
  0.3904286584982877  0.6494446234683838  0.5000000000000000
  0.4803843771924136  0.4884420981904600  0.3739398594117454
  0.8926934177473219  0.6326239923064020  0.5000000000000000
  0.7447194296422446  0.7425769204122336  0.3707163509905507
  0.6623488206404214  0.4689962002934511  0.5000000000000000
 
  0.00000000E+00  0.00000000E+00  0.00000000E+00
  0.00000000E+00  0.00000000E+00  0.00000000E+00
  0.00000000E+00  0.00000000E+00  0.00000000E+00
  0.00000000E+00  0.00000000E+00  0.00000000E+00
  0.00000000E+00  0.00000000E+00  0.00000000E+00
  0.00000000E+00  0.00000000E+00  0.00000000E+00
  0.00000000E+00  0.00000000E+00  0.00000000E+00
  0.00000000E+00  0.00000000E+00  0.00000000E+00
  0.00000000E+00  0.00000000E+00  0.00000000E+00
  0.00000000E+00  0.00000000E+00  0.00000000E+00
  0.00000000E+00  0.00000000E+00  0.00000000E+00
  0.00000000E+00  0.00000000E+00  0.00000000E+00
  0.00000000E+00  0.00000000E+00  0.00000000E+00
  0.00000000E+00  0.00000000E+00  0.00000000E+00
  0.00000000E+00  0.00000000E+00  0.00000000E+00
  0.00000000E+00  0.00000000E+00  0.00000000E+00
  0.00000000E+00  0.00000000E+00  0.00000000E+00
  0.00000000E+00  0.00000000E+00  0.00000000E+00
  0.00000000E+00  0.00000000E+00  0.00000000E+00
  0.00000000E+00  0.00000000E+00  0.00000000E+00
  0.00000000E+00  0.00000000E+00  0.00000000E+00
  0.00000000E+00  0.00000000E+00  0.00000000E+00
  0.00000000E+00  0.00000000E+00  0.00000000E+00
  0.00000000E+00  0.00000000E+00  0.00000000E+00
  0.00000000E+00  0.00000000E+00  0.00000000E+00
  0.00000000E+00  0.00000000E+00  0.00000000E+00
  0.00000000E+00  0.00000000E+00  0.00000000E+00
  0.00000000E+00  0.00000000E+00  0.00000000E+00
  0.00000000E+00  0.00000000E+00  0.00000000E+00
  0.00000000E+00  0.00000000E+00  0.00000000E+00
  0.00000000E+00  0.00000000E+00  0.00000000E+00
  0.00000000E+00  0.00000000E+00  0.00000000E+00
  0.00000000E+00  0.00000000E+00  0.00000000E+00
  0.00000000E+00  0.00000000E+00  0.00000000E+00
  0.00000000E+00  0.00000000E+00  0.00000000E+00
  0.00000000E+00  0.00000000E+00  0.00000000E+00
  0.00000000E+00  0.00000000E+00  0.00000000E+00
  0.00000000E+00  0.00000000E+00  0.00000000E+00
  0.00000000E+00  0.00000000E+00  0.00000000E+00
  0.00000000E+00  0.00000000E+00  0.00000000E+00
  0.00000000E+00  0.00000000E+00  0.00000000E+00
  0.00000000E+00  0.00000000E+00  0.00000000E+00
  0.00000000E+00  0.00000000E+00  0.00000000E+00
  0.00000000E+00  0.00000000E+00  0.00000000E+00
  0.00000000E+00  0.00000000E+00  0.00000000E+00
  0.00000000E+00  0.00000000E+00  0.00000000E+00
  0.00000000E+00  0.00000000E+00  0.00000000E+00
  0.00000000E+00  0.00000000E+00  0.00000000E+00
  0.00000000E+00  0.00000000E+00  0.00000000E+00
  0.00000000E+00  0.00000000E+00  0.00000000E+00
  0.00000000E+00  0.00000000E+00  0.00000000E+00
  0.00000000E+00  0.00000000E+00  0.00000000E+00
  0.00000000E+00  0.00000000E+00  0.00000000E+00
  0.00000000E+00  0.00000000E+00  0.00000000E+00
  0.00000000E+00  0.00000000E+00  0.00000000E+00
  0.00000000E+00  0.00000000E+00  0.00000000E+00
  0.00000000E+00  0.00000000E+00  0.00000000E+00
  0.00000000E+00  0.00000000E+00  0.00000000E+00
  0.00000000E+00  0.00000000E+00  0.00000000E+00
  0.00000000E+00  0.00000000E+00  0.00000000E+00
  0.00000000E+00  0.00000000E+00  0.00000000E+00
  0.00000000E+00  0.00000000E+00  0.00000000E+00
  0.00000000E+00  0.00000000E+00  0.00000000E+00
  0.00000000E+00  0.00000000E+00  0.00000000E+00
  0.00000000E+00  0.00000000E+00  0.00000000E+00
  0.00000000E+00  0.00000000E+00  0.00000000E+00
  0.00000000E+00  0.00000000E+00  0.00000000E+00
  0.00000000E+00  0.00000000E+00  0.00000000E+00
  0.00000000E+00  0.00000000E+00  0.00000000E+00
  0.00000000E+00  0.00000000E+00  0.00000000E+00
  0.00000000E+00  0.00000000E+00  0.00000000E+00
  0.00000000E+00  0.00000000E+00  0.00000000E+00
  0.00000000E+00  0.00000000E+00  0.00000000E+00
  0.00000000E+00  0.00000000E+00  0.00000000E+00
  0.00000000E+00  0.00000000E+00  0.00000000E+00
  0.00000000E+00  0.00000000E+00  0.00000000E+00
  0.00000000E+00  0.00000000E+00  0.00000000E+00
  0.00000000E+00  0.00000000E+00  0.00000000E+00
  0.00000000E+00  0.00000000E+00  0.00000000E+00
  0.00000000E+00  0.00000000E+00  0.00000000E+00
  0.00000000E+00  0.00000000E+00  0.00000000E+00
  0.00000000E+00  0.00000000E+00  0.00000000E+00
  0.00000000E+00  0.00000000E+00  0.00000000E+00
  0.00000000E+00  0.00000000E+00  0.00000000E+00
  0.00000000E+00  0.00000000E+00  0.00000000E+00
  0.00000000E+00  0.00000000E+00  0.00000000E+00
  0.00000000E+00  0.00000000E+00  0.00000000E+00
  0.00000000E+00  0.00000000E+00  0.00000000E+00
  0.00000000E+00  0.00000000E+00  0.00000000E+00
  0.00000000E+00  0.00000000E+00  0.00000000E+00
  0.00000000E+00  0.00000000E+00  0.00000000E+00
  0.00000000E+00  0.00000000E+00  0.00000000E+00
  0.00000000E+00  0.00000000E+00  0.00000000E+00
  0.00000000E+00  0.00000000E+00  0.00000000E+00
  0.00000000E+00  0.00000000E+00  0.00000000E+00
  0.00000000E+00  0.00000000E+00  0.00000000E+00
  0.00000000E+00  0.00000000E+00  0.00000000E+00
  0.00000000E+00  0.00000000E+00  0.00000000E+00
  0.00000000E+00  0.00000000E+00  0.00000000E+00
  0.00000000E+00  0.00000000E+00  0.00000000E+00
  0.00000000E+00  0.00000000E+00  0.00000000E+00
  0.00000000E+00  0.00000000E+00  0.00000000E+00
  0.00000000E+00  0.00000000E+00  0.00000000E+00
  0.00000000E+00  0.00000000E+00  0.00000000E+00
  0.00000000E+00  0.00000000E+00  0.00000000E+00
  0.00000000E+00  0.00000000E+00  0.00000000E+00
  0.00000000E+00  0.00000000E+00  0.00000000E+00
  0.00000000E+00  0.00000000E+00  0.00000000E+00
  0.00000000E+00  0.00000000E+00  0.00000000E+00
  0.00000000E+00  0.00000000E+00  0.00000000E+00
  0.00000000E+00  0.00000000E+00  0.00000000E+00
  0.00000000E+00  0.00000000E+00  0.00000000E+00
  0.00000000E+00  0.00000000E+00  0.00000000E+00
  0.00000000E+00  0.00000000E+00  0.00000000E+00
  0.00000000E+00  0.00000000E+00  0.00000000E+00
  0.00000000E+00  0.00000000E+00  0.00000000E+00
  0.00000000E+00  0.00000000E+00  0.00000000E+00
  0.00000000E+00  0.00000000E+00  0.00000000E+00
  0.00000000E+00  0.00000000E+00  0.00000000E+00
  0.00000000E+00  0.00000000E+00  0.00000000E+00
  0.00000000E+00  0.00000000E+00  0.00000000E+00
  0.00000000E+00  0.00000000E+00  0.00000000E+00
  0.00000000E+00  0.00000000E+00  0.00000000E+00
  0.00000000E+00  0.00000000E+00  0.00000000E+00
  0.00000000E+00  0.00000000E+00  0.00000000E+00
  0.00000000E+00  0.00000000E+00  0.00000000E+00
  0.00000000E+00  0.00000000E+00  0.00000000E+00
  0.00000000E+00  0.00000000E+00  0.00000000E+00
  0.00000000E+00  0.00000000E+00  0.00000000E+00
  0.00000000E+00  0.00000000E+00  0.00000000E+00
  0.00000000E+00  0.00000000E+00  0.00000000E+00
  0.00000000E+00  0.00000000E+00  0.00000000E+00
  0.00000000E+00  0.00000000E+00  0.00000000E+00
  0.00000000E+00  0.00000000E+00  0.00000000E+00
  0.00000000E+00  0.00000000E+00  0.00000000E+00
  0.00000000E+00  0.00000000E+00  0.00000000E+00
  0.00000000E+00  0.00000000E+00  0.00000000E+00
  0.00000000E+00  0.00000000E+00  0.00000000E+00
  0.00000000E+00  0.00000000E+00  0.00000000E+00
  0.00000000E+00  0.00000000E+00  0.00000000E+00
  0.00000000E+00  0.00000000E+00  0.00000000E+00
  0.00000000E+00  0.00000000E+00  0.00000000E+00
  0.00000000E+00  0.00000000E+00  0.00000000E+00
  0.00000000E+00  0.00000000E+00  0.00000000E+00
  0.00000000E+00  0.00000000E+00  0.00000000E+00
  0.00000000E+00  0.00000000E+00  0.00000000E+00
  0.00000000E+00  0.00000000E+00  0.00000000E+00
  0.00000000E+00  0.00000000E+00  0.00000000E+00
  0.00000000E+00  0.00000000E+00  0.00000000E+00
  0.00000000E+00  0.00000000E+00  0.00000000E+00
  0.00000000E+00  0.00000000E+00  0.00000000E+00
  0.00000000E+00  0.00000000E+00  0.00000000E+00
  0.00000000E+00  0.00000000E+00  0.00000000E+00
  0.00000000E+00  0.00000000E+00  0.00000000E+00
  0.00000000E+00  0.00000000E+00  0.00000000E+00
  0.00000000E+00  0.00000000E+00  0.00000000E+00
  0.00000000E+00  0.00000000E+00  0.00000000E+00
  0.00000000E+00  0.00000000E+00  0.00000000E+00
