SrTiFeO                                 
   1.00000000000000     
    11.1989999999999998    0.0000000000000000    0.0000000000000000
     0.0000000000000000   11.1989999999999998    0.0000000000000000
     0.0000000000000000    0.0000000000000000   15.9830000000000005
   Sr   Ti   O 
    32    32    95
Direct
  0.0002048732336395  0.2497951267663605  0.1249024240994792
  0.0002358026643184  0.2497641973356816  0.6254680397452607
  0.9993821411712528  0.7502035780847515  0.1250576454623742
  0.0021034756254579  0.7484660171928326  0.6254679278954327
  0.4997964219152485  0.2506178588287472  0.1250576454623742
  0.5015339828071674  0.2478965243745421  0.6254679278954327
  0.4994303580058690  0.7505696419941310  0.1237143751427936
  0.4984303920706877  0.7515696079293123  0.6282624009149840
  0.0002358026643184  0.2497641973356816  0.3745319602547393
  0.0002048732336395  0.2497951267663605  0.8750975759005207
  0.0021034756254579  0.7484660171928326  0.3745320721045673
  0.9993821411712528  0.7502035780847515  0.8749423545376258
  0.5015339828071674  0.2478965243745421  0.3745320721045673
  0.4997964219152485  0.2506178588287472  0.8749423545376258
  0.4984303920706877  0.7515696079293123  0.3717375990850160
  0.4994303580058690  0.7505696419941310  0.8762856248572064
  0.2502370313100259  0.9997629686899742  0.1249620971237759
  0.2500419082773757  0.9999580917226242  0.6261924139939419
  0.2503450070257613  0.5004588636621490  0.1246363093393966
  0.2467171446532986  0.5001617228461301  0.6266966098745722
  0.7495411363378510  0.9996549929742387  0.1246363093393966
  0.7498382771538699  0.0032828553467014  0.6266966098745722
  0.7496003077663190  0.5003996922336810  0.1243967674123839
  0.7539818838978087  0.4960181161021912  0.6276909733473925
  0.2500419082773757  0.9999580917226242  0.3738075860060582
  0.2502370313100259  0.9997629686899742  0.8750379028762242
  0.2467171446532986  0.5001617228461301  0.3733033901254278
  0.2503450070257613  0.5004588636621490  0.8753636906606034
  0.7498382771538699  0.0032828553467014  0.3733033901254278
  0.7495411363378510  0.9996549929742387  0.8753636906606034
  0.7539818838978087  0.4960181161021912  0.3723090266526075
  0.7496003077663190  0.5003996922336810  0.8756032325876161
  0.9998830212280461  0.9997348112682555  0.0000000000000000
  0.0020081029099145  0.0010357311493775  0.5000000000000000
  0.0000040226003254  0.4997156384797313  0.0000000000000000
  0.0003442846712888  0.4989308942604792  0.5000000000000000
  0.5000744969656014  0.0003797061411193  0.0000000000000000
  0.4992608198946482  0.9991348959238757  0.5000000000000000
  0.4995604643554235  0.4995690928256766  0.0000000000000000
  0.2502651887317444  0.2501169787719540  0.0000000000000000
  0.2489642688506224  0.2479918970900855  0.5000000000000000
  0.2496202938588807  0.7499255030343986  0.0000000000000000
  0.2508651040761242  0.7507391801053518  0.5000000000000000
  0.7502843615202687  0.2499959773996746  0.0000000000000000
  0.7504309071743234  0.7504395356445764  0.0000000000000000
  0.2503251427101785  0.2501068287461787  0.2501011061750106
  0.2503251427101785  0.2501068287461787  0.7498988938249894
  0.2498936121810587  0.7499188841145952  0.2497293403175582
  0.2498936121810587  0.7499188841145952  0.7502706596824419
  0.7501590263114645  0.2498560775209633  0.2493540669102448
  0.7501590263114645  0.2498560775209633  0.7506459330897552
  0.7493508895337991  0.7492338044233139  0.2499604665034979
  0.7493508895337991  0.7492338044233139  0.7500395334965021
  0.9998931712538213  0.9996748572898215  0.2501011061750106
  0.9998931712538213  0.9996748572898215  0.7498988938249894
  0.0001439224790367  0.4998409736885356  0.2493540669102448
  0.0001439224790367  0.4998409736885356  0.7506459330897552
  0.5000811158854048  0.0001063878189413  0.2497293403175582
  0.5000811158854048  0.0001063878189413  0.7502706596824419
  0.5007661955766861  0.5006491104662009  0.2499604665034979
  0.5007661955766861  0.5006491104662009  0.7500395334965021
  0.7510691057395208  0.2496557153287112  0.5000000000000000
  0.4933339832637412  0.4964759663445679  0.5000000000000000
  0.7535240336554321  0.7566660167362588  0.5000000000000000
  0.1098061376177076  0.1401938623822924  0.2496844658527831
  0.1098061376177076  0.1401938623822924  0.7503155341472170
  0.1093878451782661  0.6403614820824388  0.2500919548388125
  0.1093878451782661  0.6403614820824388  0.7499080451611875
  0.6096385179175612  0.1406121548217339  0.2500919548388125
  0.6096385179175612  0.1406121548217339  0.7499080451611875
  0.6087872184870642  0.6412127815129358  0.2455111503267901
  0.6087872184870642  0.6412127815129358  0.7544888496732099
  0.3913558844217554  0.3605089652834471  0.2541748617863244
  0.3913558844217554  0.3605089652834471  0.7458251382136757
  0.3897899863396606  0.8602100136603396  0.2495246990541448
  0.3897899863396606  0.8602100136603396  0.7504753009458552
  0.8905788442163561  0.3594211557836439  0.2512248432642813
  0.8905788442163561  0.3594211557836439  0.7487751567357186
  0.8894910347165530  0.8586441155782446  0.2541748617863244
  0.8894910347165530  0.8586441155782446  0.7458251382136757
  0.3599934416632060  0.1100771057828924  0.2501798223273870
  0.3599934416632060  0.1100771057828924  0.7498201776726130
  0.3595307990837823  0.6093271672905906  0.2513240280847428
  0.3595307990837823  0.6093271672905906  0.7486759719152571
  0.8594889361634415  0.1092607998032857  0.2497876881139673
  0.8594889361634415  0.1092607998032857  0.7502123118860328
  0.8591202884102583  0.6089959932617036  0.2497923180149570
  0.8591202884102583  0.6089959932617036  0.7502076819850428
  0.1407392001967143  0.3905110638365585  0.2497876881139673
  0.1407392001967143  0.3905110638365585  0.7502123118860328
  0.1399228942171076  0.8900065583367940  0.2501798223273870
  0.1399228942171076  0.8900065583367940  0.7498201776726130
  0.6410040067382964  0.3908797115897417  0.2497923180149570
  0.6410040067382964  0.3908797115897417  0.7502076819850428
  0.6406728327094094  0.8904692009162177  0.2513240280847428
  0.6406728327094094  0.8904692009162177  0.7486759719152571
  0.3590543895612546  0.3906290670939601  0.0000000000000000
  0.3594730680291764  0.8905269319708237  0.0000000000000000
  0.3560571019599263  0.8939428980400735  0.5000000000000000
  0.8593638297177748  0.3906361702822252  0.0000000000000000
  0.8593709329060398  0.8909456104387455  0.0000000000000000
  0.8569114906915236  0.8928665513840220  0.5000000000000000
  0.1407140783752338  0.1092859216247662  0.0000000000000000
  0.1419022924115996  0.1080977075884004  0.5000000000000000
  0.1405479535852011  0.6091086923463325  0.0000000000000000
  0.1403036705840964  0.6097970209085365  0.5000000000000000
  0.6408913076536675  0.1094520464147989  0.0000000000000000
  0.6402029790914635  0.1096963294159037  0.5000000000000000
  0.6401640874871555  0.6098359125128445  0.0000000000000000
  0.1094071902692255  0.3589179121972744  0.0000000000000000
  0.1091919132760775  0.3588245621978257  0.5000000000000000
  0.1093327004874141  0.8591657008251997  0.0000000000000000
  0.1070244346943605  0.8578864159433981  0.5000000000000000
  0.6094559460139924  0.3595061414827767  0.0000000000000000
  0.6096210713060695  0.8594747866707211  0.0000000000000000
  0.6050599013334643  0.8533338033337275  0.5000000000000000
  0.3908342991748002  0.1406672995125859  0.0000000000000000
  0.3921135840566019  0.1429755653056395  0.5000000000000000
  0.3905252133292789  0.6403789286939305  0.0000000000000000
  0.8910820878027256  0.1405928097307745  0.0000000000000000
  0.8911754378021742  0.1408080867239225  0.5000000000000000
  0.8904938585172233  0.6405440539860076  0.0000000000000000
  0.9989899032374422  0.9981407486271746  0.1254202060051775
  0.0003517250554006  0.0009567178821301  0.6244576372415028
  0.9997657633610599  0.4993899508915189  0.1250240949318733
  0.0008084999963594  0.5007074555565497  0.6249431516713827
  0.5006109355772812  0.9998372171266571  0.1250910093051267
  0.4999852168907769  0.0004279419098391  0.6247429559376918
  0.4979782940368297  0.4979764865689401  0.1252278420814703
  0.5101389492422214  0.5085510496292206  0.6229576146794550
  0.0003517250554006  0.0009567178821301  0.3755423627584971
  0.9989899032374422  0.9981407486271746  0.8745797939948224
  0.0008084999963594  0.5007074555565497  0.3750568483286172
  0.9997657633610599  0.4993899508915189  0.8749759050681266
  0.4999852168907769  0.0004279419098391  0.3752570440623081
  0.5006109355772812  0.9998372171266571  0.8749089906948733
  0.4979782940368297  0.4979764865689401  0.8747721579185297
  0.2490432821178699  0.2496482749445993  0.3755423627584971
  0.2518592513728254  0.2510100967625578  0.8745797939948224
  0.2495720580901609  0.7500147831092230  0.3752570440623081
  0.2501627828733429  0.7493890644227188  0.8749089906948733
  0.7506100491084882  0.2502342366389400  0.8749759050681266
  0.7520235134310599  0.7520217059631702  0.8747721579185297
  0.2518592513728254  0.2510100967625578  0.1254202060051775
  0.2490432821178699  0.2496482749445993  0.6244576372415028
  0.2501627828733429  0.7493890644227188  0.1250910093051267
  0.2495720580901609  0.7500147831092230  0.6247429559376918
  0.7506100491084882  0.2502342366389400  0.1250240949318733
  0.7492925444434503  0.2491915000036406  0.6249431516713827
  0.7520235134310599  0.7520217059631702  0.1252278420814703
  0.7414489503707794  0.7398610507577786  0.6229576146794550
  0.7492925444434503  0.2491915000036406  0.3750568483286172
  0.8610117473482258  0.3889882526517742  0.5000000000000000
  0.3966661966662723  0.6449400986665357  0.5000000000000000
  0.5101389492422214  0.5085510496292206  0.3770423853205450
  0.3571334486159780  0.3930885093084765  0.5000000000000000
  0.8825693794880711  0.6361136659916942  0.5000000000000000
  0.7414489503707794  0.7398610507577786  0.3770423853205450
  0.6138863340083058  0.3674306205119290  0.5000000000000000
 
  0.00000000E+00  0.00000000E+00  0.00000000E+00
  0.00000000E+00  0.00000000E+00  0.00000000E+00
  0.00000000E+00  0.00000000E+00  0.00000000E+00
  0.00000000E+00  0.00000000E+00  0.00000000E+00
  0.00000000E+00  0.00000000E+00  0.00000000E+00
  0.00000000E+00  0.00000000E+00  0.00000000E+00
  0.00000000E+00  0.00000000E+00  0.00000000E+00
  0.00000000E+00  0.00000000E+00  0.00000000E+00
  0.00000000E+00  0.00000000E+00  0.00000000E+00
  0.00000000E+00  0.00000000E+00  0.00000000E+00
  0.00000000E+00  0.00000000E+00  0.00000000E+00
  0.00000000E+00  0.00000000E+00  0.00000000E+00
  0.00000000E+00  0.00000000E+00  0.00000000E+00
  0.00000000E+00  0.00000000E+00  0.00000000E+00
  0.00000000E+00  0.00000000E+00  0.00000000E+00
  0.00000000E+00  0.00000000E+00  0.00000000E+00
  0.00000000E+00  0.00000000E+00  0.00000000E+00
  0.00000000E+00  0.00000000E+00  0.00000000E+00
  0.00000000E+00  0.00000000E+00  0.00000000E+00
  0.00000000E+00  0.00000000E+00  0.00000000E+00
  0.00000000E+00  0.00000000E+00  0.00000000E+00
  0.00000000E+00  0.00000000E+00  0.00000000E+00
  0.00000000E+00  0.00000000E+00  0.00000000E+00
  0.00000000E+00  0.00000000E+00  0.00000000E+00
  0.00000000E+00  0.00000000E+00  0.00000000E+00
  0.00000000E+00  0.00000000E+00  0.00000000E+00
  0.00000000E+00  0.00000000E+00  0.00000000E+00
  0.00000000E+00  0.00000000E+00  0.00000000E+00
  0.00000000E+00  0.00000000E+00  0.00000000E+00
  0.00000000E+00  0.00000000E+00  0.00000000E+00
  0.00000000E+00  0.00000000E+00  0.00000000E+00
  0.00000000E+00  0.00000000E+00  0.00000000E+00
  0.00000000E+00  0.00000000E+00  0.00000000E+00
  0.00000000E+00  0.00000000E+00  0.00000000E+00
  0.00000000E+00  0.00000000E+00  0.00000000E+00
  0.00000000E+00  0.00000000E+00  0.00000000E+00
  0.00000000E+00  0.00000000E+00  0.00000000E+00
  0.00000000E+00  0.00000000E+00  0.00000000E+00
  0.00000000E+00  0.00000000E+00  0.00000000E+00
  0.00000000E+00  0.00000000E+00  0.00000000E+00
  0.00000000E+00  0.00000000E+00  0.00000000E+00
  0.00000000E+00  0.00000000E+00  0.00000000E+00
  0.00000000E+00  0.00000000E+00  0.00000000E+00
  0.00000000E+00  0.00000000E+00  0.00000000E+00
  0.00000000E+00  0.00000000E+00  0.00000000E+00
  0.00000000E+00  0.00000000E+00  0.00000000E+00
  0.00000000E+00  0.00000000E+00  0.00000000E+00
  0.00000000E+00  0.00000000E+00  0.00000000E+00
  0.00000000E+00  0.00000000E+00  0.00000000E+00
  0.00000000E+00  0.00000000E+00  0.00000000E+00
  0.00000000E+00  0.00000000E+00  0.00000000E+00
  0.00000000E+00  0.00000000E+00  0.00000000E+00
  0.00000000E+00  0.00000000E+00  0.00000000E+00
  0.00000000E+00  0.00000000E+00  0.00000000E+00
  0.00000000E+00  0.00000000E+00  0.00000000E+00
  0.00000000E+00  0.00000000E+00  0.00000000E+00
  0.00000000E+00  0.00000000E+00  0.00000000E+00
  0.00000000E+00  0.00000000E+00  0.00000000E+00
  0.00000000E+00  0.00000000E+00  0.00000000E+00
  0.00000000E+00  0.00000000E+00  0.00000000E+00
  0.00000000E+00  0.00000000E+00  0.00000000E+00
  0.00000000E+00  0.00000000E+00  0.00000000E+00
  0.00000000E+00  0.00000000E+00  0.00000000E+00
  0.00000000E+00  0.00000000E+00  0.00000000E+00
  0.00000000E+00  0.00000000E+00  0.00000000E+00
  0.00000000E+00  0.00000000E+00  0.00000000E+00
  0.00000000E+00  0.00000000E+00  0.00000000E+00
  0.00000000E+00  0.00000000E+00  0.00000000E+00
  0.00000000E+00  0.00000000E+00  0.00000000E+00
  0.00000000E+00  0.00000000E+00  0.00000000E+00
  0.00000000E+00  0.00000000E+00  0.00000000E+00
  0.00000000E+00  0.00000000E+00  0.00000000E+00
  0.00000000E+00  0.00000000E+00  0.00000000E+00
  0.00000000E+00  0.00000000E+00  0.00000000E+00
  0.00000000E+00  0.00000000E+00  0.00000000E+00
  0.00000000E+00  0.00000000E+00  0.00000000E+00
  0.00000000E+00  0.00000000E+00  0.00000000E+00
  0.00000000E+00  0.00000000E+00  0.00000000E+00
  0.00000000E+00  0.00000000E+00  0.00000000E+00
  0.00000000E+00  0.00000000E+00  0.00000000E+00
  0.00000000E+00  0.00000000E+00  0.00000000E+00
  0.00000000E+00  0.00000000E+00  0.00000000E+00
  0.00000000E+00  0.00000000E+00  0.00000000E+00
  0.00000000E+00  0.00000000E+00  0.00000000E+00
  0.00000000E+00  0.00000000E+00  0.00000000E+00
  0.00000000E+00  0.00000000E+00  0.00000000E+00
  0.00000000E+00  0.00000000E+00  0.00000000E+00
  0.00000000E+00  0.00000000E+00  0.00000000E+00
  0.00000000E+00  0.00000000E+00  0.00000000E+00
  0.00000000E+00  0.00000000E+00  0.00000000E+00
  0.00000000E+00  0.00000000E+00  0.00000000E+00
  0.00000000E+00  0.00000000E+00  0.00000000E+00
  0.00000000E+00  0.00000000E+00  0.00000000E+00
  0.00000000E+00  0.00000000E+00  0.00000000E+00
  0.00000000E+00  0.00000000E+00  0.00000000E+00
  0.00000000E+00  0.00000000E+00  0.00000000E+00
  0.00000000E+00  0.00000000E+00  0.00000000E+00
  0.00000000E+00  0.00000000E+00  0.00000000E+00
  0.00000000E+00  0.00000000E+00  0.00000000E+00
  0.00000000E+00  0.00000000E+00  0.00000000E+00
  0.00000000E+00  0.00000000E+00  0.00000000E+00
  0.00000000E+00  0.00000000E+00  0.00000000E+00
  0.00000000E+00  0.00000000E+00  0.00000000E+00
  0.00000000E+00  0.00000000E+00  0.00000000E+00
  0.00000000E+00  0.00000000E+00  0.00000000E+00
  0.00000000E+00  0.00000000E+00  0.00000000E+00
  0.00000000E+00  0.00000000E+00  0.00000000E+00
  0.00000000E+00  0.00000000E+00  0.00000000E+00
  0.00000000E+00  0.00000000E+00  0.00000000E+00
  0.00000000E+00  0.00000000E+00  0.00000000E+00
  0.00000000E+00  0.00000000E+00  0.00000000E+00
  0.00000000E+00  0.00000000E+00  0.00000000E+00
  0.00000000E+00  0.00000000E+00  0.00000000E+00
  0.00000000E+00  0.00000000E+00  0.00000000E+00
  0.00000000E+00  0.00000000E+00  0.00000000E+00
  0.00000000E+00  0.00000000E+00  0.00000000E+00
  0.00000000E+00  0.00000000E+00  0.00000000E+00
  0.00000000E+00  0.00000000E+00  0.00000000E+00
  0.00000000E+00  0.00000000E+00  0.00000000E+00
  0.00000000E+00  0.00000000E+00  0.00000000E+00
  0.00000000E+00  0.00000000E+00  0.00000000E+00
  0.00000000E+00  0.00000000E+00  0.00000000E+00
  0.00000000E+00  0.00000000E+00  0.00000000E+00
  0.00000000E+00  0.00000000E+00  0.00000000E+00
  0.00000000E+00  0.00000000E+00  0.00000000E+00
  0.00000000E+00  0.00000000E+00  0.00000000E+00
  0.00000000E+00  0.00000000E+00  0.00000000E+00
  0.00000000E+00  0.00000000E+00  0.00000000E+00
  0.00000000E+00  0.00000000E+00  0.00000000E+00
  0.00000000E+00  0.00000000E+00  0.00000000E+00
  0.00000000E+00  0.00000000E+00  0.00000000E+00
  0.00000000E+00  0.00000000E+00  0.00000000E+00
  0.00000000E+00  0.00000000E+00  0.00000000E+00
  0.00000000E+00  0.00000000E+00  0.00000000E+00
  0.00000000E+00  0.00000000E+00  0.00000000E+00
  0.00000000E+00  0.00000000E+00  0.00000000E+00
  0.00000000E+00  0.00000000E+00  0.00000000E+00
  0.00000000E+00  0.00000000E+00  0.00000000E+00
  0.00000000E+00  0.00000000E+00  0.00000000E+00
  0.00000000E+00  0.00000000E+00  0.00000000E+00
  0.00000000E+00  0.00000000E+00  0.00000000E+00
  0.00000000E+00  0.00000000E+00  0.00000000E+00
  0.00000000E+00  0.00000000E+00  0.00000000E+00
  0.00000000E+00  0.00000000E+00  0.00000000E+00
  0.00000000E+00  0.00000000E+00  0.00000000E+00
  0.00000000E+00  0.00000000E+00  0.00000000E+00
  0.00000000E+00  0.00000000E+00  0.00000000E+00
  0.00000000E+00  0.00000000E+00  0.00000000E+00
  0.00000000E+00  0.00000000E+00  0.00000000E+00
  0.00000000E+00  0.00000000E+00  0.00000000E+00
  0.00000000E+00  0.00000000E+00  0.00000000E+00
  0.00000000E+00  0.00000000E+00  0.00000000E+00
  0.00000000E+00  0.00000000E+00  0.00000000E+00
  0.00000000E+00  0.00000000E+00  0.00000000E+00
  0.00000000E+00  0.00000000E+00  0.00000000E+00
  0.00000000E+00  0.00000000E+00  0.00000000E+00
  0.00000000E+00  0.00000000E+00  0.00000000E+00
  0.00000000E+00  0.00000000E+00  0.00000000E+00
  0.00000000E+00  0.00000000E+00  0.00000000E+00
