Sr   Ti   O                             
   1.00000000000000     
    11.1989999999999998    0.0000000000000000    0.0000000000000000
     0.0000000000000000   11.1989999999999998    0.0000000000000000
     0.0000000000000000    0.0000000000000000   15.9830000000000005
   Sr   Ti   O 
    32    32    95
Direct
  0.9992641524787951  0.2502424691263603  0.1246268775795801
  0.0055241954260426  0.2520538600918429  0.6266437337014539
  0.9985153537377411  0.7506731292696024  0.1249115887318191
  0.0043830812090246  0.7476909606231493  0.6277326787598094
  0.4996047614617507  0.2510414494048643  0.1238338428727029
  0.4946100797076713  0.2446393554752905  0.6299519867344763
  0.4990015989095313  0.7490311416455770  0.1234938525239918
  0.4986902570982297  0.7550530035488916  0.6308935293103702
  0.0055241954260426  0.2520538600918429  0.3733562662985473
  0.9992641524787951  0.2502424691263603  0.8753731224204202
  0.0043830812090246  0.7476909606231493  0.3722673212401906
  0.9985153537377411  0.7506731292696024  0.8750884112681825
  0.4946100797076713  0.2446393554752905  0.3700480132655243
  0.4996047614617507  0.2510414494048643  0.8761661571272954
  0.4986902570982297  0.7550530035488916  0.3691064706896294
  0.4990015989095313  0.7490311416455770  0.8765061474760082
  0.2487997867343938  0.9993854331477546  0.1246053514868416
  0.2511982585111348  0.9993367892651350  0.6271742123351358
  0.2502480015195750  0.4998377208504757  0.1235362090897195
  0.2482762938586488  0.4988305331810948  0.6294706314724129
  0.7494622575662698  0.0006164086077866  0.1249235055978154
  0.7472315986293651  0.0027651294686973  0.6277242776974437
  0.7484809762750538  0.5006533088769500  0.1235958501266677
  0.7582002161051167  0.4971971927510893  0.6306961046130638
  0.2511982585111348  0.9993367892651350  0.3728257876648636
  0.2487997867343938  0.9993854331477546  0.8753946485131574
  0.2482762938586488  0.4988305331810948  0.3705293685275866
  0.2502480015195750  0.4998377208504757  0.8764637909102810
  0.7472315986293651  0.0027651294686973  0.3722757223025572
  0.7494622575662698  0.0006164086077866  0.8750764944021846
  0.7582002161051167  0.4971971927510893  0.3693038953869354
  0.7484809762750538  0.5006533088769500  0.8764041498733318
  0.9986996312893719  0.9999157104910468 -0.0000000000000000
  0.0075444896745323  0.9981347742927390  0.5000000000000000
 -0.0003896691105778  0.4999518939696140 -0.0000000000000000
  1.0040724193933863  0.5007698184979456  0.5000000000000000
  0.4997712082280876  0.0001634085270499 -0.0000000000000000
  0.4990521506939263  0.9993090503497994  0.5000000000000000
  0.4991761647975297  0.4998805366110736 -0.0000000000000000
  0.2491676882338490  0.2491992697814025 -0.0000000000000000
  0.2513905260402962  0.2474135171126765  0.5000000000000000
  0.2488700472282026  0.7505363772082212 -0.0000000000000000
  0.2521639986043784  0.7509338212464637  0.5000000000000000
  0.7503124218237504  0.2499849306611193 -0.0000000000000000
  0.7496382121800489  0.7509108961352371 -0.0000000000000000
  0.2495369775718258  0.2493406992920779  0.2485856224158821
  0.2495369775718258  0.2493406992920779  0.7514143775841178
  0.2494912587620663  0.7499590221845419  0.2485000003451573
  0.2494912587620663  0.7499590221845419  0.7514999996548438
  0.7486870415157003  0.2514349840205424  0.2496492156061550
  0.7486870415157003  0.2514349840205424  0.7503507843938445
  0.7491064532799290  0.7489022500615886  0.2495269188654735
  0.7491064532799290  0.7489022500615886  0.7504730811345274
  0.9988895045349574  1.0001304918307166  0.2507872406155350
  0.9988895045349574  1.0001304918307166  0.7492127593844639
  0.0005695046420587  0.5001673286389834  0.2485072621555119
  0.0005695046420587  0.5001673286389834  0.7514927378444864
  0.4998866968584111  0.9997043521615123  0.2485051505828401
  0.4998866968584111  0.9997043521615123  0.7514948494171600
  0.4988462975281547  0.5002978825502394  0.2497940965018825
  0.4988462975281547  0.5002978825502394  0.7502059034981183
  0.7630288532041287  0.2456067884093223  0.5000000000000000
  0.4885078220758320  0.5041693714737601  0.5000000000000000
  0.7592986876974721  0.7602776991647793  0.5000000000000000
  0.1094826937819586  0.1393396950860101  0.2499372577578388
  0.1094826937819586  0.1393396950860101  0.7500627422421609
  0.1104416875355732  0.6395105721373833  0.2489759158090733
  0.1104416875355732  0.6395105721373833  0.7510240841909276
  0.6103590102852611  0.1397119929526389  0.2504727946518218
  0.6103590102852611  0.1397119929526389  0.7495272053481772
  0.6094167700647772  0.6394656939593638  0.2479919125671305
  0.6094167700647772  0.6394656939593638  0.7520080874328695
  0.3889729183669173  0.3595885207461890  0.2488353863084453
  0.3889729183669173  0.3595885207461890  0.7511646136915555
  0.3886191795094677  0.8613172450670088  0.2484622037377199
  0.3886191795094677  0.8613172450670088  0.7515377962622796
  0.8888846618728197  0.3609443864104585  0.2530092021813057
  0.8888846618728197  0.3609443864104585  0.7469907978186949
  0.8868637068390036  0.8603314447412693  0.2556410930097573
  0.8868637068390036  0.8603314447412693  0.7443589069902422
  0.3608256439594710  0.1104257119281901  0.2508238372637125
  0.3608256439594710  0.1104257119281901  0.7491761627362861
  0.3589244884397205  0.6107801793907282  0.2471488483168078
  0.3589244884397205  0.6107801793907282  0.7528511516831937
  0.8588156927663061  0.1122131087741068  0.2551802194777179
  0.8588156927663061  0.1122131087741068  0.7448197805222813
  0.8615943392141575  0.6119011697359042  0.2483056126507198
  0.8615943392141575  0.6119011697359042  0.7516943873492794
  0.1392126630032392  0.3890385919418257  0.2497608714767582
  0.1392126630032392  0.3890385919418257  0.7502391285232427
  0.1378529659015275  0.8891192166290911  0.2506349811152456
  0.1378529659015275  0.8891192166290911  0.7493650188847562
  0.6384946659898287  0.3903275108473186  0.2484845984766646
  0.6384946659898287  0.3903275108473186  0.7515154015233354
  0.6392861504344044  0.8889969212918595  0.2519579974612752
  0.6392861504344044  0.8889969212918595  0.7480420025387168
  0.3590558591814347  0.3896101207624532 -0.0000000000000000
  0.3589792713471398  0.8909616690972428 -0.0000000000000000
  0.3562876052840310  0.8940818889379513  0.5000000000000000
  0.8589133476778754  0.3906701375629202 -0.0000000000000000
  0.8581213971026195  0.8911796938171520 -0.0000000000000000
  0.8562998648493323  0.8942620772532655  0.5000000000000000
  0.1394900649225193  0.1084123159098833 -0.0000000000000000
  0.1415970776078001  0.1084253594417316  0.5000000000000000
  0.1396514092562919  0.6094111867906961 -0.0000000000000000
  0.1484874640401935  0.6073433257182406  0.5000000000000000
  0.6408234165478228  0.1098539911729424 -0.0000000000000000
  0.6360941589962834  0.1193259368555336  0.5000000000000000
  0.6398881032903533  0.6104830265390915 -0.0000000000000000
  0.1090668247654221  0.3590316340173844 -0.0000000000000000
  0.1191294545742742  0.3627070634822597  0.5000000000000000
  0.1077523246379725  0.8599429368737240 -0.0000000000000000
  0.1073144475974800  0.8553346250749633  0.5000000000000000
  0.6100922266862792  0.3596211522565512 -0.0000000000000000
  0.6088138187867022  0.8594974476150609 -0.0000000000000000
  0.6081535437569098  0.8537240054750582  0.5000000000000000
  0.3904219941282881  0.1403389822389035 -0.0000000000000000
  0.3895589942469518  0.1371931617403808  0.5000000000000000
  0.3891155661273272  0.6404366663521963 -0.0000000000000000
  0.8905708697385420  0.1411960176607555 -0.0000000000000000
  0.8907183272824822  0.1385911916596776  0.5000000000000000
  0.8898314576511435  0.6408015531050019 -0.0000000000000000
  0.9953428360554933  0.9993389065051154  0.1263500489253214
  0.0017227609120812 -0.0000405463803016  0.6232865321290163
  0.9992476763894578  0.4983844127790113  0.1249344116304991
  0.0029895671554041  0.5023844762385906  0.6250874639376722
  0.5011333590265903  0.0004172366223138  0.1250277397479652
  0.5007622188362835  0.9991754988054797  0.6248753875489415
  0.4990011226140067  0.4996751284090424  0.1242994331120358
  0.4914386436203432  0.5028310524962081  0.6258595702223602
  0.0017227609120812 -0.0000405463803016  0.3767134678709843
  0.9953428360554933  0.9993389065051154  0.8736499510746791
  0.0029895671554041  0.5023844762385906  0.3749125360623283
  0.9992476763894578  0.4983844127790113  0.8750655883695009
  0.5007622188362835  0.9991754988054797  0.3751246124510573
  0.5011333590265903  0.0004172366223138  0.8749722602520367
  0.4990011226140067  0.4996751284090424  0.8757005668879636
  0.2502498210790217  0.2494291877223818  0.3749251609594996
  0.2490787947188577  0.2483108431454042  0.8751951001009209
  0.2515692756954666  0.7491814708840540  0.3749545154900638
  0.2481114782858360  0.7517704134744559  0.8755261395104883
  0.7517489709573464  0.2495459077783742  0.8740632789017269
  0.7504962729224050  0.7523531530660477  0.8743341236345568
  0.2490787947188577  0.2483108431454042  0.1248048998990808
  0.2502498210790217  0.2494291877223818  0.6250748390405011
  0.2481114782858360  0.7517704134744559  0.1244738604895120
  0.2515692756954666  0.7491814708840540  0.6250454845099351
  0.7517489709573464  0.2495459077783742  0.1259367210982735
  0.7384256868903005  0.2593805894755004  0.6211013244855410
  0.7504962729224050  0.7523531530660477  0.1256658763654444
  0.7405059742515249  0.7373305914754514  0.6209102102327864
  0.7384256868903005  0.2593805894755004  0.3788986755144575
  0.8741042325701411  0.3818307171274162  0.5000000000000000
  0.4061361432148528  0.6536997205482536  0.5000000000000000
  0.4914386436203432  0.5028310524962081  0.3741404297776386
  0.3762693056313382  0.3774136060531192  0.5000000000000000
  0.8903176645649056  0.6404012445372145  0.5000000000000000
  0.7405059742515249  0.7373305914754514  0.3790897897672131
  0.6510887954271453  0.4817096804267316  0.5000000000000000
 
  0.00000000E+00  0.00000000E+00  0.00000000E+00
  0.00000000E+00  0.00000000E+00  0.00000000E+00
  0.00000000E+00  0.00000000E+00  0.00000000E+00
  0.00000000E+00  0.00000000E+00  0.00000000E+00
  0.00000000E+00  0.00000000E+00  0.00000000E+00
  0.00000000E+00  0.00000000E+00  0.00000000E+00
  0.00000000E+00  0.00000000E+00  0.00000000E+00
  0.00000000E+00  0.00000000E+00  0.00000000E+00
  0.00000000E+00  0.00000000E+00  0.00000000E+00
  0.00000000E+00  0.00000000E+00  0.00000000E+00
  0.00000000E+00  0.00000000E+00  0.00000000E+00
  0.00000000E+00  0.00000000E+00  0.00000000E+00
  0.00000000E+00  0.00000000E+00  0.00000000E+00
  0.00000000E+00  0.00000000E+00  0.00000000E+00
  0.00000000E+00  0.00000000E+00  0.00000000E+00
  0.00000000E+00  0.00000000E+00  0.00000000E+00
  0.00000000E+00  0.00000000E+00  0.00000000E+00
  0.00000000E+00  0.00000000E+00  0.00000000E+00
  0.00000000E+00  0.00000000E+00  0.00000000E+00
  0.00000000E+00  0.00000000E+00  0.00000000E+00
  0.00000000E+00  0.00000000E+00  0.00000000E+00
  0.00000000E+00  0.00000000E+00  0.00000000E+00
  0.00000000E+00  0.00000000E+00  0.00000000E+00
  0.00000000E+00  0.00000000E+00  0.00000000E+00
  0.00000000E+00  0.00000000E+00  0.00000000E+00
  0.00000000E+00  0.00000000E+00  0.00000000E+00
  0.00000000E+00  0.00000000E+00  0.00000000E+00
  0.00000000E+00  0.00000000E+00  0.00000000E+00
  0.00000000E+00  0.00000000E+00  0.00000000E+00
  0.00000000E+00  0.00000000E+00  0.00000000E+00
  0.00000000E+00  0.00000000E+00  0.00000000E+00
  0.00000000E+00  0.00000000E+00  0.00000000E+00
  0.00000000E+00  0.00000000E+00  0.00000000E+00
  0.00000000E+00  0.00000000E+00  0.00000000E+00
  0.00000000E+00  0.00000000E+00  0.00000000E+00
  0.00000000E+00  0.00000000E+00  0.00000000E+00
  0.00000000E+00  0.00000000E+00  0.00000000E+00
  0.00000000E+00  0.00000000E+00  0.00000000E+00
  0.00000000E+00  0.00000000E+00  0.00000000E+00
  0.00000000E+00  0.00000000E+00  0.00000000E+00
  0.00000000E+00  0.00000000E+00  0.00000000E+00
  0.00000000E+00  0.00000000E+00  0.00000000E+00
  0.00000000E+00  0.00000000E+00  0.00000000E+00
  0.00000000E+00  0.00000000E+00  0.00000000E+00
  0.00000000E+00  0.00000000E+00  0.00000000E+00
  0.00000000E+00  0.00000000E+00  0.00000000E+00
  0.00000000E+00  0.00000000E+00  0.00000000E+00
  0.00000000E+00  0.00000000E+00  0.00000000E+00
  0.00000000E+00  0.00000000E+00  0.00000000E+00
  0.00000000E+00  0.00000000E+00  0.00000000E+00
  0.00000000E+00  0.00000000E+00  0.00000000E+00
  0.00000000E+00  0.00000000E+00  0.00000000E+00
  0.00000000E+00  0.00000000E+00  0.00000000E+00
  0.00000000E+00  0.00000000E+00  0.00000000E+00
  0.00000000E+00  0.00000000E+00  0.00000000E+00
  0.00000000E+00  0.00000000E+00  0.00000000E+00
  0.00000000E+00  0.00000000E+00  0.00000000E+00
  0.00000000E+00  0.00000000E+00  0.00000000E+00
  0.00000000E+00  0.00000000E+00  0.00000000E+00
  0.00000000E+00  0.00000000E+00  0.00000000E+00
  0.00000000E+00  0.00000000E+00  0.00000000E+00
  0.00000000E+00  0.00000000E+00  0.00000000E+00
  0.00000000E+00  0.00000000E+00  0.00000000E+00
  0.00000000E+00  0.00000000E+00  0.00000000E+00
  0.00000000E+00  0.00000000E+00  0.00000000E+00
  0.00000000E+00  0.00000000E+00  0.00000000E+00
  0.00000000E+00  0.00000000E+00  0.00000000E+00
  0.00000000E+00  0.00000000E+00  0.00000000E+00
  0.00000000E+00  0.00000000E+00  0.00000000E+00
  0.00000000E+00  0.00000000E+00  0.00000000E+00
  0.00000000E+00  0.00000000E+00  0.00000000E+00
  0.00000000E+00  0.00000000E+00  0.00000000E+00
  0.00000000E+00  0.00000000E+00  0.00000000E+00
  0.00000000E+00  0.00000000E+00  0.00000000E+00
  0.00000000E+00  0.00000000E+00  0.00000000E+00
  0.00000000E+00  0.00000000E+00  0.00000000E+00
  0.00000000E+00  0.00000000E+00  0.00000000E+00
  0.00000000E+00  0.00000000E+00  0.00000000E+00
  0.00000000E+00  0.00000000E+00  0.00000000E+00
  0.00000000E+00  0.00000000E+00  0.00000000E+00
  0.00000000E+00  0.00000000E+00  0.00000000E+00
  0.00000000E+00  0.00000000E+00  0.00000000E+00
  0.00000000E+00  0.00000000E+00  0.00000000E+00
  0.00000000E+00  0.00000000E+00  0.00000000E+00
  0.00000000E+00  0.00000000E+00  0.00000000E+00
  0.00000000E+00  0.00000000E+00  0.00000000E+00
  0.00000000E+00  0.00000000E+00  0.00000000E+00
  0.00000000E+00  0.00000000E+00  0.00000000E+00
  0.00000000E+00  0.00000000E+00  0.00000000E+00
  0.00000000E+00  0.00000000E+00  0.00000000E+00
  0.00000000E+00  0.00000000E+00  0.00000000E+00
  0.00000000E+00  0.00000000E+00  0.00000000E+00
  0.00000000E+00  0.00000000E+00  0.00000000E+00
  0.00000000E+00  0.00000000E+00  0.00000000E+00
  0.00000000E+00  0.00000000E+00  0.00000000E+00
  0.00000000E+00  0.00000000E+00  0.00000000E+00
  0.00000000E+00  0.00000000E+00  0.00000000E+00
  0.00000000E+00  0.00000000E+00  0.00000000E+00
  0.00000000E+00  0.00000000E+00  0.00000000E+00
  0.00000000E+00  0.00000000E+00  0.00000000E+00
  0.00000000E+00  0.00000000E+00  0.00000000E+00
  0.00000000E+00  0.00000000E+00  0.00000000E+00
  0.00000000E+00  0.00000000E+00  0.00000000E+00
  0.00000000E+00  0.00000000E+00  0.00000000E+00
  0.00000000E+00  0.00000000E+00  0.00000000E+00
  0.00000000E+00  0.00000000E+00  0.00000000E+00
  0.00000000E+00  0.00000000E+00  0.00000000E+00
  0.00000000E+00  0.00000000E+00  0.00000000E+00
  0.00000000E+00  0.00000000E+00  0.00000000E+00
  0.00000000E+00  0.00000000E+00  0.00000000E+00
  0.00000000E+00  0.00000000E+00  0.00000000E+00
  0.00000000E+00  0.00000000E+00  0.00000000E+00
  0.00000000E+00  0.00000000E+00  0.00000000E+00
  0.00000000E+00  0.00000000E+00  0.00000000E+00
  0.00000000E+00  0.00000000E+00  0.00000000E+00
  0.00000000E+00  0.00000000E+00  0.00000000E+00
  0.00000000E+00  0.00000000E+00  0.00000000E+00
  0.00000000E+00  0.00000000E+00  0.00000000E+00
  0.00000000E+00  0.00000000E+00  0.00000000E+00
  0.00000000E+00  0.00000000E+00  0.00000000E+00
  0.00000000E+00  0.00000000E+00  0.00000000E+00
  0.00000000E+00  0.00000000E+00  0.00000000E+00
  0.00000000E+00  0.00000000E+00  0.00000000E+00
  0.00000000E+00  0.00000000E+00  0.00000000E+00
  0.00000000E+00  0.00000000E+00  0.00000000E+00
  0.00000000E+00  0.00000000E+00  0.00000000E+00
  0.00000000E+00  0.00000000E+00  0.00000000E+00
  0.00000000E+00  0.00000000E+00  0.00000000E+00
  0.00000000E+00  0.00000000E+00  0.00000000E+00
  0.00000000E+00  0.00000000E+00  0.00000000E+00
  0.00000000E+00  0.00000000E+00  0.00000000E+00
  0.00000000E+00  0.00000000E+00  0.00000000E+00
  0.00000000E+00  0.00000000E+00  0.00000000E+00
  0.00000000E+00  0.00000000E+00  0.00000000E+00
  0.00000000E+00  0.00000000E+00  0.00000000E+00
  0.00000000E+00  0.00000000E+00  0.00000000E+00
  0.00000000E+00  0.00000000E+00  0.00000000E+00
  0.00000000E+00  0.00000000E+00  0.00000000E+00
  0.00000000E+00  0.00000000E+00  0.00000000E+00
  0.00000000E+00  0.00000000E+00  0.00000000E+00
  0.00000000E+00  0.00000000E+00  0.00000000E+00
  0.00000000E+00  0.00000000E+00  0.00000000E+00
  0.00000000E+00  0.00000000E+00  0.00000000E+00
  0.00000000E+00  0.00000000E+00  0.00000000E+00
  0.00000000E+00  0.00000000E+00  0.00000000E+00
  0.00000000E+00  0.00000000E+00  0.00000000E+00
  0.00000000E+00  0.00000000E+00  0.00000000E+00
  0.00000000E+00  0.00000000E+00  0.00000000E+00
  0.00000000E+00  0.00000000E+00  0.00000000E+00
  0.00000000E+00  0.00000000E+00  0.00000000E+00
  0.00000000E+00  0.00000000E+00  0.00000000E+00
  0.00000000E+00  0.00000000E+00  0.00000000E+00
  0.00000000E+00  0.00000000E+00  0.00000000E+00
  0.00000000E+00  0.00000000E+00  0.00000000E+00
  0.00000000E+00  0.00000000E+00  0.00000000E+00
  0.00000000E+00  0.00000000E+00  0.00000000E+00
  0.00000000E+00  0.00000000E+00  0.00000000E+00
  0.00000000E+00  0.00000000E+00  0.00000000E+00
  0.00000000E+00  0.00000000E+00  0.00000000E+00
