Sr   Ti   Fe   O                        
   1.00000000000000     
    11.1989999999999998    0.0000000000000000    0.0000000000000000
     0.0000000000000000   11.1989999999999998    0.0000000000000000
     0.0000000000000000    0.0000000000000000   15.9830000000000005
   Sr   Ti   Fe   O 
    32    31     1    95
Direct
 -0.0002513544693975  0.2494412923478140  0.1250843846744785
 -0.0002622342971523  0.2477549342711188  0.6245172018249622
  0.9984787938072375  0.7506501666813131  0.1258688118193433
  0.9970578045315163  0.7505718605324078  0.6238477591925563
  0.4998185554346113  0.2485299435891141  0.1256669137678896
  0.5000625838960296  0.2382599684594288  0.6241245802357770
  0.4999057019717877  0.7528188512916795  0.1243916558811603
  0.4999215967322420  0.7554190067637846  0.6240314214634641
  0.0001913049018974  0.2488726637011875  0.3760752588344274
  0.9995172433574200  0.2496818241673844  0.8749037617038502
  0.9965513821431566  0.7488090952029390  0.3781790453980828
  0.9994567005276942  0.7499589054310993  0.8749405507277668
  0.5009066878167218  0.2421102906913524  0.3741509072385087
  0.4997728726991540  0.2447288084732157  0.8762359952007792
  0.4989544874740160  0.7540519691503991  0.3727094471198059
  0.5014531648997478  0.7553101043036924  0.8765903792010491
  0.2497670203873269  0.0002113685776241  0.1251007752061793
  0.2486681128405550 -0.0006316788827342  0.6243457371415546
  0.2481684596841370  0.5006916452823168  0.1254102305726578
  0.2367208424956161  0.5000780710382839  0.6248907363311039
  0.7497168198108873  0.9987998247993396  0.1252614626361886
  0.7511472759045441  0.9975551301939136  0.6242285840357671
  0.7515515340494540  0.5009475572213917  0.1252127570400174
  0.7631078430812730  0.4985366952905894  0.6275709251811498
  0.2488173085859605 -0.0007021212967192  0.3753408476134918
  0.2498433432523978  0.0005760326048556  0.8748206908937828
  0.2427919788930882  0.5010753539657672  0.3755082696583511
  0.2453311573891720  0.5003247510881325  0.8767202121233204
  0.7504519158619908  0.9977571110791752  0.3758288003523744
  0.7507470919983861  0.9989696190387203  0.8750248881891641
  0.7567108509081042  0.4984328472800062  0.3733752877445246
  0.7545394537275888  0.5008890947684995  0.8764837044402627
  0.9998208655232960  1.0000944230204012  0.9997689519883975
  0.9984849165679525  0.9989047812954341  0.4995063558369339
 -0.0000331084030748  0.4997804376482924  0.0005264812313858
  0.9967063297771731  0.5003676653283937  0.4997638569263553
  0.4998981662952801  0.0002132337127827  0.0003116703197095
  0.5009643154777669  0.9966600004355776  0.4995458074327749
  0.4993342624106802  0.4997500233185876  0.0039801466215768
  0.2506046107943017  0.2507793527982459  1.0002005154301814
  0.2494952231556045  0.2486279257842203  0.5011037108705175
  0.2502022811398068  0.7495733382799578  0.9999444993210282
  0.2487333048261814  0.7500839344787307  0.5000204662818721
  0.7495251835848442  0.2504312351640412  1.0001208971355195
  0.7487395690300664  0.2487019789759808  0.5001663105279054
  0.7501817028979506  0.7500585281549094  1.0004870939484178
  0.2504365095118224  0.2508747334043393  0.2506061395523654
  0.2503392927522026  0.2500716200138935  0.7491901809002505
  0.2489668215668771  0.7497396106409402  0.2500709910721929
  0.2504969499393923  0.7500405175605571  0.7488510211395812
  0.7499059934796890  0.2494244872435398  0.2499253004016387
  0.7494741348711138  0.2490532389427715  0.7494031151216466
  0.7484525976556115  0.7484581338232753  0.2525743500175913
  0.7504498460526557  0.7505173497783033  0.7490427243446454
 -0.0002629199446235  0.9996312593545164  0.2506623708197664
  0.0004199233585036  0.9997220500832115  0.7507323784516620
 -0.0000428054341405  0.4996365764448888  0.2497210250668623
  0.0004415856167324  0.4995940288312612  0.7511576955423398
  0.4996890071464032 -0.0003503757846028  0.2498114468521181
  0.5001093085179695  0.9991490348375173  0.7504229649840933
  0.5006611476295417  0.5004302381237918  0.2481071704240352
  0.5002986236598413  0.5001515846091317  0.7602217200892644
  0.4982325852421583  0.4979848333952067  0.4918103501645006
  0.7492080531801042  0.7516033986215837  0.5030262706779211
  0.1102957693796744  0.1414479931030955  0.2503489723488528
  0.1104061587010535  0.1403723685705697  0.7530181850907754
  0.1087335811791668  0.6405210626034404  0.2504541865127164
  0.1121712883528896  0.6385868261560291  0.7498170369900048
  0.6092118787114016  0.1404369336355687  0.2488046548586667
  0.6098125364945033  0.1400704339792633  0.7511551116338048
  0.6073913499605532  0.6407618827568128  0.2436014012832162
  0.3931325174549622  0.3604341996833310  0.2539122105068983
  0.3926999276244248  0.3644973049367184  0.7376765117675431
  0.3897563554732152  0.8594600442366541  0.2494821489238741
  0.3897455269947889  0.8600934380920529  0.7510545486429243
  0.8905520338596858  0.3589192195302423  0.2511259080873942
  0.8886667489897793  0.3607014072296931  0.7496994221539024
  0.8891953403942896  0.8588411442245460  0.2546984626689557
  0.8913903304831200  0.8609308421971186  0.7538072276560863
  0.3595176238845237  0.1103968854063924  0.2505985662013911
  0.3611112912656515  0.1114760184034439  0.7501373095940216
  0.3590571511338268  0.6078852304976942  0.2524357330314755
  0.3657791233870623  0.6076037424466371  0.7371511769714040
  0.8592009707586873  0.1091067938809396  0.2499952145093594
  0.8597288213268192  0.1104733845778496  0.7513410337057947
  0.8591780386783143  0.6084334028248928  0.2492355693731641
  0.8617798512475059  0.6107679194869134  0.7523196377031665
  0.1414737809312361  0.3912350475034984  0.2498643093968732
  0.1403168962377389  0.3896986594654623  0.7515265325044993
  0.1402155497232646  0.8906454216338855  0.2486719437049562
  0.1410985638164043  0.8898882767571893  0.7516624145160513
  0.6411286953098426  0.3917508524481137  0.2493618415562568
  0.6399097726438374  0.8901085422166325  0.2512410852869502
  0.6394187045779545  0.8900916422999047  0.7518570606463467
  0.3586306272772984  0.3923518331328498  0.0005986307518465
  0.3592619833851464  0.8902471155589671  0.9994173038720731
  0.3588426129072216  0.8891275484536381  0.4998090038780694
  0.8590630462982255  0.3907630125636702 -0.0000283084192800
  0.8595471297743125  0.3864892476450685  0.4994804764150175
  0.8597217546513589  0.8906584025723130  0.9991403747528748
  0.8613887857048171  0.8896501582502381  0.4967250769072805
  0.1410937551640332  0.1104560199725896  0.9999754192230076
  0.1401624872490692  0.1103649966374785  0.4988581945568213
  0.1407053641740172  0.6090855929555485  0.0000907506230700
  0.1328122127727885  0.6136068902363717  0.4994315805998217
  0.6404950771204583  0.1097782877274323  0.9993742535501726
  0.6404220557175778  0.1071991099593235  0.5000822928658386
  0.6397323532036597  0.6080426414949081  0.0006048194287765
  0.1096174313319880  0.3590576208317463  0.9994811740179479
  0.1112662448892568  0.3614159931378558  0.5003801597493727
  0.1102044403712746  0.8591148716126834  0.9989138585554489
  0.1091413220585977  0.8610082359930077  0.4996046313897219
  0.6076198932925307  0.3595572838772981  0.0004551262048889
  0.6093826024624028  0.8597047615656118  0.0004356960125519
  0.6064568482574570  0.8571339833450765  0.4996041793465270
  0.3906784096280193  0.1409967063684208  0.0005920284644978
  0.3895775204944363  0.1395089381719188  0.4998944259956256
  0.3920857750455528  0.6404311981081190  0.0003900525308523
  0.3826818112216280  0.6340420669480793  0.5016648761869157
  0.8901083337567950  0.1410355238425775  0.9988328780038580
  0.8899333245920932  0.1395139856149387  0.4994639203280172
  0.8904292501440618  0.6400693791374263  0.9998380986020801
  0.9987544808573990  0.9991825728947408  0.1250269521422419
  0.0001449484927559  0.0003969836430535  0.6257597244973228
  0.0001741897569947  0.4988859720105361  0.1249707400061138
  0.0005494003135836  0.4988560571704047  0.6257900817481371
  0.4995656715110879 -0.0003466590907501  0.1249588352926400
  0.4996908316277559 -0.0003163557661265  0.6254649049142769
  0.4968771043459362  0.4974427098217430  0.1254838795898428
  0.0022858082929742  0.0022047501688643  0.3744813879225140
  1.0009796756208480  1.0009995358720067  0.8758181161111110
 -0.0001336938498830  0.4991634687840538  0.3747486443508630
  0.0004137338922991  0.4992522783226716  0.8756132147350815
  0.4991345054564188  0.0005607960972792  0.3745735418332597
  0.4990378896797482  1.0003521093888612  0.8756212339612441
  0.4963088299193789  0.4974534311915618  0.8755438314548343
  0.2531622071039821  0.2554822066613159  0.3765626729448407
  0.2567164769231316  0.2543955484667239  0.8742635151829945
  0.2488949771929961  0.7505112330213963  0.3749851958141433
  0.2547193264018066  0.7434624848946351  0.8736352696302800
  0.7468583637501877  0.2496010993513411  0.3751092498812258
  0.7461460331394052  0.2555071094715115  0.8739233094354354
  0.7381730864813316  0.7358671813080546  0.3760290984572215
  0.7473131888465263  0.7482771852266513  0.8757417355048904
  0.2523125958158308  0.2521566493135655  0.1256012503291816
  0.2435142558661872  0.2441229913720971  0.6257481366515416
  0.2506038299837453  0.7484043363647950  0.1248438317242365
  0.2465089679163827  0.7531435820387313  0.6246111375288321
  0.7504023321349819  0.2503933038971072  0.1246646271011161
  0.7508105960910134  0.2465787132964415  0.6248457226826839
  0.7521723364138202  0.7519542162834293  0.1249645837388082
  0.6358181715772009  0.3931281852589238  0.7405658417005515
  0.6084835854679413  0.6373788048221845  0.7466386785942254
  0.5137573506192901  0.5105725103956246  0.3758925357830618
  0.6047321412775331  0.3567114418953005  0.5027024893026727
  0.3630454631717482  0.3915413327780412  0.5139769279938240
  0.7566591265279957  0.7579271210689676  0.6284650475186498
  0.8801400308890950  0.6317902938961300  0.5010934038009270
  0.6131590980599437  0.5970482265940186  0.5414342810889023
 
  0.00000000E+00  0.00000000E+00  0.00000000E+00
  0.00000000E+00  0.00000000E+00  0.00000000E+00
  0.00000000E+00  0.00000000E+00  0.00000000E+00
  0.00000000E+00  0.00000000E+00  0.00000000E+00
  0.00000000E+00  0.00000000E+00  0.00000000E+00
  0.00000000E+00  0.00000000E+00  0.00000000E+00
  0.00000000E+00  0.00000000E+00  0.00000000E+00
  0.00000000E+00  0.00000000E+00  0.00000000E+00
  0.00000000E+00  0.00000000E+00  0.00000000E+00
  0.00000000E+00  0.00000000E+00  0.00000000E+00
  0.00000000E+00  0.00000000E+00  0.00000000E+00
  0.00000000E+00  0.00000000E+00  0.00000000E+00
  0.00000000E+00  0.00000000E+00  0.00000000E+00
  0.00000000E+00  0.00000000E+00  0.00000000E+00
  0.00000000E+00  0.00000000E+00  0.00000000E+00
  0.00000000E+00  0.00000000E+00  0.00000000E+00
  0.00000000E+00  0.00000000E+00  0.00000000E+00
  0.00000000E+00  0.00000000E+00  0.00000000E+00
  0.00000000E+00  0.00000000E+00  0.00000000E+00
  0.00000000E+00  0.00000000E+00  0.00000000E+00
  0.00000000E+00  0.00000000E+00  0.00000000E+00
  0.00000000E+00  0.00000000E+00  0.00000000E+00
  0.00000000E+00  0.00000000E+00  0.00000000E+00
  0.00000000E+00  0.00000000E+00  0.00000000E+00
  0.00000000E+00  0.00000000E+00  0.00000000E+00
  0.00000000E+00  0.00000000E+00  0.00000000E+00
  0.00000000E+00  0.00000000E+00  0.00000000E+00
  0.00000000E+00  0.00000000E+00  0.00000000E+00
  0.00000000E+00  0.00000000E+00  0.00000000E+00
  0.00000000E+00  0.00000000E+00  0.00000000E+00
  0.00000000E+00  0.00000000E+00  0.00000000E+00
  0.00000000E+00  0.00000000E+00  0.00000000E+00
  0.00000000E+00  0.00000000E+00  0.00000000E+00
  0.00000000E+00  0.00000000E+00  0.00000000E+00
  0.00000000E+00  0.00000000E+00  0.00000000E+00
  0.00000000E+00  0.00000000E+00  0.00000000E+00
  0.00000000E+00  0.00000000E+00  0.00000000E+00
  0.00000000E+00  0.00000000E+00  0.00000000E+00
  0.00000000E+00  0.00000000E+00  0.00000000E+00
  0.00000000E+00  0.00000000E+00  0.00000000E+00
  0.00000000E+00  0.00000000E+00  0.00000000E+00
  0.00000000E+00  0.00000000E+00  0.00000000E+00
  0.00000000E+00  0.00000000E+00  0.00000000E+00
  0.00000000E+00  0.00000000E+00  0.00000000E+00
  0.00000000E+00  0.00000000E+00  0.00000000E+00
  0.00000000E+00  0.00000000E+00  0.00000000E+00
  0.00000000E+00  0.00000000E+00  0.00000000E+00
  0.00000000E+00  0.00000000E+00  0.00000000E+00
  0.00000000E+00  0.00000000E+00  0.00000000E+00
  0.00000000E+00  0.00000000E+00  0.00000000E+00
  0.00000000E+00  0.00000000E+00  0.00000000E+00
  0.00000000E+00  0.00000000E+00  0.00000000E+00
  0.00000000E+00  0.00000000E+00  0.00000000E+00
  0.00000000E+00  0.00000000E+00  0.00000000E+00
  0.00000000E+00  0.00000000E+00  0.00000000E+00
  0.00000000E+00  0.00000000E+00  0.00000000E+00
  0.00000000E+00  0.00000000E+00  0.00000000E+00
  0.00000000E+00  0.00000000E+00  0.00000000E+00
  0.00000000E+00  0.00000000E+00  0.00000000E+00
  0.00000000E+00  0.00000000E+00  0.00000000E+00
  0.00000000E+00  0.00000000E+00  0.00000000E+00
  0.00000000E+00  0.00000000E+00  0.00000000E+00
  0.00000000E+00  0.00000000E+00  0.00000000E+00
  0.00000000E+00  0.00000000E+00  0.00000000E+00
  0.00000000E+00  0.00000000E+00  0.00000000E+00
  0.00000000E+00  0.00000000E+00  0.00000000E+00
  0.00000000E+00  0.00000000E+00  0.00000000E+00
  0.00000000E+00  0.00000000E+00  0.00000000E+00
  0.00000000E+00  0.00000000E+00  0.00000000E+00
  0.00000000E+00  0.00000000E+00  0.00000000E+00
  0.00000000E+00  0.00000000E+00  0.00000000E+00
  0.00000000E+00  0.00000000E+00  0.00000000E+00
  0.00000000E+00  0.00000000E+00  0.00000000E+00
  0.00000000E+00  0.00000000E+00  0.00000000E+00
  0.00000000E+00  0.00000000E+00  0.00000000E+00
  0.00000000E+00  0.00000000E+00  0.00000000E+00
  0.00000000E+00  0.00000000E+00  0.00000000E+00
  0.00000000E+00  0.00000000E+00  0.00000000E+00
  0.00000000E+00  0.00000000E+00  0.00000000E+00
  0.00000000E+00  0.00000000E+00  0.00000000E+00
  0.00000000E+00  0.00000000E+00  0.00000000E+00
  0.00000000E+00  0.00000000E+00  0.00000000E+00
  0.00000000E+00  0.00000000E+00  0.00000000E+00
  0.00000000E+00  0.00000000E+00  0.00000000E+00
  0.00000000E+00  0.00000000E+00  0.00000000E+00
  0.00000000E+00  0.00000000E+00  0.00000000E+00
  0.00000000E+00  0.00000000E+00  0.00000000E+00
  0.00000000E+00  0.00000000E+00  0.00000000E+00
  0.00000000E+00  0.00000000E+00  0.00000000E+00
  0.00000000E+00  0.00000000E+00  0.00000000E+00
  0.00000000E+00  0.00000000E+00  0.00000000E+00
  0.00000000E+00  0.00000000E+00  0.00000000E+00
  0.00000000E+00  0.00000000E+00  0.00000000E+00
  0.00000000E+00  0.00000000E+00  0.00000000E+00
  0.00000000E+00  0.00000000E+00  0.00000000E+00
  0.00000000E+00  0.00000000E+00  0.00000000E+00
  0.00000000E+00  0.00000000E+00  0.00000000E+00
  0.00000000E+00  0.00000000E+00  0.00000000E+00
  0.00000000E+00  0.00000000E+00  0.00000000E+00
  0.00000000E+00  0.00000000E+00  0.00000000E+00
  0.00000000E+00  0.00000000E+00  0.00000000E+00
  0.00000000E+00  0.00000000E+00  0.00000000E+00
  0.00000000E+00  0.00000000E+00  0.00000000E+00
  0.00000000E+00  0.00000000E+00  0.00000000E+00
  0.00000000E+00  0.00000000E+00  0.00000000E+00
  0.00000000E+00  0.00000000E+00  0.00000000E+00
  0.00000000E+00  0.00000000E+00  0.00000000E+00
  0.00000000E+00  0.00000000E+00  0.00000000E+00
  0.00000000E+00  0.00000000E+00  0.00000000E+00
  0.00000000E+00  0.00000000E+00  0.00000000E+00
  0.00000000E+00  0.00000000E+00  0.00000000E+00
  0.00000000E+00  0.00000000E+00  0.00000000E+00
  0.00000000E+00  0.00000000E+00  0.00000000E+00
  0.00000000E+00  0.00000000E+00  0.00000000E+00
  0.00000000E+00  0.00000000E+00  0.00000000E+00
  0.00000000E+00  0.00000000E+00  0.00000000E+00
  0.00000000E+00  0.00000000E+00  0.00000000E+00
  0.00000000E+00  0.00000000E+00  0.00000000E+00
  0.00000000E+00  0.00000000E+00  0.00000000E+00
  0.00000000E+00  0.00000000E+00  0.00000000E+00
  0.00000000E+00  0.00000000E+00  0.00000000E+00
  0.00000000E+00  0.00000000E+00  0.00000000E+00
  0.00000000E+00  0.00000000E+00  0.00000000E+00
  0.00000000E+00  0.00000000E+00  0.00000000E+00
  0.00000000E+00  0.00000000E+00  0.00000000E+00
  0.00000000E+00  0.00000000E+00  0.00000000E+00
  0.00000000E+00  0.00000000E+00  0.00000000E+00
  0.00000000E+00  0.00000000E+00  0.00000000E+00
  0.00000000E+00  0.00000000E+00  0.00000000E+00
  0.00000000E+00  0.00000000E+00  0.00000000E+00
  0.00000000E+00  0.00000000E+00  0.00000000E+00
  0.00000000E+00  0.00000000E+00  0.00000000E+00
  0.00000000E+00  0.00000000E+00  0.00000000E+00
  0.00000000E+00  0.00000000E+00  0.00000000E+00
  0.00000000E+00  0.00000000E+00  0.00000000E+00
  0.00000000E+00  0.00000000E+00  0.00000000E+00
  0.00000000E+00  0.00000000E+00  0.00000000E+00
  0.00000000E+00  0.00000000E+00  0.00000000E+00
  0.00000000E+00  0.00000000E+00  0.00000000E+00
  0.00000000E+00  0.00000000E+00  0.00000000E+00
  0.00000000E+00  0.00000000E+00  0.00000000E+00
  0.00000000E+00  0.00000000E+00  0.00000000E+00
  0.00000000E+00  0.00000000E+00  0.00000000E+00
  0.00000000E+00  0.00000000E+00  0.00000000E+00
  0.00000000E+00  0.00000000E+00  0.00000000E+00
  0.00000000E+00  0.00000000E+00  0.00000000E+00
  0.00000000E+00  0.00000000E+00  0.00000000E+00
  0.00000000E+00  0.00000000E+00  0.00000000E+00
  0.00000000E+00  0.00000000E+00  0.00000000E+00
  0.00000000E+00  0.00000000E+00  0.00000000E+00
  0.00000000E+00  0.00000000E+00  0.00000000E+00
  0.00000000E+00  0.00000000E+00  0.00000000E+00
  0.00000000E+00  0.00000000E+00  0.00000000E+00
  0.00000000E+00  0.00000000E+00  0.00000000E+00
  0.00000000E+00  0.00000000E+00  0.00000000E+00
  0.00000000E+00  0.00000000E+00  0.00000000E+00
  0.00000000E+00  0.00000000E+00  0.00000000E+00
  0.00000000E+00  0.00000000E+00  0.00000000E+00
  0.00000000E+00  0.00000000E+00  0.00000000E+00
