SrTiFeO                                 
   1.00000000000000     
    11.1989999999999998    0.0000000000000000    0.0000000000000000
     0.0000000000000000   11.1989999999999998    0.0000000000000000
     0.0000000000000000    0.0000000000000000   15.9830000000000005
   Sr   Ti   Fe   O 
    32    31     1    95
Direct
  0.0000645018209343  0.2498520063500549  0.1249918059696908
  0.0002110249502569  0.2487921806365406  0.6243332737951789
 -0.0006784325883016  0.7501292178473756  0.1252274901129541
 -0.0020559452088935  0.7512622008013631  0.6235741381654613
  0.5001078442864547  0.2487661131622688  0.1249379577464678
  0.4996116299269625  0.2426268995717274  0.6243303226757250
  0.5006489955637041  0.7513000222425089  0.1251110800117829
  0.5024274985218649  0.7567273293021567  0.6233946852916036
  0.0005008435122464  0.2498970790194263  0.3757697864755045
 -0.0002930247319328  0.2499548450887826  0.8748053209831689
 -0.0023839993454249  0.7502703606011016  0.3766779492862800
 -0.0004873294604637  0.7499266755934790  0.8746017626635448
  0.5005150364692031  0.2477466475308170  0.3750810828580609
  0.4992865904899624  0.2476696260474232  0.8755151906817297
  0.5014817568869582  0.7522603430118332  0.3756091182522017
  0.5012971028621546  0.7521778045937475  0.8752524850646279
  0.2496596977994867  0.0000908607371670  0.1250206625907118
  0.2487793925248050  0.0001086810136974  0.6242833984736280
  0.2489653083958933  0.5000629060294287  0.1249923693843155
  0.2428319809376679  0.4996652122864436  0.6243433065570657
  0.7503340994853489 -0.0006679639877597  0.1251774293939978
  0.7510900444727558 -0.0020936200879614  0.6235856474357463
  0.7511907677470355  0.5006165663474075  0.1251289613325741
  0.7571933120026412  0.5022359790655366  0.6238389080631359
  0.2497859469351514  0.0002029902106034  0.3758297759888605
  0.2497769494020080  0.0000412034451615  0.8748234939934014
  0.2479442376130863  0.4992374481925080  0.3751051653637341
  0.2478023942629012  0.5007237977918896  0.8754876560144755
  0.7500556558494001 -0.0021401088858979  0.3766230547336381
  0.7501291700061244 -0.0008999246586359  0.8746364271638399
  0.7524663681165507  0.5029376957472128  0.3758121537760873
  0.7521883748238325  0.4999330544157735  0.8753498218654973
 -0.0000861704253974  0.0000096851657084 -0.0004103678459196
 -0.0012921951810696 -0.0010795312837946  0.4994743742162029
  0.0000499763747196  0.5000129152190587  0.0001362685808251
 -0.0011360446901642  0.5013106956871345  0.4995581197692453
  0.4999329392393325 -0.0000232439535153  0.0000983150483353
  0.5011800070755283 -0.0013287413010745  0.4995143289584856
  0.4999687574652700  0.4999734205204796  0.0015263616953187
  0.2501704056388616  0.2503465800361973 -0.0000914995428157
  0.2500138044000146  0.2498934912198281  0.5004803805449295
  0.2503302739540695  0.7498890005255096 -0.0000843335767034
  0.2500222688209766  0.7499017226071800  0.5004445566864985
  0.7496529344930006  0.2501264933753581 -0.0000658955685115
  0.7501278117135769  0.2501075691831267  0.5004731278157460
  0.7498801938452831  0.7496493041174916 -0.0000115922537428
  0.2506111271603905  0.2503497786803789  0.2499781049662316
  0.2497267291997724  0.2499266034752738  0.7494241793292858
  0.2501999266036061  0.7496654722267875  0.2502254431617887
  0.2501842105766051  0.7500290273487633  0.7491412624641938
  0.7498406283653684  0.2503962827324055  0.2502513031588681
  0.7498632514827459  0.2498414055420787  0.7492185289160460
  0.7496394336580192  0.7498397998891370  0.2517550082507265
  0.7500447920661496  0.7499551196909487  0.7479848144720566
  0.0000792378439629  0.0001446848198663  0.2504666903823124
  0.0000102643040242 -0.0000524723737504  0.7503384867937015
  0.0000358092119948  0.4999924798336715  0.2499780932655827
  0.0000240887748065  0.4999740032674396  0.7502513410618556
  0.4999601721652572  0.0000191773660615  0.2500169765421401
  0.4999552258904327 -0.0000632418252167  0.7502315246762544
  0.5001076942469560  0.5000293164047293  0.2480333555198472
  0.4999644186631056  0.4998132981979026  0.7544729838758166
  0.5010442231779499  0.5006623373912114  0.4952012592254453
  0.7499370648185093  0.7501100593071273  0.5007833233746602
  0.1094729028614361  0.1415164394556144  0.2504058740337828
  0.1094259842602668  0.1409211677900710  0.7518957671834110
  0.1088611369069394  0.6412618388502614  0.2505675078042350
  0.1099146445570010  0.6400516178115626  0.7499669614750436
  0.6085677521448529  0.1415091414043453  0.2495826292730346
  0.6091611105895124  0.1407285845775816  0.7508728138010959
  0.6075864482741160  0.6407616081079204  0.2491964931125477
  0.3922271509364943  0.3584849029778596  0.2492102792597570
  0.3920050149977684  0.3610841163010127  0.7425255709550517
  0.3912823296897202  0.8586743922564719  0.2499177139800037
  0.3907932395622433  0.8592321958965187  0.7502517995433098
  0.8912455041146637  0.3587171532446475  0.2500568255189700
  0.8901556444444829  0.3598352378432716  0.7502317272627083
  0.8907224208248338  0.8592556625627304  0.2503811203250365
  0.8909091415517155  0.8599124764984217  0.7520488623858477
  0.3586425382701230  0.1089216685035074  0.2499466889733111
  0.3597151222583916  0.1098287203371084  0.7503976529193838
  0.3586484625405380  0.6077728758988814  0.2494215437427149
  0.3609787965483999  0.6077914191445181  0.7426867121980970
  0.8587163368515005  0.1094837848222823  0.2510613507321221
  0.8593142673948577  0.1095244057416544  0.7514034833711435
  0.8590965218620563  0.6084277196535371  0.2492712791709131
  0.8599136433189672  0.6092158017572152  0.7511152673546938
  0.1415930085536449  0.3913886885038040  0.2495081301690040
  0.1407327861696781  0.3906222260795549  0.7510501236727177
  0.1414324355225993  0.8907047097252790  0.2506203095739368
  0.1408857047403901  0.8906897287176565  0.7516673536116631
  0.6414104507896325  0.3922754387429692  0.2498170584731824
  0.6406284513778006  0.8913541184875383  0.2498271491559527
  0.6397166608787547  0.8904935898067046  0.7506444502428385
  0.3590460565185551  0.3917516217993466  0.0001598159032229
  0.3591492666543163  0.8907207858206608 -0.0003874797006512
  0.3601908782667860  0.8895852160409566  0.5000633958158355
  0.8591126009540434  0.3908533098547518  0.0000836277234059
  0.8599618566308243  0.3894276272541899  0.4996868544772805
  0.8593607132371036  0.8903953481495002 -0.0008066624769037
  0.8624453086514111  0.8910854637384857  0.4988525894682047
  0.1409144932515872  0.1098152040542412 -0.0008729569418225
  0.1402076060987374  0.1103998855692168  0.4987309254582566
  0.1409985637266928  0.6091557467455865  0.0000313656012774
  0.1402533977523833  0.6098912857096414  0.4995112842424831
  0.6406786496731655  0.1093316392977231 -0.0005185404596267
  0.6395425636058208  0.1111019332711191  0.4999305848466843
  0.6406270488103726  0.6081277144225991  0.0002314413830641
  0.1093138841530945  0.3592415974956342 -0.0005024384233768
  0.1106376210446345  0.3603112107960516  0.5000398732121151
  0.1097523528961052  0.8591701873644948 -0.0008699050533455
  0.1108953762094776  0.8601165716657174  0.4987736913091930
  0.6082882187890468  0.3590369083743032  0.0001729592716536
  0.6089751794482228  0.8593561508200224  0.0000507221131984
  0.6091396976679589  0.8622296396128801  0.4995299720721175
  0.3909091169019434  0.1410070529265368  0.0000561901609388
  0.3897082549705796  0.1400245700987250  0.4996264186004747
  0.3916953071552240  0.6409075599125640  0.0002363237826866
  0.3903449550190114  0.6377728320278073  0.5077762638175700
  0.8901940055935930  0.1409392202899271 -0.0008140124581050
  0.8901067110102672  0.1405634177480767  0.4988176103718924
  0.8908282584832031  0.6404920789157216 -0.0004023717866306
  0.0001364325633460  0.0004797062239375  0.1248467358919765
  0.0009322325858094  0.0006605968039383  0.6254620362308565
  0.0004985758264085  0.4998560555704470  0.1247926950235738
  0.0005627413434740  0.4991541563763484  0.6253616685034545
  0.4995448875039944  0.0001688294271387  0.1247740279521308
  0.4995913330961468  0.0008001548523508  0.6253460201529102
  0.4997388536495316  0.4994535029618266  0.1247872669867831
  0.0009558935817438  0.0006267340577736  0.3743111393985004
  0.0001758999575585  0.0004641456119057  0.8755947272290994
  0.0003583915820232  0.4990778905828082  0.3744881976457438
  0.0003379998836761  0.4998533599369686  0.8753533192360557
  0.4993774505897520  0.0008695769510012  0.3744508395596134
  0.4994603154629170  0.0000605337527787  0.8753252002610076
  0.4998642255885671  0.4996844167164095  0.8749917669365549
  0.2527161106228050  0.2538172640467087  0.3752291433424242
  0.2540553821915279  0.2528631768968950  0.8744545970571171
  0.2540693219493357  0.7472992664745852  0.3756478414826636
  0.2528950903944783  0.7462133025183577  0.8743215579068487
  0.7462096458688625  0.2529048752667798  0.3756471613129317
  0.7471737662023570  0.2539495576576688  0.8743343772161940
  0.7471295278386137  0.7462243186303674  0.3739933078864733
  0.7462619877518853  0.7473438219953384  0.8747273361070549
  0.2499091841426931  0.2500368643096256  0.1246736764402855
  0.2458167839494793  0.2459741226945715  0.6255654540332545
  0.2498919967927553  0.7501086537160397  0.1249131674807860
  0.2459973742789560  0.7537945880374044  0.6250906105608101
  0.7499970788627941  0.2499104093097068  0.1249082538571003
  0.7537182876021352  0.2458992981488843  0.6251124945057505
  0.7500096584859935  0.7500306226570804  0.1245691035302595
  0.6387841022843641  0.3920020471701797  0.7422537103280019
  0.6078334730650727  0.6384479891699707  0.7429457254977063
  0.4986158255649134  0.4989479247769459  0.3750338733037442
  0.6084164870886687  0.3613591610976965  0.5077017336745928
  0.3615758915994680  0.3907311787182884  0.5079786808767666
  0.7540372393200241  0.7538782897584239  0.6266956765041256
  0.8904961522110370  0.6374713749043190  0.4999942041890142
  0.6353297874852554  0.6074923987848579  0.5085381241618324
 
  0.00000000E+00  0.00000000E+00  0.00000000E+00
  0.00000000E+00  0.00000000E+00  0.00000000E+00
  0.00000000E+00  0.00000000E+00  0.00000000E+00
  0.00000000E+00  0.00000000E+00  0.00000000E+00
  0.00000000E+00  0.00000000E+00  0.00000000E+00
  0.00000000E+00  0.00000000E+00  0.00000000E+00
  0.00000000E+00  0.00000000E+00  0.00000000E+00
  0.00000000E+00  0.00000000E+00  0.00000000E+00
  0.00000000E+00  0.00000000E+00  0.00000000E+00
  0.00000000E+00  0.00000000E+00  0.00000000E+00
  0.00000000E+00  0.00000000E+00  0.00000000E+00
  0.00000000E+00  0.00000000E+00  0.00000000E+00
  0.00000000E+00  0.00000000E+00  0.00000000E+00
  0.00000000E+00  0.00000000E+00  0.00000000E+00
  0.00000000E+00  0.00000000E+00  0.00000000E+00
  0.00000000E+00  0.00000000E+00  0.00000000E+00
  0.00000000E+00  0.00000000E+00  0.00000000E+00
  0.00000000E+00  0.00000000E+00  0.00000000E+00
  0.00000000E+00  0.00000000E+00  0.00000000E+00
  0.00000000E+00  0.00000000E+00  0.00000000E+00
  0.00000000E+00  0.00000000E+00  0.00000000E+00
  0.00000000E+00  0.00000000E+00  0.00000000E+00
  0.00000000E+00  0.00000000E+00  0.00000000E+00
  0.00000000E+00  0.00000000E+00  0.00000000E+00
  0.00000000E+00  0.00000000E+00  0.00000000E+00
  0.00000000E+00  0.00000000E+00  0.00000000E+00
  0.00000000E+00  0.00000000E+00  0.00000000E+00
  0.00000000E+00  0.00000000E+00  0.00000000E+00
  0.00000000E+00  0.00000000E+00  0.00000000E+00
  0.00000000E+00  0.00000000E+00  0.00000000E+00
  0.00000000E+00  0.00000000E+00  0.00000000E+00
  0.00000000E+00  0.00000000E+00  0.00000000E+00
  0.00000000E+00  0.00000000E+00  0.00000000E+00
  0.00000000E+00  0.00000000E+00  0.00000000E+00
  0.00000000E+00  0.00000000E+00  0.00000000E+00
  0.00000000E+00  0.00000000E+00  0.00000000E+00
  0.00000000E+00  0.00000000E+00  0.00000000E+00
  0.00000000E+00  0.00000000E+00  0.00000000E+00
  0.00000000E+00  0.00000000E+00  0.00000000E+00
  0.00000000E+00  0.00000000E+00  0.00000000E+00
  0.00000000E+00  0.00000000E+00  0.00000000E+00
  0.00000000E+00  0.00000000E+00  0.00000000E+00
  0.00000000E+00  0.00000000E+00  0.00000000E+00
  0.00000000E+00  0.00000000E+00  0.00000000E+00
  0.00000000E+00  0.00000000E+00  0.00000000E+00
  0.00000000E+00  0.00000000E+00  0.00000000E+00
  0.00000000E+00  0.00000000E+00  0.00000000E+00
  0.00000000E+00  0.00000000E+00  0.00000000E+00
  0.00000000E+00  0.00000000E+00  0.00000000E+00
  0.00000000E+00  0.00000000E+00  0.00000000E+00
  0.00000000E+00  0.00000000E+00  0.00000000E+00
  0.00000000E+00  0.00000000E+00  0.00000000E+00
  0.00000000E+00  0.00000000E+00  0.00000000E+00
  0.00000000E+00  0.00000000E+00  0.00000000E+00
  0.00000000E+00  0.00000000E+00  0.00000000E+00
  0.00000000E+00  0.00000000E+00  0.00000000E+00
  0.00000000E+00  0.00000000E+00  0.00000000E+00
  0.00000000E+00  0.00000000E+00  0.00000000E+00
  0.00000000E+00  0.00000000E+00  0.00000000E+00
  0.00000000E+00  0.00000000E+00  0.00000000E+00
  0.00000000E+00  0.00000000E+00  0.00000000E+00
  0.00000000E+00  0.00000000E+00  0.00000000E+00
  0.00000000E+00  0.00000000E+00  0.00000000E+00
  0.00000000E+00  0.00000000E+00  0.00000000E+00
  0.00000000E+00  0.00000000E+00  0.00000000E+00
  0.00000000E+00  0.00000000E+00  0.00000000E+00
  0.00000000E+00  0.00000000E+00  0.00000000E+00
  0.00000000E+00  0.00000000E+00  0.00000000E+00
  0.00000000E+00  0.00000000E+00  0.00000000E+00
  0.00000000E+00  0.00000000E+00  0.00000000E+00
  0.00000000E+00  0.00000000E+00  0.00000000E+00
  0.00000000E+00  0.00000000E+00  0.00000000E+00
  0.00000000E+00  0.00000000E+00  0.00000000E+00
  0.00000000E+00  0.00000000E+00  0.00000000E+00
  0.00000000E+00  0.00000000E+00  0.00000000E+00
  0.00000000E+00  0.00000000E+00  0.00000000E+00
  0.00000000E+00  0.00000000E+00  0.00000000E+00
  0.00000000E+00  0.00000000E+00  0.00000000E+00
  0.00000000E+00  0.00000000E+00  0.00000000E+00
  0.00000000E+00  0.00000000E+00  0.00000000E+00
  0.00000000E+00  0.00000000E+00  0.00000000E+00
  0.00000000E+00  0.00000000E+00  0.00000000E+00
  0.00000000E+00  0.00000000E+00  0.00000000E+00
  0.00000000E+00  0.00000000E+00  0.00000000E+00
  0.00000000E+00  0.00000000E+00  0.00000000E+00
  0.00000000E+00  0.00000000E+00  0.00000000E+00
  0.00000000E+00  0.00000000E+00  0.00000000E+00
  0.00000000E+00  0.00000000E+00  0.00000000E+00
  0.00000000E+00  0.00000000E+00  0.00000000E+00
  0.00000000E+00  0.00000000E+00  0.00000000E+00
  0.00000000E+00  0.00000000E+00  0.00000000E+00
  0.00000000E+00  0.00000000E+00  0.00000000E+00
  0.00000000E+00  0.00000000E+00  0.00000000E+00
  0.00000000E+00  0.00000000E+00  0.00000000E+00
  0.00000000E+00  0.00000000E+00  0.00000000E+00
  0.00000000E+00  0.00000000E+00  0.00000000E+00
  0.00000000E+00  0.00000000E+00  0.00000000E+00
  0.00000000E+00  0.00000000E+00  0.00000000E+00
  0.00000000E+00  0.00000000E+00  0.00000000E+00
  0.00000000E+00  0.00000000E+00  0.00000000E+00
  0.00000000E+00  0.00000000E+00  0.00000000E+00
  0.00000000E+00  0.00000000E+00  0.00000000E+00
  0.00000000E+00  0.00000000E+00  0.00000000E+00
  0.00000000E+00  0.00000000E+00  0.00000000E+00
  0.00000000E+00  0.00000000E+00  0.00000000E+00
  0.00000000E+00  0.00000000E+00  0.00000000E+00
  0.00000000E+00  0.00000000E+00  0.00000000E+00
  0.00000000E+00  0.00000000E+00  0.00000000E+00
  0.00000000E+00  0.00000000E+00  0.00000000E+00
  0.00000000E+00  0.00000000E+00  0.00000000E+00
  0.00000000E+00  0.00000000E+00  0.00000000E+00
  0.00000000E+00  0.00000000E+00  0.00000000E+00
  0.00000000E+00  0.00000000E+00  0.00000000E+00
  0.00000000E+00  0.00000000E+00  0.00000000E+00
  0.00000000E+00  0.00000000E+00  0.00000000E+00
  0.00000000E+00  0.00000000E+00  0.00000000E+00
  0.00000000E+00  0.00000000E+00  0.00000000E+00
  0.00000000E+00  0.00000000E+00  0.00000000E+00
  0.00000000E+00  0.00000000E+00  0.00000000E+00
  0.00000000E+00  0.00000000E+00  0.00000000E+00
  0.00000000E+00  0.00000000E+00  0.00000000E+00
  0.00000000E+00  0.00000000E+00  0.00000000E+00
  0.00000000E+00  0.00000000E+00  0.00000000E+00
  0.00000000E+00  0.00000000E+00  0.00000000E+00
  0.00000000E+00  0.00000000E+00  0.00000000E+00
  0.00000000E+00  0.00000000E+00  0.00000000E+00
  0.00000000E+00  0.00000000E+00  0.00000000E+00
  0.00000000E+00  0.00000000E+00  0.00000000E+00
  0.00000000E+00  0.00000000E+00  0.00000000E+00
  0.00000000E+00  0.00000000E+00  0.00000000E+00
  0.00000000E+00  0.00000000E+00  0.00000000E+00
  0.00000000E+00  0.00000000E+00  0.00000000E+00
  0.00000000E+00  0.00000000E+00  0.00000000E+00
  0.00000000E+00  0.00000000E+00  0.00000000E+00
  0.00000000E+00  0.00000000E+00  0.00000000E+00
  0.00000000E+00  0.00000000E+00  0.00000000E+00
  0.00000000E+00  0.00000000E+00  0.00000000E+00
  0.00000000E+00  0.00000000E+00  0.00000000E+00
  0.00000000E+00  0.00000000E+00  0.00000000E+00
  0.00000000E+00  0.00000000E+00  0.00000000E+00
  0.00000000E+00  0.00000000E+00  0.00000000E+00
  0.00000000E+00  0.00000000E+00  0.00000000E+00
  0.00000000E+00  0.00000000E+00  0.00000000E+00
  0.00000000E+00  0.00000000E+00  0.00000000E+00
  0.00000000E+00  0.00000000E+00  0.00000000E+00
  0.00000000E+00  0.00000000E+00  0.00000000E+00
  0.00000000E+00  0.00000000E+00  0.00000000E+00
  0.00000000E+00  0.00000000E+00  0.00000000E+00
  0.00000000E+00  0.00000000E+00  0.00000000E+00
  0.00000000E+00  0.00000000E+00  0.00000000E+00
  0.00000000E+00  0.00000000E+00  0.00000000E+00
  0.00000000E+00  0.00000000E+00  0.00000000E+00
  0.00000000E+00  0.00000000E+00  0.00000000E+00
  0.00000000E+00  0.00000000E+00  0.00000000E+00
  0.00000000E+00  0.00000000E+00  0.00000000E+00
  0.00000000E+00  0.00000000E+00  0.00000000E+00
  0.00000000E+00  0.00000000E+00  0.00000000E+00
  0.00000000E+00  0.00000000E+00  0.00000000E+00
  0.00000000E+00  0.00000000E+00  0.00000000E+00
