Sr   Ti   Fe   O                        
   1.00000000000000     
    11.1989999999999998    0.0000000000000000    0.0000000000000000
     0.0000000000000000   11.1989999999999998    0.0000000000000000
     0.0000000000000000    0.0000000000000000   15.9830000000000005
   Sr   Ti   Fe   O 
    32    30     2    94
Direct
  0.0007469641484451  0.2491597421504214  0.1249518733665300
  0.0015671719741143  0.2482124553746835  0.6260427749456088
  0.9997722246286420  0.7505108280826067  0.1263623474584613
  0.0084275964098704  0.7504690197841155  0.6243437297939394
  0.4988480628612201  0.2504283423135903  0.1244489301333488
  0.4989836481916644  0.2424378552313346  0.6248566943916120
  0.4987015768947452  0.7513174462134703  0.1234818750683302
  0.4888872970613317  0.7535571468725587  0.6269334841224362
  0.0004847588331987  0.2485775167511871  0.3767209424380462
  0.0004700895258773  0.2503831858229569  0.8738871169623417
  0.9990813633551475  0.7495680986064767  0.3770110209954751
  0.0048400843757852  0.7501563567167471  0.8753886847917839
  0.5009136204887472  0.2412506300615352  0.3735492585965515
  0.4985587170982834  0.2558671512872286  0.8714573439547834
  0.4976273497210247  0.7521281069140429  0.3718467824117514
  0.4977626212299792  0.7471892905409064  0.8753367587208752
  0.2496306665885637  0.0008472753894538  0.1246257060418759
  0.2487023029205413  0.0007166274857023  0.6249724254183536
  0.2501999931024010  0.4998993856726675  0.1244883358317749
  0.2395974235687000  0.4987987825461518  0.6278038409865923
  0.7499460636229540  0.0001326439698159  0.1259592271214184
  0.7530892745695186  0.0092831240951098  0.6266254887882013
  0.7489245757651752  0.4986702208792669  0.1244274452214092
  0.7622421849054284  0.4885932477375726  0.6291334919329959
  0.2492276514771540  0.9987106322219907  0.3751702920547597
  0.2496718128821260  0.0006470214375094  0.8731534397962865
  0.2421607831387922  0.5009339275213655  0.3763691255530627
  0.2553547249426062  0.4999181476397258  0.8726542773679747
  0.7524174617866771  0.9991056899040165  0.3758487556546967
  0.7500457964405052  0.0056265784715249  0.8764415366808338
  0.7557043060250387  0.4949768333907360  0.3700536021914105
  0.7476959618557458  0.4970251728930002  0.8750849951197384
  0.9992814514262479  0.9994697711356297  0.9997111007391252
  0.9983298281008030  0.9992945115205183  0.5008886370883731
  0.0000207400668871  0.5003153072113070  0.9998531494924069
  0.9956261645772373  0.5012502758431470  0.5012376236637380
  0.5002101982402007  0.0001488015571311  0.9994562305302114
  0.5023695933683571  0.9952122755141148  0.5009571949786031
  0.4999394208275176  0.4999951506335198  0.9985042014400237
  0.2506084155464195  0.2507562415289611  0.9990440587507063
  0.2482722398330461  0.2466675087974511  0.5006380374909264
  0.2502632542981872  0.7495230313527036  0.0001615816394017
  0.2490098849489996  0.7506556175333922  0.4992271062369715
  0.7498769658443789  0.2503578288014525  0.0003105769443335
  0.7490705680730171  0.2485907040804999  0.4992867203476171
  0.7505811886470686  0.7507218006959303  0.0055204117960598
  0.2506063826561248  0.2507397743837633  0.2512103564237807
  0.2528800944463910  0.2510900393815707  0.7494630614344863
  0.2489627114108092  0.7496539282929756  0.2500042429642579
  0.2520715211692650  0.7481560297244412  0.7497224602926092
  0.7500990229921060  0.2486888870635921  0.2496577109271359
  0.7478786192909718  0.2519896096155272  0.7502301224940240
  0.7483636809946700  0.7479830769888540  0.2522604020301188
  0.7504613851483757  0.7514995029285751  0.7608461845573571
  0.9996482083596444  0.9989904451608423  0.2507343129212048
  0.0006727244533646  0.0009539707788118  0.7493873221883500
  0.9994279521037241  0.5001511776239381  0.2492974363699930
  0.0008105279055770  0.5000457618000610  0.7509488948092049
  0.5002731462594071  0.9988316703567338  0.2495101665190753
  0.5007572364922184  0.9997911197552840  0.7500889541616937
  0.5005262579694579  0.5006216218667171  0.2473416822201716
  0.4943704606376743  0.4945594189937017  0.4940700869891048
  0.5039988285344432  0.5041630357348689  0.7498620132473155
  0.7522287873826022  0.7550265549976679  0.4964571606351391
  0.1105356306183106  0.1407393963406707  0.2526736810145093
  0.1102988067582520  0.1373089411225214  0.7566336482901519
  0.1081884333923619  0.6408074770067458  0.2505771036201272
  0.1125787369843230  0.6374349547688383  0.7498692302441602
  0.6093774400620171  0.1396767227253878  0.2483417528678973
  0.6107960139648160  0.1389403741636903  0.7504690141339680
  0.6072764100173175  0.6407707978865080  0.2411373062645883
  0.3924040996737883  0.3604990797166024  0.2541703888249364
  0.3846333709397511  0.3577064236798794  0.7396671699486906
  0.3898969780422119  0.8591201059478105  0.2496648651614524
  0.3886593500484151  0.8623570335431293  0.7522208636700443
  0.8906198080703520  0.3592782787948299  0.2521955050990560
  0.8883287947390248  0.3626527116211005  0.7500739871416103
  0.8900700855391535  0.8580345695564670  0.2529458916105459
  0.8847157476101500  0.8613052763912986  0.7340925922366696
  0.3603624389770536  0.1097896213282969  0.2517815149548304
  0.3610986966351744  0.1095232269553483  0.7514078249700569
  0.3585089333151280  0.6085025488309990  0.2535709963471633
  0.3616195957369486  0.6141124751394212  0.7397253360432042
  0.8592653379957452  0.1085479643062604  0.2494514898817991
  0.8615048681603267  0.1120160827015010  0.7510885186955201
  0.8588319771240210  0.6075480889047271  0.2455965865903324
  0.8632063585406718  0.6171197723643261  0.7419630113814681
  0.1403150015729716  0.3913510116625907  0.2516703205599233
  0.1375209700808878  0.3885225636423079  0.7537494098479471
  0.1401824362257248  0.8908233644533063  0.2486257979804919
  0.1369250592655522  0.8867860055274271  0.7511355757511609
  0.6411909724659578  0.3900672140360500  0.2498389343076244
  0.6403805514092684  0.8904217450442685  0.2507383200409545
  0.6429060087824386  0.8903156329856849  0.7417487330475238
  0.3581255176593375  0.3906793795908374  0.0012684053236932
  0.3588985146108636  0.8907744400836841  0.9991747253046379
  0.3596669566331723  0.8891010692783747  0.4993652696310953
  0.8587971865981479  0.3915301331555323  0.9997265142885118
  0.8597305594318287  0.3868780360887452  0.4978791652526046
  0.8580976604061777  0.8921527879095260  0.0014293496489515
  0.8637900756403684  0.8941706976276675  0.5099601146301549
  0.1401173526439230  0.1091299990624318  0.9982968849113808
  0.1409356595750956  0.1115991417696670  0.4937407027261771
  0.1410799873366522  0.6084914963637645  0.9986540386873269
  0.1311827569070830  0.6152062094891941  0.5003323615856133
  0.6413707476488608  0.1089420205495989  0.0012046146651010
  0.6414464541888849  0.1058785347549519  0.4997572693068141
  0.6422573109428799  0.6100621957407083  0.0022476833309767
  0.1085712417906464  0.3589964969102307  0.9986468504155799
  0.1115680790177853  0.3631308704257912  0.4974488195861099
  0.1093575228752668  0.8584724140241006  0.9998272405264027
  0.1104383067350647  0.8623637988671512  0.4985380734364608
  0.6097299463679270  0.3589270780388376  0.0012971101198323
  0.6088272934390041  0.8583401183480829  0.9998030253124108
  0.6063563058663229  0.8525791652975824  0.5080160343898217
  0.3913209598537776  0.1403956831801916  0.9992650168083075
  0.3903756243007248  0.1397223841109271  0.4992526945230528
  0.3907760485272016  0.6416592165092297  0.0020662275837017
  0.3810970006557949  0.6353922721631718  0.4953519627902433
  0.8909233138769239  0.1410558089387411  0.9987042410377778
  0.8906340141025559  0.1410407760915816  0.4992698062718862
  0.8916829080567488  0.6421413500930996  0.0014535879750352
  0.9999434938459493  0.0004578262764679  0.1250984290925528
  0.0104389323065555  0.0103950776623038  0.6251253294229910
  0.0020911799806665  0.4976988918528260  0.1247259952307660
  0.0055388511098017  0.4927701615090983  0.6259073250176128
  0.4987699172893155  0.9988566490212757  0.1248280220359264
  0.4958709815448595  0.0040315997249554  0.6254195270019632
  0.4959714691104554  0.4960965621554406  0.1261703271415697
  0.9965147068394327  0.9981048144727408  0.3747672390766003
  0.9936231073806505  0.9917039757343225  0.8745835824922501
  0.9952105239757023  0.5068591076169571  0.3757118758928297
  0.9941911493291623  0.5040214939511609  0.8745757479949257
  0.5027857024118495  0.9970808578163987  0.3754362920716747
  0.5050810571083008  0.9972441023642854  0.8745489766857811
  0.4994768258283896  0.5014911695373745  0.8799149711245726
  0.2553922929932097  0.2567881687153122  0.3761991636408163
  0.2550579899674552  0.2524966283961101  0.8755320408919754
  0.2459741565052432  0.7526051766637685  0.3740475969779062
  0.2526809008541701  0.7459155924801211  0.8746873074729808
  0.7488434491954362  0.2464064946750846  0.3741785254725017
  0.7482241856089666  0.2517276324000893  0.8752989495742292
  0.7400446485043420  0.7333330894150080  0.3712082514817484
  0.7541905164498167  0.7530731905859290  0.8767118432583076
  0.2504960010766238  0.2501953653713584  0.1260758642074509
  0.2385650552539757  0.2409022627124039  0.6247800813482928
  0.2494150186650995  0.7485809430416591  0.1251829771689524
  0.2466884325367584  0.7543077605129849  0.6236535683260955
  0.7524259302109966  0.2503117819292620  0.1251159718466031
  0.7509914058790607  0.2471451972763581  0.6239506617150161
  0.7522176012814463  0.7545347974473839  0.1251033429517429
  0.6410406496210865  0.3875825521518352  0.7453577048949172
  0.6201787212918348  0.6499418913666235  0.7429870368409220
  0.5186004331350014  0.5144376158171957  0.3768883138261930
  0.6066122797260742  0.3551024554647114  0.4977602215350760
  0.3623340881695832  0.3905526547663725  0.5156675309907072
  0.8756630714547762  0.6321338167342145  0.5143010910204004
  0.5840542979422275  0.5731876430410651  0.5732264438794504
 
  0.00000000E+00  0.00000000E+00  0.00000000E+00
  0.00000000E+00  0.00000000E+00  0.00000000E+00
  0.00000000E+00  0.00000000E+00  0.00000000E+00
  0.00000000E+00  0.00000000E+00  0.00000000E+00
  0.00000000E+00  0.00000000E+00  0.00000000E+00
  0.00000000E+00  0.00000000E+00  0.00000000E+00
  0.00000000E+00  0.00000000E+00  0.00000000E+00
  0.00000000E+00  0.00000000E+00  0.00000000E+00
  0.00000000E+00  0.00000000E+00  0.00000000E+00
  0.00000000E+00  0.00000000E+00  0.00000000E+00
  0.00000000E+00  0.00000000E+00  0.00000000E+00
  0.00000000E+00  0.00000000E+00  0.00000000E+00
  0.00000000E+00  0.00000000E+00  0.00000000E+00
  0.00000000E+00  0.00000000E+00  0.00000000E+00
  0.00000000E+00  0.00000000E+00  0.00000000E+00
  0.00000000E+00  0.00000000E+00  0.00000000E+00
  0.00000000E+00  0.00000000E+00  0.00000000E+00
  0.00000000E+00  0.00000000E+00  0.00000000E+00
  0.00000000E+00  0.00000000E+00  0.00000000E+00
  0.00000000E+00  0.00000000E+00  0.00000000E+00
  0.00000000E+00  0.00000000E+00  0.00000000E+00
  0.00000000E+00  0.00000000E+00  0.00000000E+00
  0.00000000E+00  0.00000000E+00  0.00000000E+00
  0.00000000E+00  0.00000000E+00  0.00000000E+00
  0.00000000E+00  0.00000000E+00  0.00000000E+00
  0.00000000E+00  0.00000000E+00  0.00000000E+00
  0.00000000E+00  0.00000000E+00  0.00000000E+00
  0.00000000E+00  0.00000000E+00  0.00000000E+00
  0.00000000E+00  0.00000000E+00  0.00000000E+00
  0.00000000E+00  0.00000000E+00  0.00000000E+00
  0.00000000E+00  0.00000000E+00  0.00000000E+00
  0.00000000E+00  0.00000000E+00  0.00000000E+00
  0.00000000E+00  0.00000000E+00  0.00000000E+00
  0.00000000E+00  0.00000000E+00  0.00000000E+00
  0.00000000E+00  0.00000000E+00  0.00000000E+00
  0.00000000E+00  0.00000000E+00  0.00000000E+00
  0.00000000E+00  0.00000000E+00  0.00000000E+00
  0.00000000E+00  0.00000000E+00  0.00000000E+00
  0.00000000E+00  0.00000000E+00  0.00000000E+00
  0.00000000E+00  0.00000000E+00  0.00000000E+00
  0.00000000E+00  0.00000000E+00  0.00000000E+00
  0.00000000E+00  0.00000000E+00  0.00000000E+00
  0.00000000E+00  0.00000000E+00  0.00000000E+00
  0.00000000E+00  0.00000000E+00  0.00000000E+00
  0.00000000E+00  0.00000000E+00  0.00000000E+00
  0.00000000E+00  0.00000000E+00  0.00000000E+00
  0.00000000E+00  0.00000000E+00  0.00000000E+00
  0.00000000E+00  0.00000000E+00  0.00000000E+00
  0.00000000E+00  0.00000000E+00  0.00000000E+00
  0.00000000E+00  0.00000000E+00  0.00000000E+00
  0.00000000E+00  0.00000000E+00  0.00000000E+00
  0.00000000E+00  0.00000000E+00  0.00000000E+00
  0.00000000E+00  0.00000000E+00  0.00000000E+00
  0.00000000E+00  0.00000000E+00  0.00000000E+00
  0.00000000E+00  0.00000000E+00  0.00000000E+00
  0.00000000E+00  0.00000000E+00  0.00000000E+00
  0.00000000E+00  0.00000000E+00  0.00000000E+00
  0.00000000E+00  0.00000000E+00  0.00000000E+00
  0.00000000E+00  0.00000000E+00  0.00000000E+00
  0.00000000E+00  0.00000000E+00  0.00000000E+00
  0.00000000E+00  0.00000000E+00  0.00000000E+00
  0.00000000E+00  0.00000000E+00  0.00000000E+00
  0.00000000E+00  0.00000000E+00  0.00000000E+00
  0.00000000E+00  0.00000000E+00  0.00000000E+00
  0.00000000E+00  0.00000000E+00  0.00000000E+00
  0.00000000E+00  0.00000000E+00  0.00000000E+00
  0.00000000E+00  0.00000000E+00  0.00000000E+00
  0.00000000E+00  0.00000000E+00  0.00000000E+00
  0.00000000E+00  0.00000000E+00  0.00000000E+00
  0.00000000E+00  0.00000000E+00  0.00000000E+00
  0.00000000E+00  0.00000000E+00  0.00000000E+00
  0.00000000E+00  0.00000000E+00  0.00000000E+00
  0.00000000E+00  0.00000000E+00  0.00000000E+00
  0.00000000E+00  0.00000000E+00  0.00000000E+00
  0.00000000E+00  0.00000000E+00  0.00000000E+00
  0.00000000E+00  0.00000000E+00  0.00000000E+00
  0.00000000E+00  0.00000000E+00  0.00000000E+00
  0.00000000E+00  0.00000000E+00  0.00000000E+00
  0.00000000E+00  0.00000000E+00  0.00000000E+00
  0.00000000E+00  0.00000000E+00  0.00000000E+00
  0.00000000E+00  0.00000000E+00  0.00000000E+00
  0.00000000E+00  0.00000000E+00  0.00000000E+00
  0.00000000E+00  0.00000000E+00  0.00000000E+00
  0.00000000E+00  0.00000000E+00  0.00000000E+00
  0.00000000E+00  0.00000000E+00  0.00000000E+00
  0.00000000E+00  0.00000000E+00  0.00000000E+00
  0.00000000E+00  0.00000000E+00  0.00000000E+00
  0.00000000E+00  0.00000000E+00  0.00000000E+00
  0.00000000E+00  0.00000000E+00  0.00000000E+00
  0.00000000E+00  0.00000000E+00  0.00000000E+00
  0.00000000E+00  0.00000000E+00  0.00000000E+00
  0.00000000E+00  0.00000000E+00  0.00000000E+00
  0.00000000E+00  0.00000000E+00  0.00000000E+00
  0.00000000E+00  0.00000000E+00  0.00000000E+00
  0.00000000E+00  0.00000000E+00  0.00000000E+00
  0.00000000E+00  0.00000000E+00  0.00000000E+00
  0.00000000E+00  0.00000000E+00  0.00000000E+00
  0.00000000E+00  0.00000000E+00  0.00000000E+00
  0.00000000E+00  0.00000000E+00  0.00000000E+00
  0.00000000E+00  0.00000000E+00  0.00000000E+00
  0.00000000E+00  0.00000000E+00  0.00000000E+00
  0.00000000E+00  0.00000000E+00  0.00000000E+00
  0.00000000E+00  0.00000000E+00  0.00000000E+00
  0.00000000E+00  0.00000000E+00  0.00000000E+00
  0.00000000E+00  0.00000000E+00  0.00000000E+00
  0.00000000E+00  0.00000000E+00  0.00000000E+00
  0.00000000E+00  0.00000000E+00  0.00000000E+00
  0.00000000E+00  0.00000000E+00  0.00000000E+00
  0.00000000E+00  0.00000000E+00  0.00000000E+00
  0.00000000E+00  0.00000000E+00  0.00000000E+00
  0.00000000E+00  0.00000000E+00  0.00000000E+00
  0.00000000E+00  0.00000000E+00  0.00000000E+00
  0.00000000E+00  0.00000000E+00  0.00000000E+00
  0.00000000E+00  0.00000000E+00  0.00000000E+00
  0.00000000E+00  0.00000000E+00  0.00000000E+00
  0.00000000E+00  0.00000000E+00  0.00000000E+00
  0.00000000E+00  0.00000000E+00  0.00000000E+00
  0.00000000E+00  0.00000000E+00  0.00000000E+00
  0.00000000E+00  0.00000000E+00  0.00000000E+00
  0.00000000E+00  0.00000000E+00  0.00000000E+00
  0.00000000E+00  0.00000000E+00  0.00000000E+00
  0.00000000E+00  0.00000000E+00  0.00000000E+00
  0.00000000E+00  0.00000000E+00  0.00000000E+00
  0.00000000E+00  0.00000000E+00  0.00000000E+00
  0.00000000E+00  0.00000000E+00  0.00000000E+00
  0.00000000E+00  0.00000000E+00  0.00000000E+00
  0.00000000E+00  0.00000000E+00  0.00000000E+00
  0.00000000E+00  0.00000000E+00  0.00000000E+00
  0.00000000E+00  0.00000000E+00  0.00000000E+00
  0.00000000E+00  0.00000000E+00  0.00000000E+00
  0.00000000E+00  0.00000000E+00  0.00000000E+00
  0.00000000E+00  0.00000000E+00  0.00000000E+00
  0.00000000E+00  0.00000000E+00  0.00000000E+00
  0.00000000E+00  0.00000000E+00  0.00000000E+00
  0.00000000E+00  0.00000000E+00  0.00000000E+00
  0.00000000E+00  0.00000000E+00  0.00000000E+00
  0.00000000E+00  0.00000000E+00  0.00000000E+00
  0.00000000E+00  0.00000000E+00  0.00000000E+00
  0.00000000E+00  0.00000000E+00  0.00000000E+00
  0.00000000E+00  0.00000000E+00  0.00000000E+00
  0.00000000E+00  0.00000000E+00  0.00000000E+00
  0.00000000E+00  0.00000000E+00  0.00000000E+00
  0.00000000E+00  0.00000000E+00  0.00000000E+00
  0.00000000E+00  0.00000000E+00  0.00000000E+00
  0.00000000E+00  0.00000000E+00  0.00000000E+00
  0.00000000E+00  0.00000000E+00  0.00000000E+00
  0.00000000E+00  0.00000000E+00  0.00000000E+00
  0.00000000E+00  0.00000000E+00  0.00000000E+00
  0.00000000E+00  0.00000000E+00  0.00000000E+00
  0.00000000E+00  0.00000000E+00  0.00000000E+00
  0.00000000E+00  0.00000000E+00  0.00000000E+00
  0.00000000E+00  0.00000000E+00  0.00000000E+00
  0.00000000E+00  0.00000000E+00  0.00000000E+00
  0.00000000E+00  0.00000000E+00  0.00000000E+00
  0.00000000E+00  0.00000000E+00  0.00000000E+00
  0.00000000E+00  0.00000000E+00  0.00000000E+00
  0.00000000E+00  0.00000000E+00  0.00000000E+00
  0.00000000E+00  0.00000000E+00  0.00000000E+00
