SrTiFeO                                 
   1.00000000000000     
    11.1989999999999998    0.0000000000000000    0.0000000000000000
     0.0000000000000000   11.1989999999999998    0.0000000000000000
     0.0000000000000000    0.0000000000000000   15.9830000000000005
   Sr   Ti   Fe   O 
    32    30     2    94
Direct
  0.0006161725463393  0.2496079615431837  0.1250913225466518
  0.0017192439812931  0.2487415808575477  0.6253915801520807
  0.0003254496519438  0.7502916473578712  0.1260662747405898
  0.0091347801859640  0.7513102456607981  0.6238468109965511
  0.4992063136413281  0.2492517044872930  0.1238930255911627
  0.4971678903304428  0.2421581344099960  0.6250939564832009
  0.4995262926860187  0.7512776081647331  0.1249963969864517
  0.4915161556015212  0.7570054034526215  0.6239469770822247
  0.0010171315431319  0.2495634017793047  0.3767176746611521
  0.0002422324661687  0.2505003505937383  0.8739049893594203
  0.9959551863836416  0.7501653346622141  0.3778851064857952
  0.0049898586561061  0.7498510559445349  0.8743187245683032
  0.5007563947332876  0.2449789433042794  0.3744206379157519
  0.4984159991333490  0.2544179523902317  0.8716521305661159
  0.5003054466254911  0.7539391809586040  0.3743973795148897
  0.4960039239971401  0.7495882784091766  0.8767919341284064
  0.2493838274536605  0.0003920384568163  0.1249086774533483
  0.2482807560187069  0.0012584191424521  0.6246084198479193
  0.2496745503480561  0.4997083526421287  0.1239337252594101
  0.2408652198140360  0.4986897543392024  0.6261531890034489
  0.7507936863586716  0.0007482955127071  0.1261069744088372
  0.7528321096695566  0.0078418655900041  0.6249060435167991
  0.7504737073139807  0.4987223918352673  0.1250036030135482
  0.7584838443984787  0.4929945965473781  0.6260530229177753
  0.2497577675338313 -0.0005003505937381  0.3760950106405799
  0.2489828684568681  0.0004365982206953  0.8732823253388482
  0.2450101413438938  0.5001489440554642  0.3756812754316965
  0.2540448136163582  0.4998346653377852  0.8721148935142053
  0.7515840008666508  0.9955820476097682  0.3783478694338843
  0.7492436052667124  0.0050210566957205  0.8755793620842488
  0.7539960760028598  0.5004117215908234  0.3732080658715934
  0.7496945533745089  0.4960608190413964  0.8756026204851104
  0.9990652836691021  0.9994169673783867  0.9994310147427996
  0.9976393021377000  0.9986659312220124  0.5003870047934850
  1.0000913756827428  0.5004967242246319  0.9996858867942183
  0.9974044208741731  0.5019403920293818  0.5009016257181115
  0.5002161802890911  1.0000653989308397  0.9996532615936583
  0.5018360145501913  0.9979513871015776  0.5006481505213054
  0.5004672255202701  0.5004953654858727  0.9978921761932473
  0.2503049654598967  0.2505071034595190  0.9988729593688948
  0.2496120278358058  0.2488463978612570  0.5005699599071775
  0.2502470272873792  0.7494580571711880  0.0002123551542639
  0.2495395558086581  0.7502513809453842  0.4998296417660328
  0.7493518906624376  0.2503224786615571  0.0001882296923781
  0.7500061689358491  0.2500356719303432  0.5000580395844387
  0.7498488785194855  0.7497843042053262  0.0049932394185989
  0.2509347163308973  0.2505830326216137  0.2505689852572013
  0.2523606978622993  0.2513340687779870  0.7496129952065150
  0.2499086243172560  0.7495032757753681  0.2503141132057816
  0.2525955791258274  0.7480596079706182  0.7490983742818885
  0.7497838197109089  0.2499346010691602  0.2503467384063418
  0.7481639854498087  0.2520486128984229  0.7493518494786946
  0.7495327744797299  0.7495046345141273  0.2521078238067525
  0.7494356534057987  0.7498456422455854  0.7579936059928801
  0.9996950345401042  0.9994928965404822  0.2511270406311046
  0.0003879721641942  0.0011536021387429  0.7494300400928225
  0.9997529727126210  0.5005419428288120  0.2497876448457363
  0.0004604441913419  0.4997486190546159  0.7501703582339677
  0.5006481093375624  0.9996775213384433  0.2498117703076220
  0.4999938310641509  0.9999643280696560  0.7499419604155613
  0.5001511214805145  0.5002156957946738  0.2450067605814010
  0.5005643465942013  0.5001543577544146  0.4920063940071197
  0.5038963024615628  0.5038969307113009  0.7509359524429197
  0.7461036975384372  0.7461030692886991  0.4990640475570804
  0.1103293419436496  0.1412219841519408  0.2526459732004344
  0.1092701432412248  0.1372161607344281  0.7558680747158346
  0.1086443509622225  0.6414439544919982  0.2513222395544514
  0.1134026378593305  0.6370356368402627  0.7497336773214086
  0.6085767923765453  0.1414013669544430  0.2489824717171378
  0.6105581799042287  0.1385655475924647  0.7501004961732419
  0.6069761936019622  0.6412324838666946  0.2467940505735959
  0.3927528266966900  0.3591097081950489  0.2501255675864046
  0.3850216255884027  0.3573399289589489  0.7422205512479969
  0.3912202948431382  0.8586024802948032  0.2501459712945558
  0.3893219695968323  0.8614727043505288  0.7518050327510915
  0.8910610373834684  0.3593224879806518  0.2513368830542056
  0.8885159030838601  0.3618826697008732  0.7508202244300223
  0.8913959874057282  0.8589412330147077  0.2495118423334549
  0.8836981289267586  0.8589901852638790  0.7347536699491152
  0.3596060558437632  0.1091515911533727  0.2515841818091235
  0.3601906204821589  0.1087327694653038  0.7523076650011887
  0.3584200231035959  0.6075613259782292  0.2502062308593467
  0.3634233386958003  0.6139927127824224  0.7381138217962622
  0.8586263884938797  0.1096112938095269  0.2515873969577675
  0.8604555135123840  0.1102632213359770  0.7517868649929091
  0.8588185293300452  0.6079927989476419  0.2471694649302606
  0.8640489558937519  0.6158403548467498  0.7426085324047168
  0.1408316199085452  0.3916625168174528  0.2506273899768961
  0.1375647115896044  0.3880589473941322  0.7530744028968375
  0.1414661824663947  0.8907448158604055  0.2509640919526507
  0.1367685169486275  0.8868849153723039  0.7519087231109678
  0.6416222078398158  0.3922592859860148  0.2498351068749598
  0.6408849520480313  0.8915513772852001  0.2490863054749862
  0.6416436021161104  0.8882126997820786  0.7409866444217839
  0.3586040125942707  0.3910587669852912  0.0004881576665452
  0.3589389626165309  0.8906775120193483  0.9986631169457940
  0.3614840969161328  0.8881173302991192  0.4991797755699778
  0.8587797051568614  0.3913975197051976  0.9998540287054450
  0.8606780304031689  0.3885272956494722  0.4981949672489091
  0.8572471733033108  0.8908902918049509  0.9998744324135956
  0.8649783744115971  0.8926600710410509  0.5077794487520031
  0.1396706580563501  0.1087780158480593  0.9973540267995662
  0.1407298567587751  0.1127838392655720  0.4941319252841649
  0.1413556490377774  0.6085560455080018  0.9986777604455480
  0.1365973621406696  0.6129643631597373  0.5002663226785921
  0.6414232076234547  0.1085986330455571  0.0010175282828622
  0.6394418200957713  0.1114344524075352  0.4998995038267582
  0.6430238063980378  0.6087675161333054  0.0032059494264040
  0.1085338175336055  0.3592551841395938  0.9990359080473490
  0.1132314830513727  0.3631150846276957  0.4980912768890329
  0.1091683800914547  0.8583374831825482  0.9993726100231043
  0.1124352884103956  0.8619410526058680  0.4969255971031621
  0.6091150479519687  0.3584486227147932  0.0009136945250138
  0.6083777921601842  0.8577407140139853  0.0001648931250401
  0.6098640117119761  0.8624345448418692  0.5080623644969460
  0.3913736115061208  0.1403887061904731  0.9984126030422321
  0.3895444864876156  0.1397367786640230  0.4982131350070909
  0.3911814706699543  0.6420072010523581  0.0028305350697394
  0.3859510441062486  0.6341596451532502  0.5073914675952832
  0.8903939441562370  0.1408484088466274  0.9984158181908762
  0.8898093795178409  0.1412672305346960  0.4976923349988117
  0.8915799768964039  0.6424386740217708 -0.0002062308593467
  0.0003908542563366  0.0013263345991991  0.1248607965815094
  0.0089270126643781  0.0086079950966016  0.6249004685831226
  0.0013503833115582  0.4998158786032305  0.1246415480345688
  0.0049376175176904  0.4926517916401535  0.6258757771079888
  0.4983630510142479 -0.0000397353337122  0.1246570909332525
  0.4939331675370093  0.0049107119187584  0.6255440944742375
  0.4988464606774403  0.4980940347725089  0.1252499872984975
  0.9967448399788942  0.9976910536123150  0.3744580595136808
  0.9933042518983224  0.9913818823307740  0.8744417315302115
  0.9963998673450880  0.5052644134134379  0.3754589258026124
  0.9953679579869484  0.5034633553593386  0.8745454002049989
  0.5031753471947407  0.9973455045362685  0.3750547332420121
  0.5057647094133849  0.9963607322930002  0.8744574572200350
  0.5028242393502512  0.5057927407590224  0.8792175577428709
  0.2566957481016784  0.2586181176692253  0.3755582684697888
  0.2532551600211061  0.2523089463876844  0.8755419404863195
  0.2546320420130514  0.7465366446406614  0.3754545997950018
  0.2536001326549127  0.7447355865865621  0.8745410741973885
  0.7442352905866151  0.2536392677069998  0.3755425427799651
  0.7468246528052593  0.2526544954637325  0.8749452667579879
  0.7471757606497488  0.7442072592409776  0.3707824422571290
  0.7444240109167263  0.7460002471390765  0.8741502229820837
  0.2496091457436632  0.2486736654008008  0.1251392034184905
  0.2410729873356220  0.2413920049033984  0.6250995314168774
  0.2486496166884417  0.7501841213967698  0.1253584519654311
  0.2450623824823096  0.7573482083598468  0.6241242228920112
  0.7516369489857522  0.2500397353337121  0.1253429090667473
  0.7560668324629908  0.2450892880812416  0.6244559055257625
  0.7511535393225587  0.7519059652274900  0.1247500127015024
  0.6401359882880239  0.3875654551581312  0.7419376355030540
  0.6253386108455242  0.6453389696249069  0.7229468629373492
  0.5055759890832737  0.5039997528609235  0.3758497770179169
  0.6083563978838896  0.3617873002179219  0.5090133555782161
  0.3663018710732410  0.3910098147361208  0.5152463300508848
  0.8865766613041995  0.6360072872175776  0.5118861782037378
  0.6246613891544758  0.6046610303750931  0.5270531370626508
 
  0.00000000E+00  0.00000000E+00  0.00000000E+00
  0.00000000E+00  0.00000000E+00  0.00000000E+00
  0.00000000E+00  0.00000000E+00  0.00000000E+00
  0.00000000E+00  0.00000000E+00  0.00000000E+00
  0.00000000E+00  0.00000000E+00  0.00000000E+00
  0.00000000E+00  0.00000000E+00  0.00000000E+00
  0.00000000E+00  0.00000000E+00  0.00000000E+00
  0.00000000E+00  0.00000000E+00  0.00000000E+00
  0.00000000E+00  0.00000000E+00  0.00000000E+00
  0.00000000E+00  0.00000000E+00  0.00000000E+00
  0.00000000E+00  0.00000000E+00  0.00000000E+00
  0.00000000E+00  0.00000000E+00  0.00000000E+00
  0.00000000E+00  0.00000000E+00  0.00000000E+00
  0.00000000E+00  0.00000000E+00  0.00000000E+00
  0.00000000E+00  0.00000000E+00  0.00000000E+00
  0.00000000E+00  0.00000000E+00  0.00000000E+00
  0.00000000E+00  0.00000000E+00  0.00000000E+00
  0.00000000E+00  0.00000000E+00  0.00000000E+00
  0.00000000E+00  0.00000000E+00  0.00000000E+00
  0.00000000E+00  0.00000000E+00  0.00000000E+00
  0.00000000E+00  0.00000000E+00  0.00000000E+00
  0.00000000E+00  0.00000000E+00  0.00000000E+00
  0.00000000E+00  0.00000000E+00  0.00000000E+00
  0.00000000E+00  0.00000000E+00  0.00000000E+00
  0.00000000E+00  0.00000000E+00  0.00000000E+00
  0.00000000E+00  0.00000000E+00  0.00000000E+00
  0.00000000E+00  0.00000000E+00  0.00000000E+00
  0.00000000E+00  0.00000000E+00  0.00000000E+00
  0.00000000E+00  0.00000000E+00  0.00000000E+00
  0.00000000E+00  0.00000000E+00  0.00000000E+00
  0.00000000E+00  0.00000000E+00  0.00000000E+00
  0.00000000E+00  0.00000000E+00  0.00000000E+00
  0.00000000E+00  0.00000000E+00  0.00000000E+00
  0.00000000E+00  0.00000000E+00  0.00000000E+00
  0.00000000E+00  0.00000000E+00  0.00000000E+00
  0.00000000E+00  0.00000000E+00  0.00000000E+00
  0.00000000E+00  0.00000000E+00  0.00000000E+00
  0.00000000E+00  0.00000000E+00  0.00000000E+00
  0.00000000E+00  0.00000000E+00  0.00000000E+00
  0.00000000E+00  0.00000000E+00  0.00000000E+00
  0.00000000E+00  0.00000000E+00  0.00000000E+00
  0.00000000E+00  0.00000000E+00  0.00000000E+00
  0.00000000E+00  0.00000000E+00  0.00000000E+00
  0.00000000E+00  0.00000000E+00  0.00000000E+00
  0.00000000E+00  0.00000000E+00  0.00000000E+00
  0.00000000E+00  0.00000000E+00  0.00000000E+00
  0.00000000E+00  0.00000000E+00  0.00000000E+00
  0.00000000E+00  0.00000000E+00  0.00000000E+00
  0.00000000E+00  0.00000000E+00  0.00000000E+00
  0.00000000E+00  0.00000000E+00  0.00000000E+00
  0.00000000E+00  0.00000000E+00  0.00000000E+00
  0.00000000E+00  0.00000000E+00  0.00000000E+00
  0.00000000E+00  0.00000000E+00  0.00000000E+00
  0.00000000E+00  0.00000000E+00  0.00000000E+00
  0.00000000E+00  0.00000000E+00  0.00000000E+00
  0.00000000E+00  0.00000000E+00  0.00000000E+00
  0.00000000E+00  0.00000000E+00  0.00000000E+00
  0.00000000E+00  0.00000000E+00  0.00000000E+00
  0.00000000E+00  0.00000000E+00  0.00000000E+00
  0.00000000E+00  0.00000000E+00  0.00000000E+00
  0.00000000E+00  0.00000000E+00  0.00000000E+00
  0.00000000E+00  0.00000000E+00  0.00000000E+00
  0.00000000E+00  0.00000000E+00  0.00000000E+00
  0.00000000E+00  0.00000000E+00  0.00000000E+00
  0.00000000E+00  0.00000000E+00  0.00000000E+00
  0.00000000E+00  0.00000000E+00  0.00000000E+00
  0.00000000E+00  0.00000000E+00  0.00000000E+00
  0.00000000E+00  0.00000000E+00  0.00000000E+00
  0.00000000E+00  0.00000000E+00  0.00000000E+00
  0.00000000E+00  0.00000000E+00  0.00000000E+00
  0.00000000E+00  0.00000000E+00  0.00000000E+00
  0.00000000E+00  0.00000000E+00  0.00000000E+00
  0.00000000E+00  0.00000000E+00  0.00000000E+00
  0.00000000E+00  0.00000000E+00  0.00000000E+00
  0.00000000E+00  0.00000000E+00  0.00000000E+00
  0.00000000E+00  0.00000000E+00  0.00000000E+00
  0.00000000E+00  0.00000000E+00  0.00000000E+00
  0.00000000E+00  0.00000000E+00  0.00000000E+00
  0.00000000E+00  0.00000000E+00  0.00000000E+00
  0.00000000E+00  0.00000000E+00  0.00000000E+00
  0.00000000E+00  0.00000000E+00  0.00000000E+00
  0.00000000E+00  0.00000000E+00  0.00000000E+00
  0.00000000E+00  0.00000000E+00  0.00000000E+00
  0.00000000E+00  0.00000000E+00  0.00000000E+00
  0.00000000E+00  0.00000000E+00  0.00000000E+00
  0.00000000E+00  0.00000000E+00  0.00000000E+00
  0.00000000E+00  0.00000000E+00  0.00000000E+00
  0.00000000E+00  0.00000000E+00  0.00000000E+00
  0.00000000E+00  0.00000000E+00  0.00000000E+00
  0.00000000E+00  0.00000000E+00  0.00000000E+00
  0.00000000E+00  0.00000000E+00  0.00000000E+00
  0.00000000E+00  0.00000000E+00  0.00000000E+00
  0.00000000E+00  0.00000000E+00  0.00000000E+00
  0.00000000E+00  0.00000000E+00  0.00000000E+00
  0.00000000E+00  0.00000000E+00  0.00000000E+00
  0.00000000E+00  0.00000000E+00  0.00000000E+00
  0.00000000E+00  0.00000000E+00  0.00000000E+00
  0.00000000E+00  0.00000000E+00  0.00000000E+00
  0.00000000E+00  0.00000000E+00  0.00000000E+00
  0.00000000E+00  0.00000000E+00  0.00000000E+00
  0.00000000E+00  0.00000000E+00  0.00000000E+00
  0.00000000E+00  0.00000000E+00  0.00000000E+00
  0.00000000E+00  0.00000000E+00  0.00000000E+00
  0.00000000E+00  0.00000000E+00  0.00000000E+00
  0.00000000E+00  0.00000000E+00  0.00000000E+00
  0.00000000E+00  0.00000000E+00  0.00000000E+00
  0.00000000E+00  0.00000000E+00  0.00000000E+00
  0.00000000E+00  0.00000000E+00  0.00000000E+00
  0.00000000E+00  0.00000000E+00  0.00000000E+00
  0.00000000E+00  0.00000000E+00  0.00000000E+00
  0.00000000E+00  0.00000000E+00  0.00000000E+00
  0.00000000E+00  0.00000000E+00  0.00000000E+00
  0.00000000E+00  0.00000000E+00  0.00000000E+00
  0.00000000E+00  0.00000000E+00  0.00000000E+00
  0.00000000E+00  0.00000000E+00  0.00000000E+00
  0.00000000E+00  0.00000000E+00  0.00000000E+00
  0.00000000E+00  0.00000000E+00  0.00000000E+00
  0.00000000E+00  0.00000000E+00  0.00000000E+00
  0.00000000E+00  0.00000000E+00  0.00000000E+00
  0.00000000E+00  0.00000000E+00  0.00000000E+00
  0.00000000E+00  0.00000000E+00  0.00000000E+00
  0.00000000E+00  0.00000000E+00  0.00000000E+00
  0.00000000E+00  0.00000000E+00  0.00000000E+00
  0.00000000E+00  0.00000000E+00  0.00000000E+00
  0.00000000E+00  0.00000000E+00  0.00000000E+00
  0.00000000E+00  0.00000000E+00  0.00000000E+00
  0.00000000E+00  0.00000000E+00  0.00000000E+00
  0.00000000E+00  0.00000000E+00  0.00000000E+00
  0.00000000E+00  0.00000000E+00  0.00000000E+00
  0.00000000E+00  0.00000000E+00  0.00000000E+00
  0.00000000E+00  0.00000000E+00  0.00000000E+00
  0.00000000E+00  0.00000000E+00  0.00000000E+00
  0.00000000E+00  0.00000000E+00  0.00000000E+00
  0.00000000E+00  0.00000000E+00  0.00000000E+00
  0.00000000E+00  0.00000000E+00  0.00000000E+00
  0.00000000E+00  0.00000000E+00  0.00000000E+00
  0.00000000E+00  0.00000000E+00  0.00000000E+00
  0.00000000E+00  0.00000000E+00  0.00000000E+00
  0.00000000E+00  0.00000000E+00  0.00000000E+00
  0.00000000E+00  0.00000000E+00  0.00000000E+00
  0.00000000E+00  0.00000000E+00  0.00000000E+00
  0.00000000E+00  0.00000000E+00  0.00000000E+00
  0.00000000E+00  0.00000000E+00  0.00000000E+00
  0.00000000E+00  0.00000000E+00  0.00000000E+00
  0.00000000E+00  0.00000000E+00  0.00000000E+00
  0.00000000E+00  0.00000000E+00  0.00000000E+00
  0.00000000E+00  0.00000000E+00  0.00000000E+00
  0.00000000E+00  0.00000000E+00  0.00000000E+00
  0.00000000E+00  0.00000000E+00  0.00000000E+00
  0.00000000E+00  0.00000000E+00  0.00000000E+00
  0.00000000E+00  0.00000000E+00  0.00000000E+00
  0.00000000E+00  0.00000000E+00  0.00000000E+00
  0.00000000E+00  0.00000000E+00  0.00000000E+00
  0.00000000E+00  0.00000000E+00  0.00000000E+00
  0.00000000E+00  0.00000000E+00  0.00000000E+00
  0.00000000E+00  0.00000000E+00  0.00000000E+00
  0.00000000E+00  0.00000000E+00  0.00000000E+00
  0.00000000E+00  0.00000000E+00  0.00000000E+00
