SrTiFeO                                 
   1.00000000000000     
    11.1989999999999998    0.0000000000000000    0.0000000000000000
     0.0000000000000000   11.1989999999999998    0.0000000000000000
     0.0000000000000000    0.0000000000000000   15.9830000000000005
   Sr   Ti   Fe   O 
    32    30     2    94
Direct
  0.9987803742300619  0.2496886733779962  0.1247565771372338
  0.0020196685975019  0.2503942862342740  0.6245545198017692
  0.9989236229206809  0.7507716585816484  0.1259915394997995
  0.0008463778914862  0.7502899997495022  0.6234108160046143
  0.4989412248867353  0.2512751695481030  0.1272278784083021
  0.5012533572686180  0.2455224266772370  0.6234820675320456
  0.4992233278616904  0.7483558678321494  0.1235959957971843
  0.5009305728716641  0.7531933996227238  0.6295356652560861
  0.0001058507162085  0.2488625362682355  0.3752185407179271
  0.0049328302594098  0.2523769925533846  0.8759418896498309
  0.0003540214688010  0.7482147098019030  0.3758985363755211
  0.9991389617993780  0.7516810779598755  0.8744994460874028
  0.5016395903538284  0.2493252186614523  0.3749557734380109
  0.4967737067423212  0.2500296914988344  0.8787053725900253
  0.4993063174190639  0.7503594130044036  0.3731858227651758
  0.5019287529621141  0.7506588377690957  0.8753674292647907
  0.2493068681665482  0.9999365873748818  0.1249648869509169
  0.2496468059894945  0.0009416457191995  0.6247770454230411
  0.2516965777732643  0.4997218566927691  0.1249809558380444
  0.2438219019078554  0.5004593872835538  0.6253160878207594
  0.7490996916745133  0.9994444147904467  0.1254935915062359
  0.7501678013308425  0.9976573305365725  0.6238771774066029
  0.7478575045093427  0.5006999511946087  0.1255861731510066
  0.7621789333372094  0.5010815042830253  0.6250067974698561
  0.2498903623855818  0.0002009472912533  0.3746305208691779
  0.2494822559793763  0.0000740037740346  0.8751860570130863
  0.2486778740565698  0.4998982206176841  0.3731671086921648
  0.2499730161231526  0.5013139313368979  0.8764003845423735
  0.7504967400663061  0.0023786357369449  0.3745845108572718
  0.7498011637211941  0.9942868458993983  0.8762462113420079
  0.7530483274345782  0.4954447501985129  0.3722265586853029
  0.7531229516295845  0.5079268135655277  0.8792460746360791
  0.9993449844006430  0.0001893739302767  0.9995966512059399
  0.0023203146971344  0.0013125334565510  0.5001698041371402
  0.0003135805132112  0.5003378495550094  0.0007955717273458
  0.9996521998299333  0.4998225856583684  0.4991774065655800
  0.5000129941411485  0.0000891755250632  0.0003682141622390
  0.5008397560500353  0.9976522889926874  0.4997399138717165
  0.5004433225288283  0.4988361661286504  0.9996025107236111
  0.2502941926426923  0.2504406735043419  0.0006260005723649
  0.2497915708323422  0.2493119616077599  0.4995375790624557
  0.2497330715586738  0.7501764553011757  0.9997573513065351
  0.2517223669703332  0.7508517309350735  0.5004749120961797
  0.7489285848677867  0.2512990257507592  0.0006493247435526
  0.7510818303121323  0.2502519397308561  0.5020652896627485
  0.7505658798604672  0.7511837497002758  0.0010885324328011
  0.2499303279252507  0.2495085269559493  0.2503821482988041
  0.2530926989263040  0.2510645150936722  0.7496333832008549
  0.2503699472979412  0.7493192489871622  0.2498846066957897
  0.2489244595740584  0.7528822322743233  0.7501603611359001
  0.7502930450055668  0.2489353275141495  0.2503435948278612
  0.7556909799931903  0.2424264356015077  0.7533499779774068
  0.7489238307627972  0.7487535102640260  0.2523327024311466
  0.7489858760949440  0.7475611041319939  0.7483212929220041
  0.9997756010131721  0.9999949339047952  0.2504290949359734
  0.0006588704586529  0.9993461755756725  0.7493771250814043
  0.0003480852422023  0.4999297640376092  0.2494796458810047
  0.0012717658186981  0.5023850613149322  0.7509110968219762
  0.5000543911126754  0.9995395741682294  0.2499752337707018
  0.4997960184615022  0.0016758784362239  0.7506054495646948
  0.5001650236403238  0.5009918401257741  0.2521256278447016
  0.4941191896212493  0.4944274770387494  0.5049426174682266
  0.4888210063960344  0.5088523455126645  0.7507971483807359
  0.7573558311656348  0.7615369074518759  0.4994848080720313
  0.1086632476368773  0.1400367869642047  0.2469523432589193
  0.1078052253698805  0.1422361649235475  0.7507249212670588
  0.1090252358560049  0.6410322361288805  0.2501021555247990
  0.1087214232762595  0.6415405189952669  0.7496469154683996
  0.6091010378250545  0.1403614218295392  0.2496026060901328
  0.6044706063829646  0.1450193307739797  0.7518630232262914
  0.6094588016703141  0.6411944316971484  0.2438835191590925
  0.3899377426304362  0.3594415337781739  0.2532822673544935
  0.3979823805547913  0.3563393521298703  0.7462061159293860
  0.3906060429967891  0.8594112836272354  0.2496425019956360
  0.3904804072780567  0.8591242276854950  0.7508193799326988
  0.8905354097209289  0.3595141338962478  0.2511124341721623
  0.8797629842890685  0.3675136185366300  0.7492923858367402
  0.8897629865192822  0.8581455542295939  0.2551732842414266
  0.8899404985020269  0.8572374884595904  0.7453550510547039
  0.3594951437303731  0.1090028784205414  0.2488288525979877
  0.3566360991756200  0.1075138498608070  0.7499957011290403
  0.3582592226656341  0.6094678318636029  0.2497305433824896
  0.3552794983280855  0.6104225585064441  0.7486449996634523
  0.8588501703248458  0.1079318172570127  0.2495432410686933
  0.8583987184374482  0.1019079595762371  0.7452877108603321
  0.8593564776916353  0.6085469655825549  0.2496666207357862
  0.8627309567869472  0.6112635683392492  0.7506557148401057
  0.1403295600989892  0.3906368967283892  0.2490255941289354
  0.1399330433371861  0.3905992992071632  0.7509142550773645
  0.1402721731636555  0.8897302219121496  0.2494256627868774
  0.1414617582194114  0.8913561411598055  0.7504177011287271
  0.6404384006286034  0.3895253507868250  0.2488388492302232
  0.6409837193404976  0.8907005827997421  0.2517164804264452
  0.6387230055542958  0.8885417977579375  0.7489641366813306
  0.3588337718298970  0.3902450111053568  0.9988075114836308
  0.3595679833736723  0.8902222325835903  0.0002466167532448
  0.3575412087554403  0.8930993990031507  0.4998496758983106
  0.8594569982597633  0.3914055741334334  0.0005734304908768
  0.8624916876146992  0.3879031370876947  0.4992663916293728
  0.8589569073127087  0.8917867166436534  0.0002101969649790
  0.8611888872107845  0.8931524695577592  0.4989280032434624
  0.1395218491469057  0.1100082453347981  0.9993736904761018
  0.1411331828252976  0.1089197948613505  0.5000219494686700
  0.1406988997438968  0.6091971495711308  0.0003906184170506
  0.1394844631099695  0.6104639899549050  0.5000603701100306
  0.6410401698312235  0.1094683722820845  0.9984287457637191
  0.6397562006276981  0.1100271707067929  0.5003566626052020
  0.6403860860448106  0.6106524371792631  0.0006674143657588
  0.1093025711299519  0.3594004643936825  0.0002048599792378
  0.1083434910524293  0.3591019780460483  0.5000076956645859
  0.1092000159271031  0.8595978090172696  0.0007752882631458
  0.1096997977775873  0.8584212405173027  0.4976214105406231
  0.6090736307462498  0.3590317706478152  0.0065223379370600
  0.6096309440713807  0.8597599005056248  0.9997679003084651
  0.6056439887688055  0.8548140122284316  0.5003890703485547
  0.3902110093850649  0.1399597249955024  0.0005295080899440
  0.3913634241568189  0.1419459213358101  0.4999530869984134
  0.3905184712391842  0.6393695678913908  0.9953364036670850
  0.3967243617490680  0.6444877374628299  0.5063133696053269
  0.8895666398237007  0.1423016762492076  0.9945994951220631
  0.8911321067008050  0.1402141081833859  0.5021571320320172
  0.8904538704600187  0.6405368441323217  0.9989965251313365
  0.9966631025766930  0.9993462163112660  0.1244514839767651
  0.0049258582532576  0.9980651297639248  0.6239288586607377
  0.9996062099443414  0.5004726604985005  0.1249464101939505
  0.0020866460081384  0.4994403784565398  0.6254308337053188
  0.5014290136317157  0.9993837070173526  0.1248436020382674
  0.4999180872314564  0.0010012726296132  0.6254437394028223
  0.4950922532241949  0.5002456721038765  0.1242299107204909
  0.0018020874994463  0.0036845951802384  0.3745139427288625
  0.9985889991635120  0.9964286602767857  0.8744688346083413
  0.0011778821079502  0.5013571025057513  0.3747105140430409
  0.0010418359739647  0.4991392466908920  0.8753186663545098
  0.4995838591504829  0.0011426583178493  0.3749353182964961
  0.4993842189942548  0.9986047971354469  0.8751833418606307
  0.5091361519726810  0.4878212824550119  0.8737103812689544
  0.2460886495770199  0.2458889801630318  0.3738315504391365
  0.2510981575656118  0.2512374267314705  0.8747033212213943
  0.2526395951516611  0.7476560442421314  0.3753520439554921
  0.2478068774168878  0.7509635892389575  0.8749188491271490
  0.7512760961545110  0.2469251392214259  0.3742433857810680
  0.7374716324029279  0.2658523699655366  0.8741172731611647
  0.7390190434236061  0.7365875057544039  0.3771645413381591
  0.7521710161398214  0.7534375380827761  0.8753527165977802
  0.2514893084303013  0.2508954431618736  0.1244919371603310
  0.2485922636646227  0.2508577410577019  0.6249828433474396
  0.2517603999157495  0.7487356793342310  0.1244567787212513
  0.2469924741475603  0.7525573772265710  0.6250699597759354
  0.7535259399015811  0.2473839304112350  0.1247851667926487
  0.7438188237598138  0.2563207366767125  0.6239939408804893
  0.7533379162379884  0.7527310114692419  0.1252396708411718
  0.6166303899680649  0.6303900499412151  0.7563249024249851
  0.5059784806515258  0.5097204794156285  0.3739873516224267
  0.6158364942088838  0.3685627052191368  0.4949761256970534
  0.3532029268950021  0.3908079388397600  0.4948940897180513
  0.7396662528991678  0.7394109678458330  0.6230110846844246
  0.8792461790622630  0.6320757410139434  0.5015400553938868
  0.5246013479758651  0.5007248130163304  0.6265732537402907
 
  0.00000000E+00  0.00000000E+00  0.00000000E+00
  0.00000000E+00  0.00000000E+00  0.00000000E+00
  0.00000000E+00  0.00000000E+00  0.00000000E+00
  0.00000000E+00  0.00000000E+00  0.00000000E+00
  0.00000000E+00  0.00000000E+00  0.00000000E+00
  0.00000000E+00  0.00000000E+00  0.00000000E+00
  0.00000000E+00  0.00000000E+00  0.00000000E+00
  0.00000000E+00  0.00000000E+00  0.00000000E+00
  0.00000000E+00  0.00000000E+00  0.00000000E+00
  0.00000000E+00  0.00000000E+00  0.00000000E+00
  0.00000000E+00  0.00000000E+00  0.00000000E+00
  0.00000000E+00  0.00000000E+00  0.00000000E+00
  0.00000000E+00  0.00000000E+00  0.00000000E+00
  0.00000000E+00  0.00000000E+00  0.00000000E+00
  0.00000000E+00  0.00000000E+00  0.00000000E+00
  0.00000000E+00  0.00000000E+00  0.00000000E+00
  0.00000000E+00  0.00000000E+00  0.00000000E+00
  0.00000000E+00  0.00000000E+00  0.00000000E+00
  0.00000000E+00  0.00000000E+00  0.00000000E+00
  0.00000000E+00  0.00000000E+00  0.00000000E+00
  0.00000000E+00  0.00000000E+00  0.00000000E+00
  0.00000000E+00  0.00000000E+00  0.00000000E+00
  0.00000000E+00  0.00000000E+00  0.00000000E+00
  0.00000000E+00  0.00000000E+00  0.00000000E+00
  0.00000000E+00  0.00000000E+00  0.00000000E+00
  0.00000000E+00  0.00000000E+00  0.00000000E+00
  0.00000000E+00  0.00000000E+00  0.00000000E+00
  0.00000000E+00  0.00000000E+00  0.00000000E+00
  0.00000000E+00  0.00000000E+00  0.00000000E+00
  0.00000000E+00  0.00000000E+00  0.00000000E+00
  0.00000000E+00  0.00000000E+00  0.00000000E+00
  0.00000000E+00  0.00000000E+00  0.00000000E+00
  0.00000000E+00  0.00000000E+00  0.00000000E+00
  0.00000000E+00  0.00000000E+00  0.00000000E+00
  0.00000000E+00  0.00000000E+00  0.00000000E+00
  0.00000000E+00  0.00000000E+00  0.00000000E+00
  0.00000000E+00  0.00000000E+00  0.00000000E+00
  0.00000000E+00  0.00000000E+00  0.00000000E+00
  0.00000000E+00  0.00000000E+00  0.00000000E+00
  0.00000000E+00  0.00000000E+00  0.00000000E+00
  0.00000000E+00  0.00000000E+00  0.00000000E+00
  0.00000000E+00  0.00000000E+00  0.00000000E+00
  0.00000000E+00  0.00000000E+00  0.00000000E+00
  0.00000000E+00  0.00000000E+00  0.00000000E+00
  0.00000000E+00  0.00000000E+00  0.00000000E+00
  0.00000000E+00  0.00000000E+00  0.00000000E+00
  0.00000000E+00  0.00000000E+00  0.00000000E+00
  0.00000000E+00  0.00000000E+00  0.00000000E+00
  0.00000000E+00  0.00000000E+00  0.00000000E+00
  0.00000000E+00  0.00000000E+00  0.00000000E+00
  0.00000000E+00  0.00000000E+00  0.00000000E+00
  0.00000000E+00  0.00000000E+00  0.00000000E+00
  0.00000000E+00  0.00000000E+00  0.00000000E+00
  0.00000000E+00  0.00000000E+00  0.00000000E+00
  0.00000000E+00  0.00000000E+00  0.00000000E+00
  0.00000000E+00  0.00000000E+00  0.00000000E+00
  0.00000000E+00  0.00000000E+00  0.00000000E+00
  0.00000000E+00  0.00000000E+00  0.00000000E+00
  0.00000000E+00  0.00000000E+00  0.00000000E+00
  0.00000000E+00  0.00000000E+00  0.00000000E+00
  0.00000000E+00  0.00000000E+00  0.00000000E+00
  0.00000000E+00  0.00000000E+00  0.00000000E+00
  0.00000000E+00  0.00000000E+00  0.00000000E+00
  0.00000000E+00  0.00000000E+00  0.00000000E+00
  0.00000000E+00  0.00000000E+00  0.00000000E+00
  0.00000000E+00  0.00000000E+00  0.00000000E+00
  0.00000000E+00  0.00000000E+00  0.00000000E+00
  0.00000000E+00  0.00000000E+00  0.00000000E+00
  0.00000000E+00  0.00000000E+00  0.00000000E+00
  0.00000000E+00  0.00000000E+00  0.00000000E+00
  0.00000000E+00  0.00000000E+00  0.00000000E+00
  0.00000000E+00  0.00000000E+00  0.00000000E+00
  0.00000000E+00  0.00000000E+00  0.00000000E+00
  0.00000000E+00  0.00000000E+00  0.00000000E+00
  0.00000000E+00  0.00000000E+00  0.00000000E+00
  0.00000000E+00  0.00000000E+00  0.00000000E+00
  0.00000000E+00  0.00000000E+00  0.00000000E+00
  0.00000000E+00  0.00000000E+00  0.00000000E+00
  0.00000000E+00  0.00000000E+00  0.00000000E+00
  0.00000000E+00  0.00000000E+00  0.00000000E+00
  0.00000000E+00  0.00000000E+00  0.00000000E+00
  0.00000000E+00  0.00000000E+00  0.00000000E+00
  0.00000000E+00  0.00000000E+00  0.00000000E+00
  0.00000000E+00  0.00000000E+00  0.00000000E+00
  0.00000000E+00  0.00000000E+00  0.00000000E+00
  0.00000000E+00  0.00000000E+00  0.00000000E+00
  0.00000000E+00  0.00000000E+00  0.00000000E+00
  0.00000000E+00  0.00000000E+00  0.00000000E+00
  0.00000000E+00  0.00000000E+00  0.00000000E+00
  0.00000000E+00  0.00000000E+00  0.00000000E+00
  0.00000000E+00  0.00000000E+00  0.00000000E+00
  0.00000000E+00  0.00000000E+00  0.00000000E+00
  0.00000000E+00  0.00000000E+00  0.00000000E+00
  0.00000000E+00  0.00000000E+00  0.00000000E+00
  0.00000000E+00  0.00000000E+00  0.00000000E+00
  0.00000000E+00  0.00000000E+00  0.00000000E+00
  0.00000000E+00  0.00000000E+00  0.00000000E+00
  0.00000000E+00  0.00000000E+00  0.00000000E+00
  0.00000000E+00  0.00000000E+00  0.00000000E+00
  0.00000000E+00  0.00000000E+00  0.00000000E+00
  0.00000000E+00  0.00000000E+00  0.00000000E+00
  0.00000000E+00  0.00000000E+00  0.00000000E+00
  0.00000000E+00  0.00000000E+00  0.00000000E+00
  0.00000000E+00  0.00000000E+00  0.00000000E+00
  0.00000000E+00  0.00000000E+00  0.00000000E+00
  0.00000000E+00  0.00000000E+00  0.00000000E+00
  0.00000000E+00  0.00000000E+00  0.00000000E+00
  0.00000000E+00  0.00000000E+00  0.00000000E+00
  0.00000000E+00  0.00000000E+00  0.00000000E+00
  0.00000000E+00  0.00000000E+00  0.00000000E+00
  0.00000000E+00  0.00000000E+00  0.00000000E+00
  0.00000000E+00  0.00000000E+00  0.00000000E+00
  0.00000000E+00  0.00000000E+00  0.00000000E+00
  0.00000000E+00  0.00000000E+00  0.00000000E+00
  0.00000000E+00  0.00000000E+00  0.00000000E+00
  0.00000000E+00  0.00000000E+00  0.00000000E+00
  0.00000000E+00  0.00000000E+00  0.00000000E+00
  0.00000000E+00  0.00000000E+00  0.00000000E+00
  0.00000000E+00  0.00000000E+00  0.00000000E+00
  0.00000000E+00  0.00000000E+00  0.00000000E+00
  0.00000000E+00  0.00000000E+00  0.00000000E+00
  0.00000000E+00  0.00000000E+00  0.00000000E+00
  0.00000000E+00  0.00000000E+00  0.00000000E+00
  0.00000000E+00  0.00000000E+00  0.00000000E+00
  0.00000000E+00  0.00000000E+00  0.00000000E+00
  0.00000000E+00  0.00000000E+00  0.00000000E+00
  0.00000000E+00  0.00000000E+00  0.00000000E+00
  0.00000000E+00  0.00000000E+00  0.00000000E+00
  0.00000000E+00  0.00000000E+00  0.00000000E+00
  0.00000000E+00  0.00000000E+00  0.00000000E+00
  0.00000000E+00  0.00000000E+00  0.00000000E+00
  0.00000000E+00  0.00000000E+00  0.00000000E+00
  0.00000000E+00  0.00000000E+00  0.00000000E+00
  0.00000000E+00  0.00000000E+00  0.00000000E+00
  0.00000000E+00  0.00000000E+00  0.00000000E+00
  0.00000000E+00  0.00000000E+00  0.00000000E+00
  0.00000000E+00  0.00000000E+00  0.00000000E+00
  0.00000000E+00  0.00000000E+00  0.00000000E+00
  0.00000000E+00  0.00000000E+00  0.00000000E+00
  0.00000000E+00  0.00000000E+00  0.00000000E+00
  0.00000000E+00  0.00000000E+00  0.00000000E+00
  0.00000000E+00  0.00000000E+00  0.00000000E+00
  0.00000000E+00  0.00000000E+00  0.00000000E+00
  0.00000000E+00  0.00000000E+00  0.00000000E+00
  0.00000000E+00  0.00000000E+00  0.00000000E+00
  0.00000000E+00  0.00000000E+00  0.00000000E+00
  0.00000000E+00  0.00000000E+00  0.00000000E+00
  0.00000000E+00  0.00000000E+00  0.00000000E+00
  0.00000000E+00  0.00000000E+00  0.00000000E+00
  0.00000000E+00  0.00000000E+00  0.00000000E+00
  0.00000000E+00  0.00000000E+00  0.00000000E+00
  0.00000000E+00  0.00000000E+00  0.00000000E+00
  0.00000000E+00  0.00000000E+00  0.00000000E+00
  0.00000000E+00  0.00000000E+00  0.00000000E+00
  0.00000000E+00  0.00000000E+00  0.00000000E+00
  0.00000000E+00  0.00000000E+00  0.00000000E+00
  0.00000000E+00  0.00000000E+00  0.00000000E+00
  0.00000000E+00  0.00000000E+00  0.00000000E+00
