SrTiFeO                                 
   1.00000000000000     
    11.1989999999999998    0.0000000000000000    0.0000000000000000
     0.0000000000000000   11.1989999999999998    0.0000000000000000
     0.0000000000000000    0.0000000000000000   15.9830000000000005
   Sr   Ti   Fe   O 
    32    30     2    94
Direct
  0.9997568283475421  0.2496072456063330  0.1250130227254026
  0.0046719911388945  0.2505550147134750  0.6244084292495284
  0.9993317572187216  0.7503346414874932  0.1255139491691535
  0.9982658131991349  0.7515475372146400  0.6228902184704405
  0.4989588124607112  0.2481336351617605  0.1259547600972514
  0.4966639677521196  0.2370272553584791  0.6207110681703247
  0.5006241381062668  0.7499657374469211  0.1235429727438498
  0.5047403940867156  0.7565756448003611  0.6239708039548362
  0.9992226371744871  0.2492290582858454  0.3766333171126915
  0.0053175314165792  0.2514021484398927  0.8758466238836279
  0.9966209961980929  0.7502819623878070  0.3765070667389511
  0.0012444567554825  0.7500167353582847  0.8747523498633256
  0.4997925409786884  0.2453068050826306  0.3733078637616021
  0.4983416103459652  0.2479571276727032  0.8782955054938540
  0.5019407039233227  0.7544908654510740  0.3740825062612951
  0.5018835975700868  0.7518505433681989  0.8746610230824071
  0.2497886887792759  0.9996098445446924  0.1250382669547069
  0.2492104904715812  0.9995633561247954  0.6233922667698379
  0.2498063140967879  0.4999847212569543  0.1241581972976958
  0.2395421512837110  0.5003912865717072  0.6232160267539293
  0.7502305203640476 -0.0002285494438649  0.1260434719041905
  0.7512136709371519  0.9913163067353670  0.6210798624948758
  0.7508912587036067  0.4995749796934858  0.1250848620468331
  0.7637449320501881  0.5082811595146014  0.6207140779834655
  0.2492613718806793 -0.0001832420722888  0.3760322046816060
  0.2512325697686453  0.9997247160745016  0.8755423901603508
  0.2449210297085362  0.5002029026118114  0.3732329407805373
  0.2483099429420814  0.5013675550684625  0.8753017618071665
  0.7495336254105680  0.9979395947437535  0.3763485956395919
  0.7501458694690232  0.9919458360863835  0.8765834260403652
  0.7539441945722219  0.5023858170864931  0.3743148938629756
  0.7561155469312847  0.5056154076696149  0.8791842588875560
  0.0000893629487605  0.0003976883806190  0.9995101371174109
  0.9983961088671609  0.9988769106583284  0.4997936260801764
  0.0009052831659760  0.4999257777191317  0.0004432561637096
  0.9991511664716317  0.5012220590406709  0.4988905981657442
  0.5004283535715918  0.9997995616986129  0.0001696030015060
  0.5011862823889494  0.9979661228453390  0.4992234244065640
  0.5021207386692013  0.4983180179709806  0.9980443062802609
  0.2508536646655177  0.2505049383785083  0.0002127765691346
  0.2497000079217380  0.2498627477800768  0.5001917942159425
  0.2509874567865589  0.7494397353317136  0.9993229532052010
  0.2499047129046186  0.7502339219122196  0.5004707759708866
  0.7491990994154083  0.2506445484687278  1.0002092034503665
  0.7484939916636653  0.2517283399469669  0.5011332931090074
  0.7499484170693057  0.7494924619562285  0.0009098320804689
  0.2502659263189954  0.2506852709014634  0.2500102517036176
  0.2539688893850913  0.2512964845033358  0.7489666481292525
  0.2504785668102478  0.7492217295206837  0.2500619872640675
  0.2515502135918040  0.7481689280358436  0.7477447674471304
  0.7500243415193856  0.2499836370893083  0.2500735625437912
  0.7577451096820315  0.2366957702815797  0.7503821697260377
  0.7496361337586469  0.7496320948218401  0.2516690132696432
  0.7500696688494213  0.7473670043706581  0.7474357818017218
  0.9996425403755298  0.0007425205958323  0.2510139740078551
  0.0064569730225025  0.9958709289575040  0.7506708758064173
  0.9999320967301408  0.5000877067304927  0.2495838405264815
  0.0004750622877534  0.5012436991441372  0.7505665151750959
  0.4999644227142228  0.9996425008803177  0.2496562707269056
  0.4988533311142085  0.9998370105753881  0.7503356810019814
  0.4995226526896624  0.5005722847451998  0.2446445109672181
  0.4993265632545306  0.5008377748374755  0.4898176180988199
  0.4906217805300456  0.5054698617792411  0.7567633862025714
  0.7495115935244612  0.7498082215177503  0.4999195200270715
  0.1099221692221966  0.1418603448466239  0.2511973233092124
  0.1074780615051039  0.1420414776839318  0.7517984196119900
  0.1090190041134218  0.6412406480997229  0.2512336450503926
  0.1081891451462780  0.6411141362227921  0.7492755773259451
  0.6091707247695668  0.1412520791944460  0.2496350094559306
  0.6056497181598475  0.1479080685308851  0.7508444812539552
  0.6074217904278397  0.6406251876289296  0.2480578748243921
  0.3922275898999211  0.3589146157782963  0.2496515237245951
  0.3984959853733539  0.3567133185050504  0.7402934749518596
  0.3912451617338175  0.8588619229407436  0.2494998545303368
  0.3913213429518212  0.8594983268773045  0.7498138976915431
  0.8906252738177199  0.3591428417446483  0.2512524044460529
  0.8790673102528518  0.3648322106373164  0.7511017085841787
  0.8908158460230191  0.8598310303569729  0.2513398075739587
  0.8910110691808625  0.8602553410447580  0.7528779994635676
  0.3592257975221922  0.1094218200643217  0.2509790629142963
  0.3577305150996551  0.1077055650154869  0.7499845297027500
  0.3579095736955431  0.6074728900972542  0.2495963289445742
  0.3542549846944795  0.6126806154792058  0.7368816148876783
  0.8584608298528749  0.1096567335733518  0.2527184137305544
  0.8570440936111953  0.1060323329747440  0.7500232261456696
  0.8593528946966673  0.6086952842177635  0.2490789786988413
  0.8637062737212922  0.6117180389739111  0.7513907988805404
  0.1412802930454003  0.3913751008016074  0.2488188837733090
  0.1394099449601093  0.3895276891164479  0.7501185609750149
  0.1406810829103893  0.8906412518953197  0.2512466536661866
  0.1423251226543068  0.8927816810646761  0.7525299611574888
  0.6407657585979115  0.3916133440360218  0.2492238443013120
  0.6405391535439954  0.8908982045097177  0.2507076823142315
  0.6382619226368103  0.8882403959315187  0.7498221728407939
  0.3597146266624265  0.3906854208467649  0.9996157121471074
  0.3601658343318282  0.8897619509594049  0.9998440006344913
  0.3617610897880433  0.8878772765589276  0.4996291899861634
  0.8599914668548317  0.3902793824974054 -0.0001451291321012
  0.8602790275213560  0.3884862403488478  0.4995151998272128
  0.8598802560227120  0.8900321805504900  0.9992174305941113
  0.8635349581040488  0.8908827344302941  0.4972627097270090
  0.1405053261825943  0.1105345877802830  0.9988851630858927
  0.1382464850133681  0.1128661474668953  0.4980641292003547
  0.1413528364500447  0.6091311958064910  0.9997536763053135
  0.1381558402225923  0.6116800646747851  0.4992094007786452
  0.6413978637361956  0.1091567217060433  0.9983667484400476
  0.6382344016397948  0.1131397790385179  0.5025162027729393
  0.6417854635385130  0.6087876816064818  0.0032243975765904
  0.1102209489480482  0.3593635669483902  0.0002896524837883
  0.1118184897041336  0.3617183158267655  0.5001750805141914
  0.1102706283726302  0.8599102767269429  1.0001638002464301
  0.1115540463153806  0.8624109074141502  0.4953868621456350
  0.6102813684535640  0.3573158394473364  0.0089970873865485
  0.6095733023820621  0.8593271499047818  0.9993704383980690
  0.6106271131444437  0.8635748194908943  0.4996883139375759
  0.3903422364106262  0.1398381312209327 -0.0000068002626327
  0.3875459601929574  0.1381865831193137  0.4985671549006831
  0.3923465091704476  0.6393691806058791  0.9960370171351136
  0.3882832430528192  0.6343711210424875  0.5131024824659132
  0.8893356910184879  0.1414405643279733  0.9946896412626897
  0.8861182882011293  0.1416485166232810  0.5061988016915092
  0.8906719153223716  0.6399295688025756  0.9982948357521626
  0.9984200168604536  0.0031532883736060  0.1248600212380422
  0.0024068568346989  0.9981298213076339  0.6256568958930635
 -0.0000519472564397  0.5004789520101884  0.1247149857585302
  0.0000331189346640  0.4978587953799050  0.6253710591443641
  0.5007053355029317  1.0004719006246419  0.1246883083379883
  0.4994661456191545  0.0007566907143208  0.6253477029406558
  0.4965968345804627  0.5016333810995977  0.1248066717191638
  0.9983743835949395  0.0052200283966731  0.3750506984874021
  0.0005061147189932  0.9999499976125735  0.8752667670074009
  0.0002069811892857  0.4992875261298036  0.3745775336307933
  0.0024574136650000  0.4985801873557761  0.8751939887334994
  0.5007477383133614  0.0010326812820069  0.3747030130845169
  0.5000554954610821 -0.0007897256075705  0.8748364370175874
  0.5177551469984021  0.4862815940808158  0.8783334278326437
  0.2539328695886090  0.2567707570751200  0.3757573878872747
  0.2538634922907704  0.2538253203639113  0.8740386331891811
  0.2568368378318165  0.7456862868831073  0.3758729917309130
  0.2514326281324200  0.7472173510803723  0.8738702877157567
  0.7454225796486595  0.2525215007064677  0.3773538271797605
  0.7365930923773231  0.2646492270914653  0.8714970152625329
  0.7459627183479381  0.7436372544450676  0.3739262744264981
  0.7436163453717609  0.7463942992078937  0.8744471340544498
  0.2509804685364844  0.2492955930253102  0.1249042849508187
  0.2449150145602557  0.2449482129242907  0.6250209805344251
  0.2511947979113141  0.7486159404842065  0.1246478113323459
  0.2398918963627970  0.7599055671057046  0.6237753648700256
  0.7551675929681392  0.2461037069443910  0.1254464958741227
  0.7378839164663388  0.2649510039963271  0.6305201116843814
  0.7515517603465880  0.7514893406164559  0.1248136540535624
  0.6179507449380620  0.6228455050155554  0.7368516111581342
  0.4981300083542059  0.5030210245282259  0.3743306647511946
  0.6059120478624257  0.3641083060816129  0.5066945433733102
  0.3643004934895838  0.3909630084921495  0.5116471214003607
  0.7562247111096100  0.7561512241555107  0.6264219206226060
  0.8877967217713931  0.6349246219514537  0.5010891521053049
  0.6304755094276466  0.6073215139697339  0.5125573671984734
 
  0.00000000E+00  0.00000000E+00  0.00000000E+00
  0.00000000E+00  0.00000000E+00  0.00000000E+00
  0.00000000E+00  0.00000000E+00  0.00000000E+00
  0.00000000E+00  0.00000000E+00  0.00000000E+00
  0.00000000E+00  0.00000000E+00  0.00000000E+00
  0.00000000E+00  0.00000000E+00  0.00000000E+00
  0.00000000E+00  0.00000000E+00  0.00000000E+00
  0.00000000E+00  0.00000000E+00  0.00000000E+00
  0.00000000E+00  0.00000000E+00  0.00000000E+00
  0.00000000E+00  0.00000000E+00  0.00000000E+00
  0.00000000E+00  0.00000000E+00  0.00000000E+00
  0.00000000E+00  0.00000000E+00  0.00000000E+00
  0.00000000E+00  0.00000000E+00  0.00000000E+00
  0.00000000E+00  0.00000000E+00  0.00000000E+00
  0.00000000E+00  0.00000000E+00  0.00000000E+00
  0.00000000E+00  0.00000000E+00  0.00000000E+00
  0.00000000E+00  0.00000000E+00  0.00000000E+00
  0.00000000E+00  0.00000000E+00  0.00000000E+00
  0.00000000E+00  0.00000000E+00  0.00000000E+00
  0.00000000E+00  0.00000000E+00  0.00000000E+00
  0.00000000E+00  0.00000000E+00  0.00000000E+00
  0.00000000E+00  0.00000000E+00  0.00000000E+00
  0.00000000E+00  0.00000000E+00  0.00000000E+00
  0.00000000E+00  0.00000000E+00  0.00000000E+00
  0.00000000E+00  0.00000000E+00  0.00000000E+00
  0.00000000E+00  0.00000000E+00  0.00000000E+00
  0.00000000E+00  0.00000000E+00  0.00000000E+00
  0.00000000E+00  0.00000000E+00  0.00000000E+00
  0.00000000E+00  0.00000000E+00  0.00000000E+00
  0.00000000E+00  0.00000000E+00  0.00000000E+00
  0.00000000E+00  0.00000000E+00  0.00000000E+00
  0.00000000E+00  0.00000000E+00  0.00000000E+00
  0.00000000E+00  0.00000000E+00  0.00000000E+00
  0.00000000E+00  0.00000000E+00  0.00000000E+00
  0.00000000E+00  0.00000000E+00  0.00000000E+00
  0.00000000E+00  0.00000000E+00  0.00000000E+00
  0.00000000E+00  0.00000000E+00  0.00000000E+00
  0.00000000E+00  0.00000000E+00  0.00000000E+00
  0.00000000E+00  0.00000000E+00  0.00000000E+00
  0.00000000E+00  0.00000000E+00  0.00000000E+00
  0.00000000E+00  0.00000000E+00  0.00000000E+00
  0.00000000E+00  0.00000000E+00  0.00000000E+00
  0.00000000E+00  0.00000000E+00  0.00000000E+00
  0.00000000E+00  0.00000000E+00  0.00000000E+00
  0.00000000E+00  0.00000000E+00  0.00000000E+00
  0.00000000E+00  0.00000000E+00  0.00000000E+00
  0.00000000E+00  0.00000000E+00  0.00000000E+00
  0.00000000E+00  0.00000000E+00  0.00000000E+00
  0.00000000E+00  0.00000000E+00  0.00000000E+00
  0.00000000E+00  0.00000000E+00  0.00000000E+00
  0.00000000E+00  0.00000000E+00  0.00000000E+00
  0.00000000E+00  0.00000000E+00  0.00000000E+00
  0.00000000E+00  0.00000000E+00  0.00000000E+00
  0.00000000E+00  0.00000000E+00  0.00000000E+00
  0.00000000E+00  0.00000000E+00  0.00000000E+00
  0.00000000E+00  0.00000000E+00  0.00000000E+00
  0.00000000E+00  0.00000000E+00  0.00000000E+00
  0.00000000E+00  0.00000000E+00  0.00000000E+00
  0.00000000E+00  0.00000000E+00  0.00000000E+00
  0.00000000E+00  0.00000000E+00  0.00000000E+00
  0.00000000E+00  0.00000000E+00  0.00000000E+00
  0.00000000E+00  0.00000000E+00  0.00000000E+00
  0.00000000E+00  0.00000000E+00  0.00000000E+00
  0.00000000E+00  0.00000000E+00  0.00000000E+00
  0.00000000E+00  0.00000000E+00  0.00000000E+00
  0.00000000E+00  0.00000000E+00  0.00000000E+00
  0.00000000E+00  0.00000000E+00  0.00000000E+00
  0.00000000E+00  0.00000000E+00  0.00000000E+00
  0.00000000E+00  0.00000000E+00  0.00000000E+00
  0.00000000E+00  0.00000000E+00  0.00000000E+00
  0.00000000E+00  0.00000000E+00  0.00000000E+00
  0.00000000E+00  0.00000000E+00  0.00000000E+00
  0.00000000E+00  0.00000000E+00  0.00000000E+00
  0.00000000E+00  0.00000000E+00  0.00000000E+00
  0.00000000E+00  0.00000000E+00  0.00000000E+00
  0.00000000E+00  0.00000000E+00  0.00000000E+00
  0.00000000E+00  0.00000000E+00  0.00000000E+00
  0.00000000E+00  0.00000000E+00  0.00000000E+00
  0.00000000E+00  0.00000000E+00  0.00000000E+00
  0.00000000E+00  0.00000000E+00  0.00000000E+00
  0.00000000E+00  0.00000000E+00  0.00000000E+00
  0.00000000E+00  0.00000000E+00  0.00000000E+00
  0.00000000E+00  0.00000000E+00  0.00000000E+00
  0.00000000E+00  0.00000000E+00  0.00000000E+00
  0.00000000E+00  0.00000000E+00  0.00000000E+00
  0.00000000E+00  0.00000000E+00  0.00000000E+00
  0.00000000E+00  0.00000000E+00  0.00000000E+00
  0.00000000E+00  0.00000000E+00  0.00000000E+00
  0.00000000E+00  0.00000000E+00  0.00000000E+00
  0.00000000E+00  0.00000000E+00  0.00000000E+00
  0.00000000E+00  0.00000000E+00  0.00000000E+00
  0.00000000E+00  0.00000000E+00  0.00000000E+00
  0.00000000E+00  0.00000000E+00  0.00000000E+00
  0.00000000E+00  0.00000000E+00  0.00000000E+00
  0.00000000E+00  0.00000000E+00  0.00000000E+00
  0.00000000E+00  0.00000000E+00  0.00000000E+00
  0.00000000E+00  0.00000000E+00  0.00000000E+00
  0.00000000E+00  0.00000000E+00  0.00000000E+00
  0.00000000E+00  0.00000000E+00  0.00000000E+00
  0.00000000E+00  0.00000000E+00  0.00000000E+00
  0.00000000E+00  0.00000000E+00  0.00000000E+00
  0.00000000E+00  0.00000000E+00  0.00000000E+00
  0.00000000E+00  0.00000000E+00  0.00000000E+00
  0.00000000E+00  0.00000000E+00  0.00000000E+00
  0.00000000E+00  0.00000000E+00  0.00000000E+00
  0.00000000E+00  0.00000000E+00  0.00000000E+00
  0.00000000E+00  0.00000000E+00  0.00000000E+00
  0.00000000E+00  0.00000000E+00  0.00000000E+00
  0.00000000E+00  0.00000000E+00  0.00000000E+00
  0.00000000E+00  0.00000000E+00  0.00000000E+00
  0.00000000E+00  0.00000000E+00  0.00000000E+00
  0.00000000E+00  0.00000000E+00  0.00000000E+00
  0.00000000E+00  0.00000000E+00  0.00000000E+00
  0.00000000E+00  0.00000000E+00  0.00000000E+00
  0.00000000E+00  0.00000000E+00  0.00000000E+00
  0.00000000E+00  0.00000000E+00  0.00000000E+00
  0.00000000E+00  0.00000000E+00  0.00000000E+00
  0.00000000E+00  0.00000000E+00  0.00000000E+00
  0.00000000E+00  0.00000000E+00  0.00000000E+00
  0.00000000E+00  0.00000000E+00  0.00000000E+00
  0.00000000E+00  0.00000000E+00  0.00000000E+00
  0.00000000E+00  0.00000000E+00  0.00000000E+00
  0.00000000E+00  0.00000000E+00  0.00000000E+00
  0.00000000E+00  0.00000000E+00  0.00000000E+00
  0.00000000E+00  0.00000000E+00  0.00000000E+00
  0.00000000E+00  0.00000000E+00  0.00000000E+00
  0.00000000E+00  0.00000000E+00  0.00000000E+00
  0.00000000E+00  0.00000000E+00  0.00000000E+00
  0.00000000E+00  0.00000000E+00  0.00000000E+00
  0.00000000E+00  0.00000000E+00  0.00000000E+00
  0.00000000E+00  0.00000000E+00  0.00000000E+00
  0.00000000E+00  0.00000000E+00  0.00000000E+00
  0.00000000E+00  0.00000000E+00  0.00000000E+00
  0.00000000E+00  0.00000000E+00  0.00000000E+00
  0.00000000E+00  0.00000000E+00  0.00000000E+00
  0.00000000E+00  0.00000000E+00  0.00000000E+00
  0.00000000E+00  0.00000000E+00  0.00000000E+00
  0.00000000E+00  0.00000000E+00  0.00000000E+00
  0.00000000E+00  0.00000000E+00  0.00000000E+00
  0.00000000E+00  0.00000000E+00  0.00000000E+00
  0.00000000E+00  0.00000000E+00  0.00000000E+00
  0.00000000E+00  0.00000000E+00  0.00000000E+00
  0.00000000E+00  0.00000000E+00  0.00000000E+00
  0.00000000E+00  0.00000000E+00  0.00000000E+00
  0.00000000E+00  0.00000000E+00  0.00000000E+00
  0.00000000E+00  0.00000000E+00  0.00000000E+00
  0.00000000E+00  0.00000000E+00  0.00000000E+00
  0.00000000E+00  0.00000000E+00  0.00000000E+00
  0.00000000E+00  0.00000000E+00  0.00000000E+00
  0.00000000E+00  0.00000000E+00  0.00000000E+00
  0.00000000E+00  0.00000000E+00  0.00000000E+00
  0.00000000E+00  0.00000000E+00  0.00000000E+00
  0.00000000E+00  0.00000000E+00  0.00000000E+00
  0.00000000E+00  0.00000000E+00  0.00000000E+00
  0.00000000E+00  0.00000000E+00  0.00000000E+00
  0.00000000E+00  0.00000000E+00  0.00000000E+00
  0.00000000E+00  0.00000000E+00  0.00000000E+00
  0.00000000E+00  0.00000000E+00  0.00000000E+00
