SrTiFeO                                 
   1.00000000000000     
    11.1989999999999998    0.0000000000000000    0.0000000000000000
     0.0000000000000000   11.1989999999999998    0.0000000000000000
     0.0000000000000000    0.0000000000000000   15.9830000000000005
   Sr   Ti   Fe   O 
    32    30     2    94
Direct
  0.0000175431174974  0.2496243771112074  0.1240525662141361
  0.0046863540677310  0.2487164636874640  0.6293957755467372
  0.9986032653484352  0.7507173038789560  0.1251047073362384
  0.9993234645675324  0.7483377083693968  0.6268733943821577
  0.4995630486958014  0.2518723331429349  0.1241147432151330
  0.4973940062799218  0.2450295834610144  0.6307136176407034
  0.5003479157439840  0.7496893817438934  0.1226768651150734
  0.5015914238675231  0.7501747990180370  0.6316222851469689
  0.0049272833730368  0.2495666656762157  0.3716325383093674
  0.0002937254777925  0.2493459601842841  0.8750780817125582
  0.9999397710110951  0.7473758373651752  0.3744052369623087
  0.9986004913034759  0.7507736307348490  0.8740030173064937
  0.4954440607109155  0.2399971685101638  0.3711055278831575
  0.5007268992445691  0.2564381445888518  0.8730207385417327
  0.5007487390411079  0.7561735881358241  0.3696229081166393
  0.4996141989742749  0.7453923277387290  0.8744614447182024
  0.2491620940847837  0.9991740631155113  0.1247072651113281
  0.2506007917857090  0.9987143087657504  0.6279656296357140
  0.2514556994892125  0.5012650071562410  0.1240360868266197
  0.2424653688057742  0.4984363012655724  0.6296916183196387
  0.7504271897443275  0.0002762806372857  0.1247258402717767
  0.7477567574155920  0.9985050757177838  0.6280577426072970
  0.7493358439444833  0.5008696958601254  0.1226323042925881
  0.7568402181280387  0.4979296189256461  0.6337413303001693
  0.2501892644384233  0.9988739253212717  0.3732756842894416
  0.2493080796054573  0.9994340091116299  0.8743260762486796
  0.2410772457358879  0.4977128705786782  0.3715503446558685
  0.2554055843339622  0.5007369546966864  0.8735796122377643
  0.7470640890679318  0.9988264310507877  0.3732747085234992
  0.7502379747625261  0.9999581290315888  0.8742080816669150
  0.7571939165815131  0.4987448264995910  0.3676282488748225
  0.7452515035044062  0.5017956536561389  0.8751516315786503
  0.9993012167311098  0.9998370246557143  0.9999473621099784
  0.0050331294191397  0.9960310805181218  0.5000169093392822
  0.0002678894682333  0.4998916346580431  0.9995641076455991
  0.9978608024680488  0.5015099895783736  0.5002908474893115
  0.4998516370628922  0.0005115865768880  0.9994318541577957
  0.4988229318752388  0.9976449243553573  0.5006542710923557
  0.4991935723681492  0.5000665211024781  0.9989359266398329
  0.2506336674836223  0.2501927856984176  0.9998280899405815
  0.2470322042045503  0.2447783020858964  0.5003935467251192
  0.2496933559104784  0.7498673049649947  0.9998009854475957
  0.2504410776413362  0.7515909355954875  0.5001223734274094
  0.7507390920928958  0.2493620424410104  0.9997729127601376
  0.7629886979881286  0.2427440315472871  0.4999455101418721
  0.7502931558856574  0.7510460705955577  0.9997546945875685
  0.2500338014883517  0.2495415065152718  0.2493011677079974
  0.2518348517611645  0.2508147112931967  0.7506539663704881
  0.2496599228730371  0.7491303789030361  0.2500017731126883
  0.2506125797595712  0.7476609184236370  0.7498962397593033
  0.7488389425578300  0.2503261143662121  0.2492433184689802
  0.7490197181352053  0.2515951846966519  0.7509520120249835
  0.7489507814508135  0.7494048040006862  0.2506739510290418
  0.7475071786369877  0.7479256456280925  0.7490543838082315
  0.9995504517937079  0.9993975911938303  0.2507412804169331
  0.9996706070933793  0.9992512676115409  0.7496374889155544
  0.9998686746695086  0.4995746221205395  0.2480995217978819
  0.0001484032599615  0.4996980208122097  0.7520653265610689
  0.4997660084426212  0.9995279233201462  0.2482432700666392
  0.4999891065050663  0.9993858878172608  0.7515575738179811
  0.5013653073911830  0.5001272824780001  0.2497917636427982
  0.4816201637865952  0.5035637372228149  0.4978686380530132
  0.5017526275144900  0.4994760883540259  0.7472626903541193
  0.7596097747556346  0.7644856493672129  0.5000652438701411
  0.1099354054805330  0.1397461394389296  0.2482457894827318
  0.1098768383246815  0.1392345572477627  0.7516389113116513
  0.1099761026325982  0.6388237879435287  0.2508491271951952
  0.1076197964561259  0.6404121418734269  0.7494200590884681
  0.6096289515103966  0.1400896332787891  0.2493912045425669
  0.6100745758648366  0.1387620379824600  0.7506762172996835
  0.6094154776438534  0.6409902093995943  0.2455249609345402
  0.3904275295433327  0.3605215944803499  0.2557324001883482
  0.3861694456640729  0.3571203630990220  0.7445067065071399
  0.3891310957171039  0.8605371985714859  0.2488417957089987
  0.3893293744849149  0.8612473101605242  0.7506064038220197
  0.8894980211906938  0.3600523195726072  0.2526829412867291
  0.8926198134818680  0.3585660788472731  0.7479008162438634
  0.8883118752720595  0.8599131401250408  0.2555408070722764
  0.8892671192114351  0.8603535975190180  0.7460007949322578
  0.3606937124695033  0.1107065786289677  0.2513353316629544
  0.3602805226331985  0.1095928091446751  0.7491691054071822
  0.3601399554807607  0.6094871888970274  0.2555797427583517
  0.3533898521933821  0.6138651921847266  0.7443244085102929
  0.8588594938718145  0.1111485039303755  0.2556489967975244
  0.8603771405994050  0.1095535143523188  0.7454440644831445
  0.8606808373347525  0.6102089711578941  0.2485855235609283
  0.8615042813239536  0.6097000126681179  0.7520021784029431
  0.1397395589285011  0.3895212902534939  0.2489705163743580
  0.1394618415921487  0.3901046991286576  0.7511175192252815
  0.1389080227849150  0.8894154944802128  0.2496004045593441
  0.1383910210616625  0.8903900656368079  0.7503423115106189
  0.6412101630461173  0.3901992101782317  0.2448768759429736
  0.6396023229264503  0.8902865240836234  0.2512348309608107
  0.6400974309354051  0.8911145836954415  0.7493484412264056
  0.3582104386320314  0.3897605216715992  0.0021583205755595
  0.3584940659709223  0.8911021266603227  0.0009128104909220
  0.3540015491985822  0.8962294307097316  0.4994191758324543
  0.8594361496934754  0.3905814742208431  0.0002139373487483
  0.8484591636448663  0.3963084924619286  0.4996096316907684
  0.8590629129759967  0.8917250854949044  0.0007278037231273
  0.8571407999281188  0.9014716583419664  0.4986811123502787
  0.1406977356434835  0.1088067252278659  0.0009658975862851
  0.1432915386908927  0.1048742225254288  0.4994089004713420
  0.1404133481024468  0.6086452445470664  0.0001940112202433
  0.1440592258761377  0.6065817700203266  0.4994771644217695
  0.6411845709511600  0.1090109322255153  0.0008868136497132
  0.6363173008868485  0.1193592813531931  0.4990754302744144
  0.6402280986747430  0.6111537383906125  0.0027135115855376
  0.1090879857913415  0.3583988556933421  0.0008384358868735
  0.1070107759895316  0.3576344995599243  0.4995488748733940
  0.1086157407745734  0.8594112654543108  0.0012575971247830
  0.1042882989717024  0.8546183342015512  0.4989544019468954
  0.6112224235060630  0.3589978023812020  0.0023809906119111
  0.6088370924397951  0.8597165608450961  0.0000469297071651
  0.6062765658159501  0.8575167917532923  0.4999092907442071
  0.3913578532699684  0.1410527949669803  0.0000032053888425
  0.3897492870469385  0.1401600174520155  0.5000273050765348
  0.3890833663701342  0.6417393679844443  0.0022479547565751
  0.4025426199115467  0.6559042239171000  0.4983906212970093
  0.8921865853817494  0.1406694537446387  0.0012937687903574
  0.8970956355345697  0.1463609986345048  0.4984036451817066
  0.8907215026333858  0.6405970032131192  0.0008993571989845
  0.9958496771201201  0.9989378276717154  0.1266964828851447
  0.0026519391931318  0.0012477706713606  0.6231940492985221
  0.9994747641276763  0.4987891282439319  0.1251495282906182
  0.0013691011606078  0.4996158797214104  0.6247983932063904
  0.4996525678482809  0.0002107368948874  0.1250992000779490
  0.5005243113899162  0.0007477841812518  0.6251016237809017
  0.4944178729210016  0.4992620700165179  0.1274334123327795
  0.0036874852778170  0.0017946868932340  0.3754542914221808
  0.9969247837446100  0.9992186430848979  0.8752291052329608
  0.0009699683017800  0.4993669432630835  0.3747335447298899
  0.9998337389281915  0.4989440730781725  0.8755996006937877
  0.5001249889238520  0.0004062725590227  0.3744603514171164
  0.4994939597281470  0.9999084844422316  0.8754276680299771
  0.4964611528990641  0.4999416159371057  0.8813020669247830
  0.2459022416364681  0.2485835515073347  0.3748641731149505
  0.2516478982048427  0.2504558833160528  0.8755670737079493
  0.2479878669429807  0.7519659426306473  0.3752630140901044
  0.2493866768724771  0.7495914112826265  0.8756871696276108
  0.7370055785140613  0.2598130197434518  0.3780197320547687
  0.7547555052778617  0.2450258561157999  0.8761634989087369
  0.7401056837681477  0.7392342867558013  0.3772339631407590
  0.7528467137287849  0.7526294840274225  0.8760593578116592
  0.2527191383327518  0.2497899359355802  0.1259206454999040
  0.2451190732233346  0.2482994934476190  0.6240262710649913
  0.2491826975291834  0.7480272196324532  0.1261452776849177
  0.2470565378520972  0.7532428179898522  0.6229350319552629
  0.7542755088670247  0.2469067480441283  0.1260964871932312
  0.7408023374365279  0.2559768787519930  0.6209927732730198
  0.7526668957669528  0.7539002623089338  0.1259490035545660
  0.6478283831103691  0.3848594910177028  0.7549857257151759
  0.6138003474439728  0.6440588635018379  0.7537515961998171
  0.5225049039141276  0.5018644651121384  0.3776855747518058
  0.3654851443869929  0.3816285299156550  0.4982285120168916
  0.7436734871389776  0.7419991142412410  0.6221532920706522
  0.8873951635531043  0.6395923532605220  0.4994018582929681
  0.5351805482400128  0.4996690599539190  0.6093999082705833
 
  0.00000000E+00  0.00000000E+00  0.00000000E+00
  0.00000000E+00  0.00000000E+00  0.00000000E+00
  0.00000000E+00  0.00000000E+00  0.00000000E+00
  0.00000000E+00  0.00000000E+00  0.00000000E+00
  0.00000000E+00  0.00000000E+00  0.00000000E+00
  0.00000000E+00  0.00000000E+00  0.00000000E+00
  0.00000000E+00  0.00000000E+00  0.00000000E+00
  0.00000000E+00  0.00000000E+00  0.00000000E+00
  0.00000000E+00  0.00000000E+00  0.00000000E+00
  0.00000000E+00  0.00000000E+00  0.00000000E+00
  0.00000000E+00  0.00000000E+00  0.00000000E+00
  0.00000000E+00  0.00000000E+00  0.00000000E+00
  0.00000000E+00  0.00000000E+00  0.00000000E+00
  0.00000000E+00  0.00000000E+00  0.00000000E+00
  0.00000000E+00  0.00000000E+00  0.00000000E+00
  0.00000000E+00  0.00000000E+00  0.00000000E+00
  0.00000000E+00  0.00000000E+00  0.00000000E+00
  0.00000000E+00  0.00000000E+00  0.00000000E+00
  0.00000000E+00  0.00000000E+00  0.00000000E+00
  0.00000000E+00  0.00000000E+00  0.00000000E+00
  0.00000000E+00  0.00000000E+00  0.00000000E+00
  0.00000000E+00  0.00000000E+00  0.00000000E+00
  0.00000000E+00  0.00000000E+00  0.00000000E+00
  0.00000000E+00  0.00000000E+00  0.00000000E+00
  0.00000000E+00  0.00000000E+00  0.00000000E+00
  0.00000000E+00  0.00000000E+00  0.00000000E+00
  0.00000000E+00  0.00000000E+00  0.00000000E+00
  0.00000000E+00  0.00000000E+00  0.00000000E+00
  0.00000000E+00  0.00000000E+00  0.00000000E+00
  0.00000000E+00  0.00000000E+00  0.00000000E+00
  0.00000000E+00  0.00000000E+00  0.00000000E+00
  0.00000000E+00  0.00000000E+00  0.00000000E+00
  0.00000000E+00  0.00000000E+00  0.00000000E+00
  0.00000000E+00  0.00000000E+00  0.00000000E+00
  0.00000000E+00  0.00000000E+00  0.00000000E+00
  0.00000000E+00  0.00000000E+00  0.00000000E+00
  0.00000000E+00  0.00000000E+00  0.00000000E+00
  0.00000000E+00  0.00000000E+00  0.00000000E+00
  0.00000000E+00  0.00000000E+00  0.00000000E+00
  0.00000000E+00  0.00000000E+00  0.00000000E+00
  0.00000000E+00  0.00000000E+00  0.00000000E+00
  0.00000000E+00  0.00000000E+00  0.00000000E+00
  0.00000000E+00  0.00000000E+00  0.00000000E+00
  0.00000000E+00  0.00000000E+00  0.00000000E+00
  0.00000000E+00  0.00000000E+00  0.00000000E+00
  0.00000000E+00  0.00000000E+00  0.00000000E+00
  0.00000000E+00  0.00000000E+00  0.00000000E+00
  0.00000000E+00  0.00000000E+00  0.00000000E+00
  0.00000000E+00  0.00000000E+00  0.00000000E+00
  0.00000000E+00  0.00000000E+00  0.00000000E+00
  0.00000000E+00  0.00000000E+00  0.00000000E+00
  0.00000000E+00  0.00000000E+00  0.00000000E+00
  0.00000000E+00  0.00000000E+00  0.00000000E+00
  0.00000000E+00  0.00000000E+00  0.00000000E+00
  0.00000000E+00  0.00000000E+00  0.00000000E+00
  0.00000000E+00  0.00000000E+00  0.00000000E+00
  0.00000000E+00  0.00000000E+00  0.00000000E+00
  0.00000000E+00  0.00000000E+00  0.00000000E+00
  0.00000000E+00  0.00000000E+00  0.00000000E+00
  0.00000000E+00  0.00000000E+00  0.00000000E+00
  0.00000000E+00  0.00000000E+00  0.00000000E+00
  0.00000000E+00  0.00000000E+00  0.00000000E+00
  0.00000000E+00  0.00000000E+00  0.00000000E+00
  0.00000000E+00  0.00000000E+00  0.00000000E+00
  0.00000000E+00  0.00000000E+00  0.00000000E+00
  0.00000000E+00  0.00000000E+00  0.00000000E+00
  0.00000000E+00  0.00000000E+00  0.00000000E+00
  0.00000000E+00  0.00000000E+00  0.00000000E+00
  0.00000000E+00  0.00000000E+00  0.00000000E+00
  0.00000000E+00  0.00000000E+00  0.00000000E+00
  0.00000000E+00  0.00000000E+00  0.00000000E+00
  0.00000000E+00  0.00000000E+00  0.00000000E+00
  0.00000000E+00  0.00000000E+00  0.00000000E+00
  0.00000000E+00  0.00000000E+00  0.00000000E+00
  0.00000000E+00  0.00000000E+00  0.00000000E+00
  0.00000000E+00  0.00000000E+00  0.00000000E+00
  0.00000000E+00  0.00000000E+00  0.00000000E+00
  0.00000000E+00  0.00000000E+00  0.00000000E+00
  0.00000000E+00  0.00000000E+00  0.00000000E+00
  0.00000000E+00  0.00000000E+00  0.00000000E+00
  0.00000000E+00  0.00000000E+00  0.00000000E+00
  0.00000000E+00  0.00000000E+00  0.00000000E+00
  0.00000000E+00  0.00000000E+00  0.00000000E+00
  0.00000000E+00  0.00000000E+00  0.00000000E+00
  0.00000000E+00  0.00000000E+00  0.00000000E+00
  0.00000000E+00  0.00000000E+00  0.00000000E+00
  0.00000000E+00  0.00000000E+00  0.00000000E+00
  0.00000000E+00  0.00000000E+00  0.00000000E+00
  0.00000000E+00  0.00000000E+00  0.00000000E+00
  0.00000000E+00  0.00000000E+00  0.00000000E+00
  0.00000000E+00  0.00000000E+00  0.00000000E+00
  0.00000000E+00  0.00000000E+00  0.00000000E+00
  0.00000000E+00  0.00000000E+00  0.00000000E+00
  0.00000000E+00  0.00000000E+00  0.00000000E+00
  0.00000000E+00  0.00000000E+00  0.00000000E+00
  0.00000000E+00  0.00000000E+00  0.00000000E+00
  0.00000000E+00  0.00000000E+00  0.00000000E+00
  0.00000000E+00  0.00000000E+00  0.00000000E+00
  0.00000000E+00  0.00000000E+00  0.00000000E+00
  0.00000000E+00  0.00000000E+00  0.00000000E+00
  0.00000000E+00  0.00000000E+00  0.00000000E+00
  0.00000000E+00  0.00000000E+00  0.00000000E+00
  0.00000000E+00  0.00000000E+00  0.00000000E+00
  0.00000000E+00  0.00000000E+00  0.00000000E+00
  0.00000000E+00  0.00000000E+00  0.00000000E+00
  0.00000000E+00  0.00000000E+00  0.00000000E+00
  0.00000000E+00  0.00000000E+00  0.00000000E+00
  0.00000000E+00  0.00000000E+00  0.00000000E+00
  0.00000000E+00  0.00000000E+00  0.00000000E+00
  0.00000000E+00  0.00000000E+00  0.00000000E+00
  0.00000000E+00  0.00000000E+00  0.00000000E+00
  0.00000000E+00  0.00000000E+00  0.00000000E+00
  0.00000000E+00  0.00000000E+00  0.00000000E+00
  0.00000000E+00  0.00000000E+00  0.00000000E+00
  0.00000000E+00  0.00000000E+00  0.00000000E+00
  0.00000000E+00  0.00000000E+00  0.00000000E+00
  0.00000000E+00  0.00000000E+00  0.00000000E+00
  0.00000000E+00  0.00000000E+00  0.00000000E+00
  0.00000000E+00  0.00000000E+00  0.00000000E+00
  0.00000000E+00  0.00000000E+00  0.00000000E+00
  0.00000000E+00  0.00000000E+00  0.00000000E+00
  0.00000000E+00  0.00000000E+00  0.00000000E+00
  0.00000000E+00  0.00000000E+00  0.00000000E+00
  0.00000000E+00  0.00000000E+00  0.00000000E+00
  0.00000000E+00  0.00000000E+00  0.00000000E+00
  0.00000000E+00  0.00000000E+00  0.00000000E+00
  0.00000000E+00  0.00000000E+00  0.00000000E+00
  0.00000000E+00  0.00000000E+00  0.00000000E+00
  0.00000000E+00  0.00000000E+00  0.00000000E+00
  0.00000000E+00  0.00000000E+00  0.00000000E+00
  0.00000000E+00  0.00000000E+00  0.00000000E+00
  0.00000000E+00  0.00000000E+00  0.00000000E+00
  0.00000000E+00  0.00000000E+00  0.00000000E+00
  0.00000000E+00  0.00000000E+00  0.00000000E+00
  0.00000000E+00  0.00000000E+00  0.00000000E+00
  0.00000000E+00  0.00000000E+00  0.00000000E+00
  0.00000000E+00  0.00000000E+00  0.00000000E+00
  0.00000000E+00  0.00000000E+00  0.00000000E+00
  0.00000000E+00  0.00000000E+00  0.00000000E+00
  0.00000000E+00  0.00000000E+00  0.00000000E+00
  0.00000000E+00  0.00000000E+00  0.00000000E+00
  0.00000000E+00  0.00000000E+00  0.00000000E+00
  0.00000000E+00  0.00000000E+00  0.00000000E+00
  0.00000000E+00  0.00000000E+00  0.00000000E+00
  0.00000000E+00  0.00000000E+00  0.00000000E+00
  0.00000000E+00  0.00000000E+00  0.00000000E+00
  0.00000000E+00  0.00000000E+00  0.00000000E+00
  0.00000000E+00  0.00000000E+00  0.00000000E+00
  0.00000000E+00  0.00000000E+00  0.00000000E+00
  0.00000000E+00  0.00000000E+00  0.00000000E+00
  0.00000000E+00  0.00000000E+00  0.00000000E+00
  0.00000000E+00  0.00000000E+00  0.00000000E+00
  0.00000000E+00  0.00000000E+00  0.00000000E+00
  0.00000000E+00  0.00000000E+00  0.00000000E+00
  0.00000000E+00  0.00000000E+00  0.00000000E+00
  0.00000000E+00  0.00000000E+00  0.00000000E+00
  0.00000000E+00  0.00000000E+00  0.00000000E+00
  0.00000000E+00  0.00000000E+00  0.00000000E+00
