SrTiFeO                                 
   1.00000000000000     
    11.1989999999999998    0.0000000000000000    0.0000000000000000
     0.0000000000000000   11.1989999999999998    0.0000000000000000
     0.0000000000000000    0.0000000000000000   15.9830000000000005
   Sr   Ti   Fe   O 
    32    30     2    94
Direct
  0.0001769818757922  0.2498319091006466  0.1242722177879145
  0.0047910682405609  0.2489306982738811  0.6281981348769301
  0.9993443030409705  0.7499049222677424  0.1250186753092853
  0.9955212366239702  0.7515124627948578  0.6253391901380899
  0.5007534565736728  0.2494391790831273  0.1234551381475511
  0.4954591604337932  0.2384354676489293  0.6283292644985748
  0.5010644486333531  0.7504918235180561  0.1239634562508847
  0.5059713210523450  0.7592614558772041  0.6274758367432572
  0.0068636042657534  0.2501543500303688  0.3731345116703709
  0.9993490536949566  0.2504068935864284  0.8745965018256419
  0.9949247132225619  0.7497823435417547  0.3756897060170384
  0.9996372747081262  0.7505400529979108  0.8740265121505861
  0.4950676179433756  0.2399589837358043  0.3693396481861754
  0.4994143244373508  0.2502208908757819  0.8748875478234187
  0.5026161178792681  0.7586003007869990  0.3725616284188273
  0.5012256130182091  0.7506525378347985  0.8748036955686285
  0.2489968805305176  0.9997390095971326  0.1247447639693566
  0.2486863303115120  0.9998281812561930  0.6261905940621910
  0.2501675907468365  0.5004080963155420  0.1248762154773497
  0.2411362496886557  0.4989131956465608  0.6262996961215870
  0.7511877244282531  0.0000805627745954  0.1250950266184839
  0.7500822672284673  0.9931077266592068  0.6254374959486622
  0.7510700613337473  0.5010765939300510  0.1228421336595218
  0.7616673984218896  0.5038232385333601  0.6296794433069023
  0.2497997005358155  0.9990451314830964  0.3752530415591090
  0.2492211145442267  0.0004829407350239  0.8743871586971377
  0.2411199873289596  0.4984655365438622  0.3722443143531025
  0.2498583431003499  0.5008099932159424  0.8749877515065333
  0.7487193961527258  0.9916438267490167  0.3756768642818386
  0.7515238770804034  0.0001373966808569  0.8736541282460600
  0.7540803494051553  0.5052759809951421  0.3734822638256731
  0.7494706365178929  0.5004609115338614  0.8750604959065030
  0.9997487539935385  0.0004268175234462  0.9995016553008007
  0.0018153156883557  0.9945862733978260  0.4994226995597940
  0.0003556211731075  0.4999895305469096  0.9999577718069467
  0.9986740410824095  0.5022271647216036  0.4999803992432805
  0.4996925008663406  0.0000700684759734  0.9997185881791839
  0.4998530275384026  0.9986239546468154  0.4998302799355180
  0.4995968869252144  0.5003266984770496  0.0009027954339385
  0.2504680341610064  0.2503155761057308  0.9996790217807779
  0.2498100684339893  0.2483492283773252  0.5008900112661916
  0.2505274198924465  0.7494519887136208  0.9996228257243326
  0.2489485650589860  0.7502900415834380  0.5013872600406066
  0.7501749056948327  0.2498562935273509  0.9997952878453128
  0.7630325999314733  0.2430828133078888  0.4992689734962875
  0.7498633073938160  0.7501965015390151  0.9997850068604590
  0.2506436699553264  0.2501329763889358  0.2485473095071905
  0.2515189355760063  0.2517204590149028  0.7499598138153665
  0.2503090548628322  0.7489455970637049  0.2505962344446657
  0.2511466103804462  0.7484565166262495  0.7486481044180693
  0.7495379322527447  0.2511795554258196  0.2500415011350807
  0.7469442899350470  0.2529173292795460  0.7486227020368018
  0.7493781992753825  0.7492288448288912  0.2502308231287807
  0.7484297798252643  0.7486734202072816  0.7494833801930670
  0.9997129723899100  0.9999508311949179  0.2507299655398689
  0.0002094033887948  0.0001565555863346  0.7505309181071591
  0.9992299933268292  0.4995721713854067  0.2492187460867855
  0.0005077866782934  0.5002321808603607  0.7516503047214729
  0.5000857327368523  0.9995009617498173  0.2481304102851644
  0.4999491085884716  0.9999051640678219  0.7516394306978864
  0.5011400409275518  0.4986629479462170  0.2471652030198486
  0.4922531045374290  0.5087228146358794  0.4906683877910195
  0.4992754841031830  0.5006073180680185  0.7598230170867908
  0.7491402692562278  0.7469459593466221  0.5011946490508132
  0.1108727112189121  0.1407050206158109  0.2500737676872629
  0.1109526258443328  0.1403164124712681  0.7538152997439158
  0.1101176859182405  0.6395756048926571  0.2517713370205091
  0.1113117024604431  0.6384941335294889  0.7503560030896482
  0.6093786091723556  0.1405357703847409  0.2486887707677203
  0.6101088918187979  0.1396536346443743  0.7510569255599696
  0.6067720430303306  0.6392633131143584  0.2486361428928933
  0.3916243414112172  0.3579567022054751  0.2469343220590338
  0.3892808512158960  0.3639423048582026  0.7401220283802553
  0.3909155777848387  0.8586026173679978  0.2488686781895914
  0.3887896993120165  0.8617944784226212  0.7502180818495096
  0.8912081145864998  0.3583130554748290  0.2511239072011168
  0.8879846509577046  0.3618863401986822  0.7487180496574589
  0.8903567582558294  0.8606232992835838  0.2490100352010290
  0.8891340464670531  0.8636125056264340  0.7539758139642506
  0.3596131877432009  0.1094988962392701  0.2513727336399273
  0.3616519903072044  0.1122309544107544  0.7495758440614971
  0.3601396711570106  0.6064511241066511  0.2541971719346183
  0.3629197852865701  0.6109080422564445  0.7388853976652506
  0.8586019954894798  0.1107328972586048  0.2554000802958933
  0.8594561188754466  0.1136299882881438  0.7456877972774575
  0.8604360473906624  0.6083979101334732  0.2472546898438848
  0.8631555320101123  0.6113853358396214  0.7539740186921631
  0.1407757152793649  0.3900534078105152  0.2485662885896074
  0.1385728466664454  0.3889716395321934  0.7512569536401796
  0.1409993388320905  0.8891330565212470  0.2504032407563724
  0.1388344950702046  0.8899942276601347  0.7543296756725488
  0.6422650203737542  0.3909247555505376  0.2428321402062580
  0.6391246930238480  0.8906219170666535  0.2479493625388516
  0.6374012340166718  0.8900756379881354  0.7525744224109384
  0.3587407983699401  0.3912641707420817  0.0016164449929863
  0.3584698625882674  0.8908322100786430  0.0000529804542708
  0.3581058873254849  0.8910170837776914  0.5004239907601158
  0.8592636336844497  0.3906551183482302  0.9996567073724367
  0.8528432307438819  0.3934964510932941  0.4994534232524783
  0.8594554298076588  0.8909082866234248  0.9997014343677624
  0.8628889152268696  0.9010328475807986  0.4987884112377335
  0.1411626720244288  0.1097223325926636  0.9988340802655480
  0.1423692611040136  0.1098935420022099  0.4975295514813841
  0.1410736113172334  0.6088397031956739  0.9999811018938060
  0.1437193097744466  0.6074573169783639  0.4990971565529330
  0.6407522832697047  0.1095018584386613  0.9993732281116273
  0.6349938790264330  0.1222131232202957  0.4988541299976280
  0.6400436043860084  0.6085433116989596  0.0006151740921048
  0.1094452387589561  0.3586706107694382  0.9997511165575251
  0.1114300739510416  0.3598281592867628  0.5004191323541249
  0.1096322647023358  0.8593567486965246  0.9995334642394067
  0.1085176429163864  0.8570649318377890  0.4971310254307825
  0.6093832359537356  0.3593119285685124  0.0014779020346357
  0.6082873012499954  0.8599273898412166  0.0000556431812372
  0.6065558710957849  0.8651115574291276  0.4994767714088153
  0.3910586701135177  0.1413267978798986  0.9997647057443430
  0.3885492953359488  0.1389677001523879  0.4990113348027947
  0.3911665444746902  0.6414898341611059  0.0006095096847408
  0.3897863294122959  0.6415132352508098  0.5163750207996765
  0.8903715429593010  0.1413608197455138  0.9986973689583312
  0.8960932363243794  0.1458508341355457  0.4980365032442773
  0.8911400296825054  0.6401545399154116  0.9997983794907647
  0.9992021570476967  0.0028068798364608  0.1251793156029301
  0.0046319224110777  0.0008232486914293  0.6252669464786726
  0.0008365964272187  0.4990971151646204  0.1246903044605707
  0.0010987994839980  0.4990592542703618  0.6257983283529867
  0.4981987047431481  0.0012946176233192  0.1243713996067165
  0.5006419322961050  0.0016462825766869  0.6256832197887658
  0.4968461300956485  0.5017776457909681  0.1246914895860153
  0.0034236067362025  0.0008875124536274  0.3739809439874816
  0.9975805796640828  0.0031745882974998  0.8758857816002539
  0.0014362405469669  0.4974838707436993  0.3741123461386138
  0.0011979531751080  0.4983632396442171  0.8756633839216623
  0.5000205086728998  0.9993367473637980  0.3736460217291337
  0.4979217239005050  0.0010626948625274  0.8755513824678117
  0.4969991158805014  0.4990137139932126  0.8776785410887258
  0.2534860038428722  0.2572407999735951  0.3750993342276082
  0.2559553058436571  0.2540325214814972  0.8746196456824372
  0.2566226210387607  0.7473102817423092  0.3765277961659320
  0.2536357533595671  0.7448586515411033  0.8744875128556026
  0.7359977420085217  0.2632217026334414  0.3777002534562555
  0.7477425283470251  0.2536797220242232  0.8736060674535125
  0.7463545229325250  0.7460876179693537  0.3689602706250983
  0.7461506483423428  0.7478565168719028  0.8764673352157487
  0.2498608140856570  0.2481053998988411  0.1245642399840994
  0.2434790067807864  0.2443017662134564  0.6257900135539080
  0.2503171685793898  0.7473046526192131  0.1257487008222656
  0.2396856619726911  0.7585863948527345  0.6254882090679860
  0.7538333012252444  0.2465695737858210  0.1248871660440544
  0.7410023739945407  0.2571817018877600  0.6206259246141350
  0.7496437543516150  0.7497850926648364  0.1235755280798415
  0.6360281924682843  0.3910022943163584  0.7432878655819117
  0.6090495918558624  0.6366108519044203  0.7447370971171793
  0.5124414619860800  0.4803953361395396  0.3743062345568717
  0.3715720143427866  0.3844781766943728  0.5133388516966841
  0.7540379528093770  0.7551745580057796  0.6317677403184760
  0.8968961470669027  0.6380406176597284  0.4994935975518152
  0.6381742062981141  0.5850237807888652  0.5143500067719260
 
  0.00000000E+00  0.00000000E+00  0.00000000E+00
  0.00000000E+00  0.00000000E+00  0.00000000E+00
  0.00000000E+00  0.00000000E+00  0.00000000E+00
  0.00000000E+00  0.00000000E+00  0.00000000E+00
  0.00000000E+00  0.00000000E+00  0.00000000E+00
  0.00000000E+00  0.00000000E+00  0.00000000E+00
  0.00000000E+00  0.00000000E+00  0.00000000E+00
  0.00000000E+00  0.00000000E+00  0.00000000E+00
  0.00000000E+00  0.00000000E+00  0.00000000E+00
  0.00000000E+00  0.00000000E+00  0.00000000E+00
  0.00000000E+00  0.00000000E+00  0.00000000E+00
  0.00000000E+00  0.00000000E+00  0.00000000E+00
  0.00000000E+00  0.00000000E+00  0.00000000E+00
  0.00000000E+00  0.00000000E+00  0.00000000E+00
  0.00000000E+00  0.00000000E+00  0.00000000E+00
  0.00000000E+00  0.00000000E+00  0.00000000E+00
  0.00000000E+00  0.00000000E+00  0.00000000E+00
  0.00000000E+00  0.00000000E+00  0.00000000E+00
  0.00000000E+00  0.00000000E+00  0.00000000E+00
  0.00000000E+00  0.00000000E+00  0.00000000E+00
  0.00000000E+00  0.00000000E+00  0.00000000E+00
  0.00000000E+00  0.00000000E+00  0.00000000E+00
  0.00000000E+00  0.00000000E+00  0.00000000E+00
  0.00000000E+00  0.00000000E+00  0.00000000E+00
  0.00000000E+00  0.00000000E+00  0.00000000E+00
  0.00000000E+00  0.00000000E+00  0.00000000E+00
  0.00000000E+00  0.00000000E+00  0.00000000E+00
  0.00000000E+00  0.00000000E+00  0.00000000E+00
  0.00000000E+00  0.00000000E+00  0.00000000E+00
  0.00000000E+00  0.00000000E+00  0.00000000E+00
  0.00000000E+00  0.00000000E+00  0.00000000E+00
  0.00000000E+00  0.00000000E+00  0.00000000E+00
  0.00000000E+00  0.00000000E+00  0.00000000E+00
  0.00000000E+00  0.00000000E+00  0.00000000E+00
  0.00000000E+00  0.00000000E+00  0.00000000E+00
  0.00000000E+00  0.00000000E+00  0.00000000E+00
  0.00000000E+00  0.00000000E+00  0.00000000E+00
  0.00000000E+00  0.00000000E+00  0.00000000E+00
  0.00000000E+00  0.00000000E+00  0.00000000E+00
  0.00000000E+00  0.00000000E+00  0.00000000E+00
  0.00000000E+00  0.00000000E+00  0.00000000E+00
  0.00000000E+00  0.00000000E+00  0.00000000E+00
  0.00000000E+00  0.00000000E+00  0.00000000E+00
  0.00000000E+00  0.00000000E+00  0.00000000E+00
  0.00000000E+00  0.00000000E+00  0.00000000E+00
  0.00000000E+00  0.00000000E+00  0.00000000E+00
  0.00000000E+00  0.00000000E+00  0.00000000E+00
  0.00000000E+00  0.00000000E+00  0.00000000E+00
  0.00000000E+00  0.00000000E+00  0.00000000E+00
  0.00000000E+00  0.00000000E+00  0.00000000E+00
  0.00000000E+00  0.00000000E+00  0.00000000E+00
  0.00000000E+00  0.00000000E+00  0.00000000E+00
  0.00000000E+00  0.00000000E+00  0.00000000E+00
  0.00000000E+00  0.00000000E+00  0.00000000E+00
  0.00000000E+00  0.00000000E+00  0.00000000E+00
  0.00000000E+00  0.00000000E+00  0.00000000E+00
  0.00000000E+00  0.00000000E+00  0.00000000E+00
  0.00000000E+00  0.00000000E+00  0.00000000E+00
  0.00000000E+00  0.00000000E+00  0.00000000E+00
  0.00000000E+00  0.00000000E+00  0.00000000E+00
  0.00000000E+00  0.00000000E+00  0.00000000E+00
  0.00000000E+00  0.00000000E+00  0.00000000E+00
  0.00000000E+00  0.00000000E+00  0.00000000E+00
  0.00000000E+00  0.00000000E+00  0.00000000E+00
  0.00000000E+00  0.00000000E+00  0.00000000E+00
  0.00000000E+00  0.00000000E+00  0.00000000E+00
  0.00000000E+00  0.00000000E+00  0.00000000E+00
  0.00000000E+00  0.00000000E+00  0.00000000E+00
  0.00000000E+00  0.00000000E+00  0.00000000E+00
  0.00000000E+00  0.00000000E+00  0.00000000E+00
  0.00000000E+00  0.00000000E+00  0.00000000E+00
  0.00000000E+00  0.00000000E+00  0.00000000E+00
  0.00000000E+00  0.00000000E+00  0.00000000E+00
  0.00000000E+00  0.00000000E+00  0.00000000E+00
  0.00000000E+00  0.00000000E+00  0.00000000E+00
  0.00000000E+00  0.00000000E+00  0.00000000E+00
  0.00000000E+00  0.00000000E+00  0.00000000E+00
  0.00000000E+00  0.00000000E+00  0.00000000E+00
  0.00000000E+00  0.00000000E+00  0.00000000E+00
  0.00000000E+00  0.00000000E+00  0.00000000E+00
  0.00000000E+00  0.00000000E+00  0.00000000E+00
  0.00000000E+00  0.00000000E+00  0.00000000E+00
  0.00000000E+00  0.00000000E+00  0.00000000E+00
  0.00000000E+00  0.00000000E+00  0.00000000E+00
  0.00000000E+00  0.00000000E+00  0.00000000E+00
  0.00000000E+00  0.00000000E+00  0.00000000E+00
  0.00000000E+00  0.00000000E+00  0.00000000E+00
  0.00000000E+00  0.00000000E+00  0.00000000E+00
  0.00000000E+00  0.00000000E+00  0.00000000E+00
  0.00000000E+00  0.00000000E+00  0.00000000E+00
  0.00000000E+00  0.00000000E+00  0.00000000E+00
  0.00000000E+00  0.00000000E+00  0.00000000E+00
  0.00000000E+00  0.00000000E+00  0.00000000E+00
  0.00000000E+00  0.00000000E+00  0.00000000E+00
  0.00000000E+00  0.00000000E+00  0.00000000E+00
  0.00000000E+00  0.00000000E+00  0.00000000E+00
  0.00000000E+00  0.00000000E+00  0.00000000E+00
  0.00000000E+00  0.00000000E+00  0.00000000E+00
  0.00000000E+00  0.00000000E+00  0.00000000E+00
  0.00000000E+00  0.00000000E+00  0.00000000E+00
  0.00000000E+00  0.00000000E+00  0.00000000E+00
  0.00000000E+00  0.00000000E+00  0.00000000E+00
  0.00000000E+00  0.00000000E+00  0.00000000E+00
  0.00000000E+00  0.00000000E+00  0.00000000E+00
  0.00000000E+00  0.00000000E+00  0.00000000E+00
  0.00000000E+00  0.00000000E+00  0.00000000E+00
  0.00000000E+00  0.00000000E+00  0.00000000E+00
  0.00000000E+00  0.00000000E+00  0.00000000E+00
  0.00000000E+00  0.00000000E+00  0.00000000E+00
  0.00000000E+00  0.00000000E+00  0.00000000E+00
  0.00000000E+00  0.00000000E+00  0.00000000E+00
  0.00000000E+00  0.00000000E+00  0.00000000E+00
  0.00000000E+00  0.00000000E+00  0.00000000E+00
  0.00000000E+00  0.00000000E+00  0.00000000E+00
  0.00000000E+00  0.00000000E+00  0.00000000E+00
  0.00000000E+00  0.00000000E+00  0.00000000E+00
  0.00000000E+00  0.00000000E+00  0.00000000E+00
  0.00000000E+00  0.00000000E+00  0.00000000E+00
  0.00000000E+00  0.00000000E+00  0.00000000E+00
  0.00000000E+00  0.00000000E+00  0.00000000E+00
  0.00000000E+00  0.00000000E+00  0.00000000E+00
  0.00000000E+00  0.00000000E+00  0.00000000E+00
  0.00000000E+00  0.00000000E+00  0.00000000E+00
  0.00000000E+00  0.00000000E+00  0.00000000E+00
  0.00000000E+00  0.00000000E+00  0.00000000E+00
  0.00000000E+00  0.00000000E+00  0.00000000E+00
  0.00000000E+00  0.00000000E+00  0.00000000E+00
  0.00000000E+00  0.00000000E+00  0.00000000E+00
  0.00000000E+00  0.00000000E+00  0.00000000E+00
  0.00000000E+00  0.00000000E+00  0.00000000E+00
  0.00000000E+00  0.00000000E+00  0.00000000E+00
  0.00000000E+00  0.00000000E+00  0.00000000E+00
  0.00000000E+00  0.00000000E+00  0.00000000E+00
  0.00000000E+00  0.00000000E+00  0.00000000E+00
  0.00000000E+00  0.00000000E+00  0.00000000E+00
  0.00000000E+00  0.00000000E+00  0.00000000E+00
  0.00000000E+00  0.00000000E+00  0.00000000E+00
  0.00000000E+00  0.00000000E+00  0.00000000E+00
  0.00000000E+00  0.00000000E+00  0.00000000E+00
  0.00000000E+00  0.00000000E+00  0.00000000E+00
  0.00000000E+00  0.00000000E+00  0.00000000E+00
  0.00000000E+00  0.00000000E+00  0.00000000E+00
  0.00000000E+00  0.00000000E+00  0.00000000E+00
  0.00000000E+00  0.00000000E+00  0.00000000E+00
  0.00000000E+00  0.00000000E+00  0.00000000E+00
  0.00000000E+00  0.00000000E+00  0.00000000E+00
  0.00000000E+00  0.00000000E+00  0.00000000E+00
  0.00000000E+00  0.00000000E+00  0.00000000E+00
  0.00000000E+00  0.00000000E+00  0.00000000E+00
  0.00000000E+00  0.00000000E+00  0.00000000E+00
  0.00000000E+00  0.00000000E+00  0.00000000E+00
  0.00000000E+00  0.00000000E+00  0.00000000E+00
  0.00000000E+00  0.00000000E+00  0.00000000E+00
  0.00000000E+00  0.00000000E+00  0.00000000E+00
  0.00000000E+00  0.00000000E+00  0.00000000E+00
  0.00000000E+00  0.00000000E+00  0.00000000E+00
  0.00000000E+00  0.00000000E+00  0.00000000E+00
  0.00000000E+00  0.00000000E+00  0.00000000E+00
