Sr   Ti   Fe   O                        
   1.00000000000000     
    11.1989999999999998    0.0000000000000000    0.0000000000000000
     0.0000000000000000   11.1989999999999998    0.0000000000000000
     0.0000000000000000    0.0000000000000000   15.9830000000000005
   Sr   Ti   Fe   O 
    32    29     3    94
Direct
  1.0001868186950580  0.2496306636383682  0.1243489526916947
  0.0058605341874573  0.2480771125093854  0.6289325624122689
  0.9987446497297969  0.7508308631834117  0.1252193996191806
  0.9962326479434331  0.7497615949369749  0.6253510909861366
  0.5002582708502695  0.2506257060309009  0.1246849107058320
  0.4968587409918078  0.2411487475479097  0.6280554813390924
  0.5006084634453397  0.7508473488005135  0.1237742177224393
  0.5055243702640697  0.7435025966613688  0.6253032344515626
  0.0068697783148307  0.2498341109620499  0.3730032981282498
  0.9997658324590213  0.2500470191523381  0.8748462028634701
  0.9973119732314421  0.7479057704781532  0.3755794471489159
  0.9992852543718151  0.7508074190677098  0.8734696887277420
  0.4956886302475112  0.2410044172634025  0.3712521436709195
  0.5001351576999321  0.2503853960311976  0.8748770899140533
  0.4999681080653824  0.7560825719741465  0.3712394679646535
  0.5014854138472080  0.7508999140505257  0.8753778508215275
  0.2495515009911924  1.0003700962820288  0.1246246543744391
  0.2495455388778557  0.9992917042858649  0.6263744690945610
  0.2508052847593887  0.5010494349664325  0.1251210240166533
  0.2406915180831764  0.4972809881457640  0.6271257658481454
  0.7502861167149126  0.9996146258457238  0.1251885278019793
  0.7480769887634668  0.9940205976642791  0.6263935064117975
  0.7502342468523315  0.5015010682240468  0.1232842062931716
  0.7666035704646901  0.4988084963781154  0.6336885421843365
  0.2487244389523229  0.9996206409364882  0.3743718543476636
  0.2497094159805418  0.0001716875181457  0.8741246838417267
  0.2404857451917066  0.4993329457206468  0.3729605840338028
  0.2511670364816460  0.5008398648906555  0.8753008828695005
  0.7470951164655272  0.9929445863783090  0.3757292108931763
  0.7512432974735697  0.0000592332511602  0.8740212929981565
  0.7566405096086344  0.4999357636945256  0.3703581417228822
  0.7493354152857158  0.5013690951916443  0.8755118453739824
  0.9994749903185453  0.0004099202002475  0.9996446193419515
  0.0020151386762031  0.9950731141302480  0.4996785770125173
  0.0004250882662903  0.4999912984380200  1.0000620732870953
  0.9983579806393391  0.5018881926927431  0.4999763832012864
  0.4998822779948918  0.0004051918338272  0.9996973762155311
  0.4983228931612033  0.9970827026527482  0.5004786515797167
  0.4991864478139721  0.5003620312916008  0.0017766152497214
  0.2507929730167842  0.2506371355530813  0.9999300217385655
  0.2490156104872973  0.2471991761417275  0.5009485783820651
  0.2504852918511144  0.7497300079274080  0.9996858270700054
  0.2478986777971985  0.7517256863470373  0.4997814164470931
  0.7503557669338383  0.2499462562436495  1.0000607145206839
  0.7636253906459337  0.2423103493215351  0.4999036471457953
  0.7504214482762223  0.7507072323462503  1.0000855551809145
  0.2508076014843660  0.2501607390086810  0.2493080762247022
  0.2526257340855278  0.2512448195198506  0.7501726709239330
  0.2488449981826958  0.7499878486386461  0.2501249947423060
  0.2527965020281412  0.7477830590847191  0.7483315976692742
  0.7487468065162618  0.2502714590625477  0.2499981773414636
  0.7472964795131627  0.2517762533464817  0.7498063547319087
  0.7489021987075389  0.7484372438199103  0.2513655806830826
  0.7480756843253382  0.7486646699633155  0.7495408829845107
  0.9992392037621692  0.9999306338704588  0.2507770918008868
  0.0005192597894803  0.9998082278452195  0.7499580727261526
 -0.0000892884487050  0.4990571830795120  0.2486847848601933
  0.0017888048255141  0.4999954182660654  0.7522566855215824
  0.4997252697887800  0.9993268753085259  0.2490257415361882
  0.5001236703174557  0.9986167335276936  0.7504713719208563
  0.5014045344056673  0.4998214854514966  0.2499167040509207
  0.5012149615739556  0.5000651683913111  0.7600540996267711
  0.4764818798471779  0.5074452862126140  0.4887004592865081
  0.7532336806521691  0.7537215907493500  0.5014770404179312
  0.1103659442135412  0.1408931286205216  0.2492372931996932
  0.1117236364615292  0.1395532000529091  0.7542075729614560
  0.1097214519124006  0.6391481258892359  0.2500711295172069
  0.1135229049969975  0.6374267154008029  0.7504160704994358
  0.6089919758451658  0.1406004143131744  0.2493911393277621
  0.6108051599242966  0.1390353701804329  0.7511546678146216
  0.6079444634858384  0.6402370294082615  0.2451136960768167
  0.3917945842522603  0.3595676635371043  0.2514766699495249
  0.3899120307723055  0.3638489893760766  0.7398431797960507
  0.3897938830215296  0.8595366199596988  0.2487948118877746
  0.3894770232945651  0.8610422082365509  0.7491853761414943
  0.8901438469273807  0.3588069897114648  0.2520139631237037
  0.8886657478484675  0.3618001249212143  0.7486452891181599
  0.8890659966505539  0.8599850997586956  0.2530262846611217
  0.8890463186135251  0.8634525531607958  0.7508711943293354
  0.3598882368490136  0.1101933973754713  0.2512955625007745
  0.3621423566694398  0.1120732229441224  0.7498571438587140
  0.3601296636519041  0.6085422990911092  0.2560925459963601
  0.3654343440325495  0.6104824849738005  0.7379855617121659
  0.8579395750608043  0.1107256438524700  0.2559326445565477
  0.8601330666012924  0.1134558642026295  0.7452921623832457
  0.8606524832211221  0.6086374905946322  0.2480984719659237
  0.8658296481769689  0.6132225325898329  0.7543423823292686
  0.1407632521271215  0.3899554368758231  0.2484429345424332
  0.1392548336517246  0.3884676298180106  0.7518194399482589
  0.1392086019827755  0.8903160476934245  0.2468476179599079
  0.1394219221792234  0.8884899816994453  0.7523638138927139
  0.6418515845797776  0.3907250894057677  0.2433843418488606
  0.6393751954039849  0.8902293972753219  0.2498369070333808
  0.6386450250287625  0.8902532709567094  0.7522866647142842
  0.3583197015020930  0.3913784802093336  0.0021197293782028
  0.3585459791074765  0.8910275519376133  1.0001200302100588
  0.3529924895818303  0.8952532006520343  0.4997961818912014
  0.8590704158558669  0.3908149715267745  0.9999504046320045
  0.8509705036006254  0.3934137456360933  0.4991881437843677
  0.8595521039023908  0.8915740355413405  1.0003791364310011
  0.8601876403833645  0.9043075612933139  0.4990763094265869
  0.1411367184362494  0.1096519154660484  0.9994295979439374
  0.1423956137066786  0.1087795379435300  0.4982886252928188
  0.1411664423340424  0.6087588819081744  0.9998970213050375
  0.1416775005494475  0.6080172212864851  0.4988936660893040
  0.6409852168934084  0.1095470535184242  0.9995016929761134
  0.6347913019246645  0.1220743783067831  0.4989412742159021
  0.6401921740107662  0.6092633882754939  0.0007437734309861
  0.1094313346109124  0.3584307846375110  1.0000706363534309
  0.1102972322406371  0.3589220327279791  0.5002682041841997
  0.1095258268054415  0.8593354934555556  0.9994528183124683
  0.1045164682847010  0.8561637586780384  0.4992239375733190
  0.6096460813924784  0.3594218080095730  0.0015727162220258
  0.6087707718479656  0.8599528292703090  0.0005115702047387
  0.6017238449259676  0.8622672327364265  0.5005869044239959
  0.3913073040832227  0.1413589689199340  1.0001109967198258
  0.3886774929429708  0.1404722678018561  0.4995205728956537
  0.3911571075912227  0.6416623553721077  0.0009319394354659
  0.3886219819666591  0.6496673496931548  0.4955569275674050
  0.8910284296079926  0.1416157687005986  0.9991371073398092
  0.8969249687258379  0.1469378578942420  0.4989093792026712
  0.8913373768227943  0.6402450762996316  0.9999820585428143
  0.9965625948612791  0.0021647926416036  0.1254664313080988
  0.0048876349478114  0.0020622602671549  0.6252040993366962
  0.0000973995585491  0.4982689876340546  0.1246862368607406
  0.0034483297966458  0.4987864334254051  0.6259616350652003
  0.4991120110749719  0.0009388260345651  0.1248412884657884
  0.5003184992620088  0.0031326956456065  0.6257347295319732
  0.4952973884709460  0.5005600182128837  0.1255521503977632
  0.0047179628561287  0.0015818330865964  0.3743029439489445
  0.9972951853489462  0.0017074844654496  0.8754459250074462
  0.0024127690434598  0.4972914264614245  0.3738861628569816
  0.0013136439129642  0.4979006599653094  0.8758545919915776
  0.4993718502476259  0.9999483992557069  0.3739831805358401
  0.4982141424679000  0.0001653848990646  0.8754445768433970
  0.4945540684282189  0.4980452559895557  0.8784259783399754
  0.2510755142932805  0.2548587942131423  0.3751379130445125
  0.2564532684173015  0.2538997858785288  0.8749655383344108
  0.2448911374909608  0.7548942517286740  0.3739668307242840
  0.2547499540116135  0.7452653963474453  0.8739632105430848
  0.7351945620446936  0.2627119453255402  0.3782103095550948
  0.7500235390042456  0.2514824304340482  0.8743628017632352
  0.7413332685232048  0.7389106280755818  0.3728231224862471
  0.7499920637377288  0.7510765176475085  0.8768194255861386
  0.2517870848439399  0.2493295568440445  0.1252332569490950
  0.2432807502787744  0.2447579980947097  0.6260119183474006
  0.2507465116388610  0.7471929220773793  0.1251504885072198
  0.2446397088293679  0.7531631425332719  0.6237707526149816
  0.7534954848971339  0.2464885084300972  0.1253495041235321
  0.7391191423757634  0.2578011467123046  0.6210073025837934
  0.7518838120377671  0.7513615907791572  0.1246504918998761
  0.6374389942886360  0.3895718108440111  0.7483027960384542
  0.6119004221815075  0.6375697591648314  0.7522848287341961
  0.5213078121889696  0.4933485773341618  0.3755282924468515
  0.3687598932670632  0.3838622186015632  0.5112306612939448
  0.7496636108102157  0.7512065589169796  0.6293502608335059
  0.8923842992087614  0.6343914632450526  0.4990638048407929
  0.5907465102795707  0.5397894861471115  0.5634952452357056
 
  0.00000000E+00  0.00000000E+00  0.00000000E+00
  0.00000000E+00  0.00000000E+00  0.00000000E+00
  0.00000000E+00  0.00000000E+00  0.00000000E+00
  0.00000000E+00  0.00000000E+00  0.00000000E+00
  0.00000000E+00  0.00000000E+00  0.00000000E+00
  0.00000000E+00  0.00000000E+00  0.00000000E+00
  0.00000000E+00  0.00000000E+00  0.00000000E+00
  0.00000000E+00  0.00000000E+00  0.00000000E+00
  0.00000000E+00  0.00000000E+00  0.00000000E+00
  0.00000000E+00  0.00000000E+00  0.00000000E+00
  0.00000000E+00  0.00000000E+00  0.00000000E+00
  0.00000000E+00  0.00000000E+00  0.00000000E+00
  0.00000000E+00  0.00000000E+00  0.00000000E+00
  0.00000000E+00  0.00000000E+00  0.00000000E+00
  0.00000000E+00  0.00000000E+00  0.00000000E+00
  0.00000000E+00  0.00000000E+00  0.00000000E+00
  0.00000000E+00  0.00000000E+00  0.00000000E+00
  0.00000000E+00  0.00000000E+00  0.00000000E+00
  0.00000000E+00  0.00000000E+00  0.00000000E+00
  0.00000000E+00  0.00000000E+00  0.00000000E+00
  0.00000000E+00  0.00000000E+00  0.00000000E+00
  0.00000000E+00  0.00000000E+00  0.00000000E+00
  0.00000000E+00  0.00000000E+00  0.00000000E+00
  0.00000000E+00  0.00000000E+00  0.00000000E+00
  0.00000000E+00  0.00000000E+00  0.00000000E+00
  0.00000000E+00  0.00000000E+00  0.00000000E+00
  0.00000000E+00  0.00000000E+00  0.00000000E+00
  0.00000000E+00  0.00000000E+00  0.00000000E+00
  0.00000000E+00  0.00000000E+00  0.00000000E+00
  0.00000000E+00  0.00000000E+00  0.00000000E+00
  0.00000000E+00  0.00000000E+00  0.00000000E+00
  0.00000000E+00  0.00000000E+00  0.00000000E+00
  0.00000000E+00  0.00000000E+00  0.00000000E+00
  0.00000000E+00  0.00000000E+00  0.00000000E+00
  0.00000000E+00  0.00000000E+00  0.00000000E+00
  0.00000000E+00  0.00000000E+00  0.00000000E+00
  0.00000000E+00  0.00000000E+00  0.00000000E+00
  0.00000000E+00  0.00000000E+00  0.00000000E+00
  0.00000000E+00  0.00000000E+00  0.00000000E+00
  0.00000000E+00  0.00000000E+00  0.00000000E+00
  0.00000000E+00  0.00000000E+00  0.00000000E+00
  0.00000000E+00  0.00000000E+00  0.00000000E+00
  0.00000000E+00  0.00000000E+00  0.00000000E+00
  0.00000000E+00  0.00000000E+00  0.00000000E+00
  0.00000000E+00  0.00000000E+00  0.00000000E+00
  0.00000000E+00  0.00000000E+00  0.00000000E+00
  0.00000000E+00  0.00000000E+00  0.00000000E+00
  0.00000000E+00  0.00000000E+00  0.00000000E+00
  0.00000000E+00  0.00000000E+00  0.00000000E+00
  0.00000000E+00  0.00000000E+00  0.00000000E+00
  0.00000000E+00  0.00000000E+00  0.00000000E+00
  0.00000000E+00  0.00000000E+00  0.00000000E+00
  0.00000000E+00  0.00000000E+00  0.00000000E+00
  0.00000000E+00  0.00000000E+00  0.00000000E+00
  0.00000000E+00  0.00000000E+00  0.00000000E+00
  0.00000000E+00  0.00000000E+00  0.00000000E+00
  0.00000000E+00  0.00000000E+00  0.00000000E+00
  0.00000000E+00  0.00000000E+00  0.00000000E+00
  0.00000000E+00  0.00000000E+00  0.00000000E+00
  0.00000000E+00  0.00000000E+00  0.00000000E+00
  0.00000000E+00  0.00000000E+00  0.00000000E+00
  0.00000000E+00  0.00000000E+00  0.00000000E+00
  0.00000000E+00  0.00000000E+00  0.00000000E+00
  0.00000000E+00  0.00000000E+00  0.00000000E+00
  0.00000000E+00  0.00000000E+00  0.00000000E+00
  0.00000000E+00  0.00000000E+00  0.00000000E+00
  0.00000000E+00  0.00000000E+00  0.00000000E+00
  0.00000000E+00  0.00000000E+00  0.00000000E+00
  0.00000000E+00  0.00000000E+00  0.00000000E+00
  0.00000000E+00  0.00000000E+00  0.00000000E+00
  0.00000000E+00  0.00000000E+00  0.00000000E+00
  0.00000000E+00  0.00000000E+00  0.00000000E+00
  0.00000000E+00  0.00000000E+00  0.00000000E+00
  0.00000000E+00  0.00000000E+00  0.00000000E+00
  0.00000000E+00  0.00000000E+00  0.00000000E+00
  0.00000000E+00  0.00000000E+00  0.00000000E+00
  0.00000000E+00  0.00000000E+00  0.00000000E+00
  0.00000000E+00  0.00000000E+00  0.00000000E+00
  0.00000000E+00  0.00000000E+00  0.00000000E+00
  0.00000000E+00  0.00000000E+00  0.00000000E+00
  0.00000000E+00  0.00000000E+00  0.00000000E+00
  0.00000000E+00  0.00000000E+00  0.00000000E+00
  0.00000000E+00  0.00000000E+00  0.00000000E+00
  0.00000000E+00  0.00000000E+00  0.00000000E+00
  0.00000000E+00  0.00000000E+00  0.00000000E+00
  0.00000000E+00  0.00000000E+00  0.00000000E+00
  0.00000000E+00  0.00000000E+00  0.00000000E+00
  0.00000000E+00  0.00000000E+00  0.00000000E+00
  0.00000000E+00  0.00000000E+00  0.00000000E+00
  0.00000000E+00  0.00000000E+00  0.00000000E+00
  0.00000000E+00  0.00000000E+00  0.00000000E+00
  0.00000000E+00  0.00000000E+00  0.00000000E+00
  0.00000000E+00  0.00000000E+00  0.00000000E+00
  0.00000000E+00  0.00000000E+00  0.00000000E+00
  0.00000000E+00  0.00000000E+00  0.00000000E+00
  0.00000000E+00  0.00000000E+00  0.00000000E+00
  0.00000000E+00  0.00000000E+00  0.00000000E+00
  0.00000000E+00  0.00000000E+00  0.00000000E+00
  0.00000000E+00  0.00000000E+00  0.00000000E+00
  0.00000000E+00  0.00000000E+00  0.00000000E+00
  0.00000000E+00  0.00000000E+00  0.00000000E+00
  0.00000000E+00  0.00000000E+00  0.00000000E+00
  0.00000000E+00  0.00000000E+00  0.00000000E+00
  0.00000000E+00  0.00000000E+00  0.00000000E+00
  0.00000000E+00  0.00000000E+00  0.00000000E+00
  0.00000000E+00  0.00000000E+00  0.00000000E+00
  0.00000000E+00  0.00000000E+00  0.00000000E+00
  0.00000000E+00  0.00000000E+00  0.00000000E+00
  0.00000000E+00  0.00000000E+00  0.00000000E+00
  0.00000000E+00  0.00000000E+00  0.00000000E+00
  0.00000000E+00  0.00000000E+00  0.00000000E+00
  0.00000000E+00  0.00000000E+00  0.00000000E+00
  0.00000000E+00  0.00000000E+00  0.00000000E+00
  0.00000000E+00  0.00000000E+00  0.00000000E+00
  0.00000000E+00  0.00000000E+00  0.00000000E+00
  0.00000000E+00  0.00000000E+00  0.00000000E+00
  0.00000000E+00  0.00000000E+00  0.00000000E+00
  0.00000000E+00  0.00000000E+00  0.00000000E+00
  0.00000000E+00  0.00000000E+00  0.00000000E+00
  0.00000000E+00  0.00000000E+00  0.00000000E+00
  0.00000000E+00  0.00000000E+00  0.00000000E+00
  0.00000000E+00  0.00000000E+00  0.00000000E+00
  0.00000000E+00  0.00000000E+00  0.00000000E+00
  0.00000000E+00  0.00000000E+00  0.00000000E+00
  0.00000000E+00  0.00000000E+00  0.00000000E+00
  0.00000000E+00  0.00000000E+00  0.00000000E+00
  0.00000000E+00  0.00000000E+00  0.00000000E+00
  0.00000000E+00  0.00000000E+00  0.00000000E+00
  0.00000000E+00  0.00000000E+00  0.00000000E+00
  0.00000000E+00  0.00000000E+00  0.00000000E+00
  0.00000000E+00  0.00000000E+00  0.00000000E+00
  0.00000000E+00  0.00000000E+00  0.00000000E+00
  0.00000000E+00  0.00000000E+00  0.00000000E+00
  0.00000000E+00  0.00000000E+00  0.00000000E+00
  0.00000000E+00  0.00000000E+00  0.00000000E+00
  0.00000000E+00  0.00000000E+00  0.00000000E+00
  0.00000000E+00  0.00000000E+00  0.00000000E+00
  0.00000000E+00  0.00000000E+00  0.00000000E+00
  0.00000000E+00  0.00000000E+00  0.00000000E+00
  0.00000000E+00  0.00000000E+00  0.00000000E+00
  0.00000000E+00  0.00000000E+00  0.00000000E+00
  0.00000000E+00  0.00000000E+00  0.00000000E+00
  0.00000000E+00  0.00000000E+00  0.00000000E+00
  0.00000000E+00  0.00000000E+00  0.00000000E+00
  0.00000000E+00  0.00000000E+00  0.00000000E+00
  0.00000000E+00  0.00000000E+00  0.00000000E+00
  0.00000000E+00  0.00000000E+00  0.00000000E+00
  0.00000000E+00  0.00000000E+00  0.00000000E+00
  0.00000000E+00  0.00000000E+00  0.00000000E+00
  0.00000000E+00  0.00000000E+00  0.00000000E+00
  0.00000000E+00  0.00000000E+00  0.00000000E+00
  0.00000000E+00  0.00000000E+00  0.00000000E+00
  0.00000000E+00  0.00000000E+00  0.00000000E+00
  0.00000000E+00  0.00000000E+00  0.00000000E+00
  0.00000000E+00  0.00000000E+00  0.00000000E+00
  0.00000000E+00  0.00000000E+00  0.00000000E+00
  0.00000000E+00  0.00000000E+00  0.00000000E+00
  0.00000000E+00  0.00000000E+00  0.00000000E+00
