SrTiFeO                                 
   1.00000000000000     
    11.1989999999999998    0.0000000000000000    0.0000000000000000
     0.0000000000000000   11.1989999999999998    0.0000000000000000
     0.0000000000000000    0.0000000000000000   15.9830000000000005
   Sr   Ti   Fe   O 
    32    29     3    94
Direct
  0.9994655488794837  0.2501999719524582  0.1239544621204335
  0.0063740889609913  0.2491418531194238  0.6293025583526506
  0.9987189309433472  0.7502495678460104  0.1253752338895344
  0.0010245905505353  0.7473796810152549  0.6258257516497161
  0.4999248567329523  0.2522098689047243  0.1246334546516725
  0.4964267991076975  0.2474616468304901  0.6291542495620106
  0.5005170998137969  0.7489733411632965  0.1233591748602613
  0.5004625218439186  0.7483156330831603  0.6290674727806150
  0.0064347075401257  0.2491010977811944  0.3714219527884108
  0.9996801820318250  0.2499097195204685  0.8750622862061517
  0.0011315317540444  0.7473432453698303  0.3751177350145786
  0.9989109948330601  0.7502617224916083  0.8736871788252603
  0.4953610771373454  0.2435615533395465  0.3722733513995417
  0.5004477443311409  0.2543170149836276  0.8735528771153719
  0.4998321340393785  0.7526243824336428  0.3720713802054771
  0.5003463916721134  0.7472595801322435  0.8748490673678649
  0.2496882655444351  0.9997195075745120  0.1247568088589555
  0.2504102320097670  0.9996160957440298  0.6267536546235815
  0.2523597296923132  0.5009189486422746  0.1249476956588600
  0.2510006318895812  0.4976993397811740  0.6250458885768140
  0.7501061982481297  0.9998818766168682  0.1248790996030923
  0.7476830175165888  0.9983201202716520  0.6277037087473623
  0.7495291236487763  0.5012844848351666  0.1228549138120748
  0.7551255771227668  0.4989147935412729  0.6340900133821913
  0.2503513965489777  0.9996686106949696  0.3741001888337230
  0.2496554058152572  0.9998185290883841  0.8744621524313513
  0.2476906292354311  0.4978379398528564  0.3761115358256779
  0.2548555328346957  0.5004480810750287  0.8729420844638337
  0.7470380563513224  0.9985084150735385  0.3733267159449759
  0.7501142200518979  0.9998561910290590  0.8743535402875995
  0.7575358394188488  0.4992465130034566  0.3669358482284331
  0.7476048738365567  0.5017177710040102  0.8754740502465990
  0.9992480887915501  0.9997490708882442  0.9999149043628441
  0.0073421295770631  0.9962267015336176  0.5001072298283926
  0.0007751646544038  0.4997583626288168  0.9996221528407233
  0.9974412077485627  0.5015184344344247  0.5003586309296416
  0.4998154883252031  0.0003617079532719  0.9996296259370546
  0.4986673624760072  0.9978752568011837  0.5004509620087149
  0.4993027778410300  0.5001045536225558  0.9988295849647313
  0.2505970815236809  0.2504333626445277  0.9998507369069513
  0.2497783331467821  0.2492309308382464  0.5001710667528484
  0.2501145470358334  0.7494909606304218  0.9997741212120052
  0.2531511331085384  0.7497801961436870  0.5001700939969739
  0.7506275652334756  0.2493800173035633  0.9998014980717309
  0.7636793654866058  0.2424965456411977  0.5001034255343828
  0.7504140273679430  0.7509472849700958  0.9997779990707004
  0.2501396566539176  0.2498153289025397  0.2495344538524958
  0.2518211149604272  0.2509545429260739  0.7503892766565212
  0.2501233950339721  0.7492902819896130  0.2504051314074991
  0.2515718904702906  0.7476275953157893  0.7494264046402030
  0.7489645615847355  0.2502404420462353  0.2494585638192116
  0.7481590145971615  0.2512495533243111  0.7505519218241503
  0.7491507911799776  0.7493992481499662  0.2510255313385039
  0.7478446233225192  0.7481185874830311  0.7487383449015867
  0.9999034465036302  0.9993525134362754  0.2505990378614703
  0.0000795050904063  0.9991341627240512  0.7494451439389512
  0.0012255817595969  0.4998229862168039  0.2490397046466902
  0.0012392426960932  0.4997726467543270  0.7508211563837801
  0.4997664850203983  0.9994063385212388  0.2489736544093855
  0.4998570485128527  0.9992231941499824  0.7506744112760932
  0.5023151003843751  0.4996581789837382  0.2520982180513233
  0.5031966305960964  0.4994866850759097  0.7472054712894448
  0.4893658153306891  0.5023425717099496  0.4993624618962130
  0.7600508962525829  0.7652151447999497  0.5000498945697607
  0.1093740073040716  0.1401993384277147  0.2467106091637496
  0.1103193664391948  0.1391978648741241  0.7528392686380355
  0.1099690012103687  0.6396821950497381  0.2500397534835604
  0.1105071329617358  0.6390520522892672  0.7500649959463960
  0.6091589779262689  0.1406162509169745  0.2497736657777284
  0.6100611626803382  0.1390650177316821  0.7502492643694822
  0.6097682470700408  0.6406717189072618  0.2459752930824380
  0.3911254612354806  0.3601705656573513  0.2551511170288322
  0.3887033923533334  0.3602165621703062  0.7456440782878814
  0.3899453916986017  0.8598479222793070  0.2494132030148799
  0.3894050345348039  0.8608560497526832  0.7502125799000721
  0.8897409696073199  0.3598601412422724  0.2526299981160968
  0.8896314673834661  0.3602656929003755  0.7478109881723217
  0.8887959115509378  0.8596594573799026  0.2551065199188099
  0.8884072779249956  0.8604761903009907  0.7455141795277482
  0.3602811764137495  0.1102921787741665  0.2508615443633193
  0.3608473938241277  0.1105405461003844  0.7493319734228123
  0.3612623009114685  0.6091190078549019  0.2569572320278288
  0.3611926337981594  0.6113173031407446  0.7435453742861773
  0.8584991193384021  0.1109380313181087  0.2552729848267643
  0.8596148413543085  0.1112302782782011  0.7453428880935884
  0.8610849821291862  0.6103915716409565  0.2482574591655792
  0.8624330043086540  0.6110852053489884  0.7517861610557618
  0.1408379237170121  0.3903932612120101  0.2501993949858507
  0.1395869061275652  0.3895815305058292  0.7496678688122227
  0.1395917625102094  0.8900861183187425  0.2482510354207420
  0.1388467452474081  0.8892495137808425  0.7516416199633207
  0.6417969647961876  0.3901757305556620  0.2439785550102433
  0.6402146796569823  0.8906808988080359  0.2505613612554898
  0.6396734785409518  0.8901342722412005  0.7497414912013289
  0.3587636944693672  0.3904448881194988  0.0007272856689173
  0.3586413268259744  0.8908630456010957  0.0003249045984963
  0.3539703385656106  0.8967968869705412  0.4997993714574767
  0.8594344052687777  0.3903440711365775  0.0000396550433103
  0.8409905600458382  0.3992485306303392  0.5000582609421557
  0.8590089532962620  0.8913545549683521  0.0003580256295436
  0.8565724845498480  0.9026349807108665  0.4994675194874753
  0.1406183548517764  0.1088823716119604  0.0005451307735188
  0.1425545933841764  0.1050625433459579  0.4998324134736215
  0.1409517219164371  0.6085300593009848 -0.0000068570073868
  0.1397478906028282  0.6074332425050804  0.4999696127673994
  0.6410695674651602  0.1091341117058568  0.0003812335710656
  0.6362585623513888  0.1198269260396987  0.4996423764011294
  0.6402802557921947  0.6104773528203374  0.0010609853787776
  0.1090400464308933  0.3581762040191580  0.0003231711427728
  0.1014350577634013  0.3563321945348161  0.4997119323890554
  0.1092375263148150  0.8591062949622089  0.0004983780769509
  0.1037415382282549  0.8554311928107929  0.4997513989616465
  0.6106756280101703  0.3593843409383826  0.0009879115631784
  0.6090038722573545  0.8596007428613478  0.0000432967490694
  0.6056682270026593  0.8568732738079284  0.4999415293842571
  0.3910369550388775  0.1410016142514273  0.0000177277821456
  0.3902350175890483  0.1401881804431615  0.5000215915068026
  0.3903470591304022  0.6412421985591842  0.0008222287342149
  0.3934691825060119  0.6539839917491440  0.4991420158463861
  0.8917641085792498  0.1407279448224777  0.0004132420583038
  0.8972500494252196  0.1478339975491199  0.4995572538667932
  0.8909290554217159  0.6403310867547332  0.0003442019053167
  0.9952001216388487  0.9987950864039472  0.1259166581478005
  0.0030452474614293  0.0017135923445340  0.6244130183643858
  0.0001543732381184  0.4981615274617207  0.1251217803108355
  0.9997068669692836  0.4996753329467715  0.6248675014616354
  0.4995302661374829  0.0001738874862242  0.1250429067183841
  0.5006974711146267  0.0003002956573721  0.6251629613145262
  0.4951621520905251  0.4997390429098635  0.1264837656064640
  0.0035777286637786  0.0020037117202216  0.3750473907468296
  0.9959479464843611  0.9989920909633773  0.8748939732364832
  0.9996789452241049  0.4996422871865669  0.3749338364235631
  0.0002744423091820  0.4982956049644776  0.8750824623506935
  0.5004879741380384  0.0001745563360269  0.3746724476437491
  0.4994637360050316  0.0000163689460923  0.8751439048357500
  0.4965371764239691  0.4999461731434563  0.8770544247034071
  0.2447532521852913  0.2466645169609595  0.3741258212644708
  0.2520662004558356  0.2512769282842509  0.8751821321873465
  0.2459413339035854  0.7533509756880297  0.3748158729695132
  0.2516298124194988  0.7475848494951739  0.8748720367572069
  0.7363285813538200  0.2597628413550456  0.3783190977465288
  0.7535210148670051  0.2462732498627300  0.8753354169548671
  0.7398944303896269  0.7400382425105280  0.3770066801795818
  0.7524124917304011  0.7524053134050044  0.8754563972210037
  0.2528773953841573  0.2513808902761370  0.1254784339766229
  0.2451188017158620  0.2474559534548557  0.6252169759751809
  0.2514093130410326  0.7469823945613546  0.1257712425666124
  0.2460163975897837  0.7533023382475218  0.6245199288946088
  0.7536252947878783  0.2468073506593720  0.1255890029235668
  0.7377552382428754  0.2581556264980407  0.6215375338611725
  0.7522789292092050  0.7527386127226290  0.1254464938294754
  0.6417090302913292  0.3872317248206448  0.7561108868056601
  0.6124223767161453  0.6403998842608818  0.7540762990936616
  0.5253266538083861  0.4970818017387483  0.3787702737497493
  0.3555960401327886  0.3828548700178577  0.4985767167111834
  0.7411720457644747  0.7411005916840959  0.6226285004722577
  0.8854256871860994  0.6400657887128203  0.4996405060823175
  0.5283454810835554  0.4959259186840199  0.6175715599458292
 
  0.00000000E+00  0.00000000E+00  0.00000000E+00
  0.00000000E+00  0.00000000E+00  0.00000000E+00
  0.00000000E+00  0.00000000E+00  0.00000000E+00
  0.00000000E+00  0.00000000E+00  0.00000000E+00
  0.00000000E+00  0.00000000E+00  0.00000000E+00
  0.00000000E+00  0.00000000E+00  0.00000000E+00
  0.00000000E+00  0.00000000E+00  0.00000000E+00
  0.00000000E+00  0.00000000E+00  0.00000000E+00
  0.00000000E+00  0.00000000E+00  0.00000000E+00
  0.00000000E+00  0.00000000E+00  0.00000000E+00
  0.00000000E+00  0.00000000E+00  0.00000000E+00
  0.00000000E+00  0.00000000E+00  0.00000000E+00
  0.00000000E+00  0.00000000E+00  0.00000000E+00
  0.00000000E+00  0.00000000E+00  0.00000000E+00
  0.00000000E+00  0.00000000E+00  0.00000000E+00
  0.00000000E+00  0.00000000E+00  0.00000000E+00
  0.00000000E+00  0.00000000E+00  0.00000000E+00
  0.00000000E+00  0.00000000E+00  0.00000000E+00
  0.00000000E+00  0.00000000E+00  0.00000000E+00
  0.00000000E+00  0.00000000E+00  0.00000000E+00
  0.00000000E+00  0.00000000E+00  0.00000000E+00
  0.00000000E+00  0.00000000E+00  0.00000000E+00
  0.00000000E+00  0.00000000E+00  0.00000000E+00
  0.00000000E+00  0.00000000E+00  0.00000000E+00
  0.00000000E+00  0.00000000E+00  0.00000000E+00
  0.00000000E+00  0.00000000E+00  0.00000000E+00
  0.00000000E+00  0.00000000E+00  0.00000000E+00
  0.00000000E+00  0.00000000E+00  0.00000000E+00
  0.00000000E+00  0.00000000E+00  0.00000000E+00
  0.00000000E+00  0.00000000E+00  0.00000000E+00
  0.00000000E+00  0.00000000E+00  0.00000000E+00
  0.00000000E+00  0.00000000E+00  0.00000000E+00
  0.00000000E+00  0.00000000E+00  0.00000000E+00
  0.00000000E+00  0.00000000E+00  0.00000000E+00
  0.00000000E+00  0.00000000E+00  0.00000000E+00
  0.00000000E+00  0.00000000E+00  0.00000000E+00
  0.00000000E+00  0.00000000E+00  0.00000000E+00
  0.00000000E+00  0.00000000E+00  0.00000000E+00
  0.00000000E+00  0.00000000E+00  0.00000000E+00
  0.00000000E+00  0.00000000E+00  0.00000000E+00
  0.00000000E+00  0.00000000E+00  0.00000000E+00
  0.00000000E+00  0.00000000E+00  0.00000000E+00
  0.00000000E+00  0.00000000E+00  0.00000000E+00
  0.00000000E+00  0.00000000E+00  0.00000000E+00
  0.00000000E+00  0.00000000E+00  0.00000000E+00
  0.00000000E+00  0.00000000E+00  0.00000000E+00
  0.00000000E+00  0.00000000E+00  0.00000000E+00
  0.00000000E+00  0.00000000E+00  0.00000000E+00
  0.00000000E+00  0.00000000E+00  0.00000000E+00
  0.00000000E+00  0.00000000E+00  0.00000000E+00
  0.00000000E+00  0.00000000E+00  0.00000000E+00
  0.00000000E+00  0.00000000E+00  0.00000000E+00
  0.00000000E+00  0.00000000E+00  0.00000000E+00
  0.00000000E+00  0.00000000E+00  0.00000000E+00
  0.00000000E+00  0.00000000E+00  0.00000000E+00
  0.00000000E+00  0.00000000E+00  0.00000000E+00
  0.00000000E+00  0.00000000E+00  0.00000000E+00
  0.00000000E+00  0.00000000E+00  0.00000000E+00
  0.00000000E+00  0.00000000E+00  0.00000000E+00
  0.00000000E+00  0.00000000E+00  0.00000000E+00
  0.00000000E+00  0.00000000E+00  0.00000000E+00
  0.00000000E+00  0.00000000E+00  0.00000000E+00
  0.00000000E+00  0.00000000E+00  0.00000000E+00
  0.00000000E+00  0.00000000E+00  0.00000000E+00
  0.00000000E+00  0.00000000E+00  0.00000000E+00
  0.00000000E+00  0.00000000E+00  0.00000000E+00
  0.00000000E+00  0.00000000E+00  0.00000000E+00
  0.00000000E+00  0.00000000E+00  0.00000000E+00
  0.00000000E+00  0.00000000E+00  0.00000000E+00
  0.00000000E+00  0.00000000E+00  0.00000000E+00
  0.00000000E+00  0.00000000E+00  0.00000000E+00
  0.00000000E+00  0.00000000E+00  0.00000000E+00
  0.00000000E+00  0.00000000E+00  0.00000000E+00
  0.00000000E+00  0.00000000E+00  0.00000000E+00
  0.00000000E+00  0.00000000E+00  0.00000000E+00
  0.00000000E+00  0.00000000E+00  0.00000000E+00
  0.00000000E+00  0.00000000E+00  0.00000000E+00
  0.00000000E+00  0.00000000E+00  0.00000000E+00
  0.00000000E+00  0.00000000E+00  0.00000000E+00
  0.00000000E+00  0.00000000E+00  0.00000000E+00
  0.00000000E+00  0.00000000E+00  0.00000000E+00
  0.00000000E+00  0.00000000E+00  0.00000000E+00
  0.00000000E+00  0.00000000E+00  0.00000000E+00
  0.00000000E+00  0.00000000E+00  0.00000000E+00
  0.00000000E+00  0.00000000E+00  0.00000000E+00
  0.00000000E+00  0.00000000E+00  0.00000000E+00
  0.00000000E+00  0.00000000E+00  0.00000000E+00
  0.00000000E+00  0.00000000E+00  0.00000000E+00
  0.00000000E+00  0.00000000E+00  0.00000000E+00
  0.00000000E+00  0.00000000E+00  0.00000000E+00
  0.00000000E+00  0.00000000E+00  0.00000000E+00
  0.00000000E+00  0.00000000E+00  0.00000000E+00
  0.00000000E+00  0.00000000E+00  0.00000000E+00
  0.00000000E+00  0.00000000E+00  0.00000000E+00
  0.00000000E+00  0.00000000E+00  0.00000000E+00
  0.00000000E+00  0.00000000E+00  0.00000000E+00
  0.00000000E+00  0.00000000E+00  0.00000000E+00
  0.00000000E+00  0.00000000E+00  0.00000000E+00
  0.00000000E+00  0.00000000E+00  0.00000000E+00
  0.00000000E+00  0.00000000E+00  0.00000000E+00
  0.00000000E+00  0.00000000E+00  0.00000000E+00
  0.00000000E+00  0.00000000E+00  0.00000000E+00
  0.00000000E+00  0.00000000E+00  0.00000000E+00
  0.00000000E+00  0.00000000E+00  0.00000000E+00
  0.00000000E+00  0.00000000E+00  0.00000000E+00
  0.00000000E+00  0.00000000E+00  0.00000000E+00
  0.00000000E+00  0.00000000E+00  0.00000000E+00
  0.00000000E+00  0.00000000E+00  0.00000000E+00
  0.00000000E+00  0.00000000E+00  0.00000000E+00
  0.00000000E+00  0.00000000E+00  0.00000000E+00
  0.00000000E+00  0.00000000E+00  0.00000000E+00
  0.00000000E+00  0.00000000E+00  0.00000000E+00
  0.00000000E+00  0.00000000E+00  0.00000000E+00
  0.00000000E+00  0.00000000E+00  0.00000000E+00
  0.00000000E+00  0.00000000E+00  0.00000000E+00
  0.00000000E+00  0.00000000E+00  0.00000000E+00
  0.00000000E+00  0.00000000E+00  0.00000000E+00
  0.00000000E+00  0.00000000E+00  0.00000000E+00
  0.00000000E+00  0.00000000E+00  0.00000000E+00
  0.00000000E+00  0.00000000E+00  0.00000000E+00
  0.00000000E+00  0.00000000E+00  0.00000000E+00
  0.00000000E+00  0.00000000E+00  0.00000000E+00
  0.00000000E+00  0.00000000E+00  0.00000000E+00
  0.00000000E+00  0.00000000E+00  0.00000000E+00
  0.00000000E+00  0.00000000E+00  0.00000000E+00
  0.00000000E+00  0.00000000E+00  0.00000000E+00
  0.00000000E+00  0.00000000E+00  0.00000000E+00
  0.00000000E+00  0.00000000E+00  0.00000000E+00
  0.00000000E+00  0.00000000E+00  0.00000000E+00
  0.00000000E+00  0.00000000E+00  0.00000000E+00
  0.00000000E+00  0.00000000E+00  0.00000000E+00
  0.00000000E+00  0.00000000E+00  0.00000000E+00
  0.00000000E+00  0.00000000E+00  0.00000000E+00
  0.00000000E+00  0.00000000E+00  0.00000000E+00
  0.00000000E+00  0.00000000E+00  0.00000000E+00
  0.00000000E+00  0.00000000E+00  0.00000000E+00
  0.00000000E+00  0.00000000E+00  0.00000000E+00
  0.00000000E+00  0.00000000E+00  0.00000000E+00
  0.00000000E+00  0.00000000E+00  0.00000000E+00
  0.00000000E+00  0.00000000E+00  0.00000000E+00
  0.00000000E+00  0.00000000E+00  0.00000000E+00
  0.00000000E+00  0.00000000E+00  0.00000000E+00
  0.00000000E+00  0.00000000E+00  0.00000000E+00
  0.00000000E+00  0.00000000E+00  0.00000000E+00
  0.00000000E+00  0.00000000E+00  0.00000000E+00
  0.00000000E+00  0.00000000E+00  0.00000000E+00
  0.00000000E+00  0.00000000E+00  0.00000000E+00
  0.00000000E+00  0.00000000E+00  0.00000000E+00
  0.00000000E+00  0.00000000E+00  0.00000000E+00
  0.00000000E+00  0.00000000E+00  0.00000000E+00
  0.00000000E+00  0.00000000E+00  0.00000000E+00
  0.00000000E+00  0.00000000E+00  0.00000000E+00
  0.00000000E+00  0.00000000E+00  0.00000000E+00
  0.00000000E+00  0.00000000E+00  0.00000000E+00
  0.00000000E+00  0.00000000E+00  0.00000000E+00
  0.00000000E+00  0.00000000E+00  0.00000000E+00
  0.00000000E+00  0.00000000E+00  0.00000000E+00
  0.00000000E+00  0.00000000E+00  0.00000000E+00
