SrTiFeO                                 
   1.00000000000000     
    11.1989999999999998    0.0000000000000000    0.0000000000000000
     0.0000000000000000   11.1989999999999998    0.0000000000000000
     0.0000000000000000    0.0000000000000000   15.9830000000000005
   Sr   Ti   Fe   O 
    32    31     1    94
Direct
  0.0005094638620907  0.2495099573735421  0.1253234278021939
  0.0015461974899159  0.2498231065211951  0.6250233364190205
  0.9988910445770900  0.7506782178936522  0.1259537077630310
  0.0046661071797355  0.7485973897104387  0.6256164718692888
  0.4982172957463833  0.2500731980769370  0.1242976314932010
  0.5008429426099580  0.2557963051435549  0.6224603759655278
  0.5008989344658955  0.7516703610708854  0.1235383182713061
  0.4983887822874928  0.7496971327020089  0.6278737417891689
  0.0011616685722961  0.2481689273702218  0.3747054084924635
  0.0002064496733146  0.2492707257761623  0.8750130284155726
  0.0032769847285063  0.7502492109394793  0.3745076729650856
  0.9991577647761127  0.7506114321798781  0.8749400720666182
  0.5005101033319891  0.2454590164098623  0.3753172988138985
  0.4994525920948106  0.2516207557435472  0.8745082077237396
  0.4977969353858125  0.7608572908227049  0.3721153505548452
  0.4990652762831765  0.7497709758936530  0.8761076871446170
  0.2490052960829939  0.0007894941568781  0.1249485684370296
  0.2511983447551033  0.0007753088576821  0.6253298363766734
  0.2500218877087432  0.4993277672134605  0.1245311222015197
  0.2546147980246865  0.4985803341215234  0.6238308335426618
  0.7502231174985800  0.9988505069954973  0.1248910797298571
  0.7497601693813831  0.0066386764650562  0.6265889717419433
  0.7517428149320702  0.5005145732934668  0.1244076555471497
  0.7533582700949246  0.4961081358380970  0.6287343383713796
  0.2486902024317154  0.0010335230606530  0.3744462901494354
  0.2496918907924260  0.0001471123199761  0.8749039795394169
  0.2438079135039363  0.4985367014022099  0.3754104020301825
  0.2511608092191593  0.4995700894092813  0.8748169831155728
  0.7521774270169118  0.0046295596633229  0.3732017907126153
  0.7498483713847416  0.9994346524005188  0.8754730019809975
  0.7630668157923869  0.4963253388872163  0.3731149092239572
  0.7491430158457371  0.5013638714921409  0.8756705908807596
  0.9996304627123400  0.9995132375580827  0.0003502677150857
  0.0051659053967437  0.0033717472785274  0.5008769603417467
  0.0001797613572484  0.4997440580876298  0.9996879690067026
  0.0010493104173419  0.4987462400109503  0.5008534324244980
  0.5000265121542588  0.0004051986091896  0.9997097944924809
  0.4993320393122998  0.0003131188471082  0.5006167511226872
  0.4995058186341210  0.4995183511619631  0.9989634839803099
  0.2499807198656058  0.2503927146853926  0.9999361119521620
  0.2519444658739412  0.2521782275041417  0.4992626883665175
  0.2499962748623627  0.7495702388859152  0.0000496769193212
  0.2535005305708133  0.7493621095370825  0.4988874979356332
  0.7497182868996036  0.2504295127726848  0.0000398736080604
  0.7498639073515809  0.2524283930856561  0.4988782231497100
  0.7501689807612059  0.7500409768959794  0.0007765075374422
  0.2513592764798655  0.2502718430977552  0.2505672249874261
  0.2508442267164290  0.2500843217501110  0.7497744361895713
  0.2505708770938922  0.7501939954325948  0.2501237660173893
  0.2507858256945796  0.7495210313074092  0.7501336531608610
  0.7500048169392806  0.2502872667616741  0.2500658972906782
  0.7496415085516602  0.2507362541050446  0.7506700159085692
  0.7487629580641294  0.7493168546953831  0.2518845163746399
  0.7490716237433093  0.7492438840114580  0.7504728016663421
  0.0000647636619801  0.9999123586864561  0.2496373654251330
  1.0000053584134143  0.9997675194013649  0.7493363050467073
  0.0011756162848872  0.5001001555356855  0.2491737397643807
  0.0012547234784990  0.5001065630258434  0.7502237380226340
  0.5000898472310252  0.0011155249000618  0.2492857811164488
  0.5002662881877997  0.0008808502788749  0.7499547019798355
  0.5014963597935739  0.5017711698358858  0.2462274360054679
  0.5010546738865818  0.5007250484626866  0.7490864368463309
  0.7561712524662928  0.7607393666422237  0.5006615105433221
  0.4993597519085398  0.5014628979225842  0.4978047439630079
  0.1084549906504367  0.1387872700705735  0.2475507945166853
  0.1087912020892383  0.1399838848217048  0.7501438338515939
  0.1108482326282816  0.6395111575163479  0.2497286765138914
  0.1090461871581595  0.6413255919743240  0.7504287029559945
  0.6089461334240280  0.1414578917284602  0.2499265834521371
  0.6088661483106772  0.1414581614028708  0.7490057671425615
  0.6099439211638461  0.6415137234217713  0.2530265394365436
  0.3879589507787063  0.3574711853799195  0.2567898964310540
  0.3909082877902798  0.3586675725810583  0.7485879768952447
  0.3902900670183706  0.8602323196900185  0.2486856889971899
  0.3906990125998808  0.8596122259967570  0.7503326693534975
  0.8892765894734986  0.3611046843993493  0.2513293323356822
  0.8907605478963271  0.3594358928069583  0.7482719056171380
  0.8897985836668063  0.8600631789849351  0.2532524744049927
  0.8892440937460712  0.8581563898294605  0.7445516835123225
  0.3594673620385852  0.1083184613062464  0.2496466532384864
  0.3591106201657369  0.1085526546549138  0.7501688746436388
  0.3619207856031704  0.6100743745912053  0.2604406272165811
  0.3586523898956420  0.6096096776012145  0.7510602433683596
  0.8590564143638227  0.1098731617363673  0.2472442869757148
  0.8586998686431978  0.1097319802063999  0.7490900445854933
  0.8610107752973555  0.6102763182251113  0.2494289289401669
  0.8593944380014643  0.6089664701461228  0.7499335426698667
  0.1391306808521079  0.3897690505357492  0.2495958817204419
  0.1411382571855274  0.3912530606288977  0.7494403802508274
  0.1398366483469903  0.8894681965918761  0.2481779383040055
  0.1403677662858869  0.8897732622577715  0.7484976780594683
  0.6395006537073712  0.3915832919049625  0.2597143342288418
  0.6403932548041714  0.8914154881045182  0.2518804513269108
  0.6413974792458064  0.8912307513517997  0.7481282513747267
  0.3573862041167107  0.3896722792245905  0.9985391809571258
  0.3594255373493276  0.8905837973939180  0.0006439437550928
  0.3577674845246699  0.8924863315732413  0.4997046277121065
  0.8588614794971531  0.3910888394824275 -0.0000067757433212
  0.8628288485059580  0.3883000990653437  0.5004598150204481
  0.8592388028808254  0.8907941063506181  0.0003800743573606
  0.8572371814831877  0.8925848130349179  0.5017480995644880
  0.1398758121422221  0.1085562271072877  0.9995832700232085
  0.1408466702091909  0.1073041162979395  0.5017176628210508
  0.1408920849130644  0.6085266287500470  0.9999660755790143
  0.1392442009703012  0.6101926119426082  0.4999580090379780
  0.6409635936203126  0.1094482213078063  0.0007803683161212
  0.6392565683554650  0.1107820203601844  0.4995755637475795
  0.6406930762039550  0.6097929638401163  0.9999237950226517
  0.1083571397638577  0.3587004566328958  0.0001604262472059
  0.1076504745966819  0.3588792900445583  0.4998600271078398
  0.1096295177697463  0.8584539701940783  0.0012318008903301
  0.1073993091998517  0.8582306214664334  0.5015302186016364
  0.6094084353620197  0.3588218244062983  0.9990252267079536
  0.6092927414420676  0.8595027495921855  0.9995344692698681
  0.6057579900254580  0.8530156459056547  0.5004773995771036
  0.3908062011875515  0.1402152434938168  0.9995909416189358
  0.3912644303176558  0.1397655864888488  0.5003130515588108
  0.3905057556246126  0.6408780179034990  0.9998610486668833
  0.3957081638357768  0.6437654814314597  0.4911154201657492
  0.8904141208176343  0.1408327235991236  0.0012738095738910
  0.8901551139140561  0.1400324357466606  0.5018117513458223
  0.8907616685718941  0.6404639650914787  0.0004832054941788
  0.9986116890427512  0.9974225262482435  0.1246036190032494
  0.9996049461497459  0.0008381407415179  0.6250913805368993
  0.9995891746327165  0.4992511991510140  0.1248755145563285
  0.0007068863808257  0.5015327231338071  0.6249875896174364
  0.5012418068285474  0.9997146671815729  0.1248939137758170
  0.5001020836733283  0.9996519378537765  0.6247074129920918
  0.4950879420215401  0.4943612937739085  0.1231525282100001
  0.9999476061142176  0.0010357066806028  0.3756356547887554
  0.9980040722065797  0.9971548498206219  0.8743082029042404
  0.0006033127743746  0.5013903346574557  0.3751233929022642
  0.9996967853619213  0.4992511528867365  0.8748780242886995
  0.5000463447176059  0.0003309069260260  0.3751591693637297
  0.5012437298634183  0.9999894169692228  0.8747911068512170
  0.4976093779366423  0.4982829559977265  0.8758351071127872
  0.2426738506782951  0.2424752797781091  0.3749989487301492
  0.2491322812580246  0.2492274350122892  0.8743606573278798
  0.2444192947723781  0.7558716658783119  0.3747525680575926
  0.2494772711195003  0.7511330405242460  0.8752932319092259
  0.7558704864068686  0.2433935158588063  0.3744717364114283
  0.7517717513030926  0.2482059037931999  0.8752263080165451
  0.7448304028863119  0.7432750142816151  0.3784568443763794
  0.7534968203051225  0.7528798833052455  0.8746013433346036
  0.2514919909596048  0.2505102517156168  0.1246692356443837
  0.2494000575487380  0.2498134771260127  0.6250056621171662
  0.2533941377956732  0.7452188752092239  0.1258947993653577
  0.2533442788454974  0.7468074727588943  0.6242365155589558
  0.7469897832800041  0.2554560297862799  0.1259466235934865
  0.7444454273490753  0.2534446194421020  0.6241984372211439
  0.7491687332695449  0.7508478664044311  0.1253182041176146
  0.6421828596828073  0.3906151648376437  0.7535285608141877
  0.6094131718497094  0.6420817248001569  0.7563749812462858
  0.6175946345293515  0.3715602600359580  0.4886778497737345
  0.3543066392898864  0.3863949696741339  0.4948601351781703
  0.7370535907989040  0.7352112416500985  0.6218270103116056
  0.8796310716227966  0.6344544852273831  0.5000933155333218
  0.5081343444166617  0.5048349327241857  0.6292858651483116
 
  0.00000000E+00  0.00000000E+00  0.00000000E+00
  0.00000000E+00  0.00000000E+00  0.00000000E+00
  0.00000000E+00  0.00000000E+00  0.00000000E+00
  0.00000000E+00  0.00000000E+00  0.00000000E+00
  0.00000000E+00  0.00000000E+00  0.00000000E+00
  0.00000000E+00  0.00000000E+00  0.00000000E+00
  0.00000000E+00  0.00000000E+00  0.00000000E+00
  0.00000000E+00  0.00000000E+00  0.00000000E+00
  0.00000000E+00  0.00000000E+00  0.00000000E+00
  0.00000000E+00  0.00000000E+00  0.00000000E+00
  0.00000000E+00  0.00000000E+00  0.00000000E+00
  0.00000000E+00  0.00000000E+00  0.00000000E+00
  0.00000000E+00  0.00000000E+00  0.00000000E+00
  0.00000000E+00  0.00000000E+00  0.00000000E+00
  0.00000000E+00  0.00000000E+00  0.00000000E+00
  0.00000000E+00  0.00000000E+00  0.00000000E+00
  0.00000000E+00  0.00000000E+00  0.00000000E+00
  0.00000000E+00  0.00000000E+00  0.00000000E+00
  0.00000000E+00  0.00000000E+00  0.00000000E+00
  0.00000000E+00  0.00000000E+00  0.00000000E+00
  0.00000000E+00  0.00000000E+00  0.00000000E+00
  0.00000000E+00  0.00000000E+00  0.00000000E+00
  0.00000000E+00  0.00000000E+00  0.00000000E+00
  0.00000000E+00  0.00000000E+00  0.00000000E+00
  0.00000000E+00  0.00000000E+00  0.00000000E+00
  0.00000000E+00  0.00000000E+00  0.00000000E+00
  0.00000000E+00  0.00000000E+00  0.00000000E+00
  0.00000000E+00  0.00000000E+00  0.00000000E+00
  0.00000000E+00  0.00000000E+00  0.00000000E+00
  0.00000000E+00  0.00000000E+00  0.00000000E+00
  0.00000000E+00  0.00000000E+00  0.00000000E+00
  0.00000000E+00  0.00000000E+00  0.00000000E+00
  0.00000000E+00  0.00000000E+00  0.00000000E+00
  0.00000000E+00  0.00000000E+00  0.00000000E+00
  0.00000000E+00  0.00000000E+00  0.00000000E+00
  0.00000000E+00  0.00000000E+00  0.00000000E+00
  0.00000000E+00  0.00000000E+00  0.00000000E+00
  0.00000000E+00  0.00000000E+00  0.00000000E+00
  0.00000000E+00  0.00000000E+00  0.00000000E+00
  0.00000000E+00  0.00000000E+00  0.00000000E+00
  0.00000000E+00  0.00000000E+00  0.00000000E+00
  0.00000000E+00  0.00000000E+00  0.00000000E+00
  0.00000000E+00  0.00000000E+00  0.00000000E+00
  0.00000000E+00  0.00000000E+00  0.00000000E+00
  0.00000000E+00  0.00000000E+00  0.00000000E+00
  0.00000000E+00  0.00000000E+00  0.00000000E+00
  0.00000000E+00  0.00000000E+00  0.00000000E+00
  0.00000000E+00  0.00000000E+00  0.00000000E+00
  0.00000000E+00  0.00000000E+00  0.00000000E+00
  0.00000000E+00  0.00000000E+00  0.00000000E+00
  0.00000000E+00  0.00000000E+00  0.00000000E+00
  0.00000000E+00  0.00000000E+00  0.00000000E+00
  0.00000000E+00  0.00000000E+00  0.00000000E+00
  0.00000000E+00  0.00000000E+00  0.00000000E+00
  0.00000000E+00  0.00000000E+00  0.00000000E+00
  0.00000000E+00  0.00000000E+00  0.00000000E+00
  0.00000000E+00  0.00000000E+00  0.00000000E+00
  0.00000000E+00  0.00000000E+00  0.00000000E+00
  0.00000000E+00  0.00000000E+00  0.00000000E+00
  0.00000000E+00  0.00000000E+00  0.00000000E+00
  0.00000000E+00  0.00000000E+00  0.00000000E+00
  0.00000000E+00  0.00000000E+00  0.00000000E+00
  0.00000000E+00  0.00000000E+00  0.00000000E+00
  0.00000000E+00  0.00000000E+00  0.00000000E+00
  0.00000000E+00  0.00000000E+00  0.00000000E+00
  0.00000000E+00  0.00000000E+00  0.00000000E+00
  0.00000000E+00  0.00000000E+00  0.00000000E+00
  0.00000000E+00  0.00000000E+00  0.00000000E+00
  0.00000000E+00  0.00000000E+00  0.00000000E+00
  0.00000000E+00  0.00000000E+00  0.00000000E+00
  0.00000000E+00  0.00000000E+00  0.00000000E+00
  0.00000000E+00  0.00000000E+00  0.00000000E+00
  0.00000000E+00  0.00000000E+00  0.00000000E+00
  0.00000000E+00  0.00000000E+00  0.00000000E+00
  0.00000000E+00  0.00000000E+00  0.00000000E+00
  0.00000000E+00  0.00000000E+00  0.00000000E+00
  0.00000000E+00  0.00000000E+00  0.00000000E+00
  0.00000000E+00  0.00000000E+00  0.00000000E+00
  0.00000000E+00  0.00000000E+00  0.00000000E+00
  0.00000000E+00  0.00000000E+00  0.00000000E+00
  0.00000000E+00  0.00000000E+00  0.00000000E+00
  0.00000000E+00  0.00000000E+00  0.00000000E+00
  0.00000000E+00  0.00000000E+00  0.00000000E+00
  0.00000000E+00  0.00000000E+00  0.00000000E+00
  0.00000000E+00  0.00000000E+00  0.00000000E+00
  0.00000000E+00  0.00000000E+00  0.00000000E+00
  0.00000000E+00  0.00000000E+00  0.00000000E+00
  0.00000000E+00  0.00000000E+00  0.00000000E+00
  0.00000000E+00  0.00000000E+00  0.00000000E+00
  0.00000000E+00  0.00000000E+00  0.00000000E+00
  0.00000000E+00  0.00000000E+00  0.00000000E+00
  0.00000000E+00  0.00000000E+00  0.00000000E+00
  0.00000000E+00  0.00000000E+00  0.00000000E+00
  0.00000000E+00  0.00000000E+00  0.00000000E+00
  0.00000000E+00  0.00000000E+00  0.00000000E+00
  0.00000000E+00  0.00000000E+00  0.00000000E+00
  0.00000000E+00  0.00000000E+00  0.00000000E+00
  0.00000000E+00  0.00000000E+00  0.00000000E+00
  0.00000000E+00  0.00000000E+00  0.00000000E+00
  0.00000000E+00  0.00000000E+00  0.00000000E+00
  0.00000000E+00  0.00000000E+00  0.00000000E+00
  0.00000000E+00  0.00000000E+00  0.00000000E+00
  0.00000000E+00  0.00000000E+00  0.00000000E+00
  0.00000000E+00  0.00000000E+00  0.00000000E+00
  0.00000000E+00  0.00000000E+00  0.00000000E+00
  0.00000000E+00  0.00000000E+00  0.00000000E+00
  0.00000000E+00  0.00000000E+00  0.00000000E+00
  0.00000000E+00  0.00000000E+00  0.00000000E+00
  0.00000000E+00  0.00000000E+00  0.00000000E+00
  0.00000000E+00  0.00000000E+00  0.00000000E+00
  0.00000000E+00  0.00000000E+00  0.00000000E+00
  0.00000000E+00  0.00000000E+00  0.00000000E+00
  0.00000000E+00  0.00000000E+00  0.00000000E+00
  0.00000000E+00  0.00000000E+00  0.00000000E+00
  0.00000000E+00  0.00000000E+00  0.00000000E+00
  0.00000000E+00  0.00000000E+00  0.00000000E+00
  0.00000000E+00  0.00000000E+00  0.00000000E+00
  0.00000000E+00  0.00000000E+00  0.00000000E+00
  0.00000000E+00  0.00000000E+00  0.00000000E+00
  0.00000000E+00  0.00000000E+00  0.00000000E+00
  0.00000000E+00  0.00000000E+00  0.00000000E+00
  0.00000000E+00  0.00000000E+00  0.00000000E+00
  0.00000000E+00  0.00000000E+00  0.00000000E+00
  0.00000000E+00  0.00000000E+00  0.00000000E+00
  0.00000000E+00  0.00000000E+00  0.00000000E+00
  0.00000000E+00  0.00000000E+00  0.00000000E+00
  0.00000000E+00  0.00000000E+00  0.00000000E+00
  0.00000000E+00  0.00000000E+00  0.00000000E+00
  0.00000000E+00  0.00000000E+00  0.00000000E+00
  0.00000000E+00  0.00000000E+00  0.00000000E+00
  0.00000000E+00  0.00000000E+00  0.00000000E+00
  0.00000000E+00  0.00000000E+00  0.00000000E+00
  0.00000000E+00  0.00000000E+00  0.00000000E+00
  0.00000000E+00  0.00000000E+00  0.00000000E+00
  0.00000000E+00  0.00000000E+00  0.00000000E+00
  0.00000000E+00  0.00000000E+00  0.00000000E+00
  0.00000000E+00  0.00000000E+00  0.00000000E+00
  0.00000000E+00  0.00000000E+00  0.00000000E+00
  0.00000000E+00  0.00000000E+00  0.00000000E+00
  0.00000000E+00  0.00000000E+00  0.00000000E+00
  0.00000000E+00  0.00000000E+00  0.00000000E+00
  0.00000000E+00  0.00000000E+00  0.00000000E+00
  0.00000000E+00  0.00000000E+00  0.00000000E+00
  0.00000000E+00  0.00000000E+00  0.00000000E+00
  0.00000000E+00  0.00000000E+00  0.00000000E+00
  0.00000000E+00  0.00000000E+00  0.00000000E+00
  0.00000000E+00  0.00000000E+00  0.00000000E+00
  0.00000000E+00  0.00000000E+00  0.00000000E+00
  0.00000000E+00  0.00000000E+00  0.00000000E+00
  0.00000000E+00  0.00000000E+00  0.00000000E+00
  0.00000000E+00  0.00000000E+00  0.00000000E+00
  0.00000000E+00  0.00000000E+00  0.00000000E+00
  0.00000000E+00  0.00000000E+00  0.00000000E+00
  0.00000000E+00  0.00000000E+00  0.00000000E+00
  0.00000000E+00  0.00000000E+00  0.00000000E+00
  0.00000000E+00  0.00000000E+00  0.00000000E+00
  0.00000000E+00  0.00000000E+00  0.00000000E+00
  0.00000000E+00  0.00000000E+00  0.00000000E+00
