SrTiFeO                                 
   1.00000000000000     
    11.1989999999999998    0.0000000000000000    0.0000000000000000
     0.0000000000000000   11.1989999999999998    0.0000000000000000
     0.0000000000000000    0.0000000000000000   15.9830000000000005
   Sr   Ti   Fe   O 
    32    31     1    94
Direct
  0.0003827347914590  0.2494138967441265  0.1248252695359389
  0.0016288532856351  0.2488631018418659  0.6247268402808575
  0.9974831096135014  0.7502201871668480  0.1257444148673686
  0.0008516947804997  0.7491154145194142  0.6223131988450193
  0.4992850858886896  0.2516035763813175  0.1254199264282157
  0.5013292140794502  0.2446476534419730  0.6245668313594006
  0.5004534511804751  0.7507421076355548  0.1232506455330633
  0.4946029815812178  0.7570231601204768  0.6243760393130833
  0.0002537282871345  0.2486900823420294  0.3751734223332161
  0.0015425008903472  0.2499933168668887  0.8760070133712359
  0.9958848272407399  0.7479269107970981  0.3768183912693484
  0.0007096621786449  0.7506688503061815  0.8752466642281505
  0.5023908965163454  0.2455402924599354  0.3743742445618629
  0.4993872992731734  0.2517414900138112  0.8752761664695594
  0.4992373171026279  0.7522639466997043  0.3696004625061322
  0.4969068761082349  0.7538497226253210  0.8783085749892462
  0.2496357389758931  0.0002946762086338  0.1250974391503382
  0.2487053177049037  0.0007233576424014  0.6257963968258444
  0.2514167444891626  0.5003761065111066  0.1242643241631149
  0.2429549591305720  0.5010549589182669  0.6273906082966670
  0.7501322385278576  0.9979219350798330  0.1246493853797089
  0.7487773190020346  0.0013451821864865  0.6244760571911857
  0.7491937580966012  0.4999749147443303  0.1255739538796017
  0.7585964596748250  0.4948103219625296  0.6255329341744762
  0.2489007237846506  0.9996220736580783  0.3740601825489646
  0.2491928463378945  0.0016024968310898  0.8751348952989104
  0.2443846227295182  0.4997979638820879  0.3729103116713277
  0.2520921256511263  0.5015110351611853  0.8751241537580262
  0.7505156995102954  0.9963450396442608  0.3761603053132968
  0.7486190824828366  1.0001742736791408  0.8750440971268678
  0.7560134639580350  0.4954918980014058  0.3704833727726441
  0.7514831446289458  0.4995074545223072  0.8795197607750224
  0.9992898638111175  0.9997194178913836  0.9997752196840944
  0.9976560537671633  0.9981710967324268  0.5003469442214721
  0.0005510466427346  0.4999586529268861  0.0002644128485415
  0.9989097417556735  0.5001059081003987  0.4997700197616541
  0.4998730530186067  0.0010692876100107  0.0002262188435512
  0.4999415318621692  0.9974866266425916  0.4992812476094126
  0.5002034700070633  0.5003324326070249  0.9990862502258619
  0.2506190706055928  0.2508988663581624  0.9998655997851493
  0.2461284351898855  0.2444379485926274  0.5001340082798753
  0.2492563260132868  0.7501313439185618  0.0004019470343572
  0.2499481591066197  0.7513561333403375  0.4992849104522702
  0.7501512709366042  0.2496673100948253  0.0003534597293535
  0.7513382847769099  0.2494314301490126  0.4995973098897075
  0.7494856359402899  0.7497372179703662  0.0000533065194541
  0.2504667354363002  0.2501670812803997  0.2503008060281753
  0.2519158737763427  0.2513474759429373  0.7499278443227512
  0.2488153890238445  0.7501063158688359  0.2499021795175135
  0.2497457077826844  0.7513264342045256  0.7500493981443035
  0.7500574365942028  0.2484193582006455  0.2496339682667047
  0.7510834436082319  0.2503136004545677  0.7504615081337258
  0.7491010126495526  0.7485968043873396  0.2515568152321536
  0.7537965949642014  0.7509341353509783  0.7480461287996181
  0.9993070925506492  0.9991411026788303  0.2505076303496090
  0.0013606223221428  0.0025361067077347  0.7497960708910723
  0.0004455543219862  0.4995890859614096  0.2489262370081137
  0.9999359504897335  0.4988099245744685  0.7511590199684380
  0.4998429656434161  0.0000799421551556  0.2493137149004444
  0.4991792171772533  0.0006454773411094  0.7504870796790690
  0.5007507058281175  0.5008028875744533  0.2494210601272773
  0.5025082475444409  0.4997608420062325  0.7474895397361525
  0.4886786056341894  0.4942678326355348  0.4998119303832736
  0.7504990189073825  0.7538313668396299  0.5012196871449659
  0.1095410999375086  0.1406573499347197  0.2487229316631152
  0.1088487686397073  0.1414329068786763  0.7524807655299127
  0.1090757733230310  0.6408142333737386  0.2506634009901189
  0.1108377766842633  0.6395575430358846  0.7494604483400035
  0.6088543864134734  0.1407408687490721  0.2489271197852974
  0.6094490776079032  0.1412633713959684  0.7507040065766093
  0.6087396839704721  0.6397280999217771  0.2409071575681814
  0.3914372259872466  0.3610850941286882  0.2572966447045756
  0.3902076843471584  0.3569214196429235  0.7451130591186288
  0.3892116653161850  0.8604470818271333  0.2489270838027564
  0.3875601517819696  0.8631876653626227  0.7504351100688407
  0.8905304557508061  0.3591995880683241  0.2513536787834388
  0.8942649231101190  0.3557577171433057  0.7489273337323591
  0.8903096656195121  0.8589763780053954  0.2543911934533652
  0.8912970862520164  0.8578882988317481  0.7471568088022684
  0.3594413476780948  0.1104325313804712  0.2496379471028363
  0.3593284859255107  0.1095870360687292  0.7502049374231131
  0.3593591637755770  0.6097585706925097  0.2527883506051792
  0.3686509132781915  0.6174792626611293  0.7475155648376012
  0.8586890405211778  0.1084310004772244  0.2503436563398401
  0.8573768457844800  0.1069892587912205  0.7496036131640379
  0.8602716772918253  0.6078858940871863  0.2473796149951205
  0.8563068105932504  0.6044989222424380  0.7522914684958086
  0.1410439611377381  0.3909496446152311  0.2489506021811544
  0.1425310711399712  0.3919402627329824  0.7513752592445322
  0.1401794026608311  0.8908392441594669  0.2491643949965160
  0.1399785314524141  0.8901644259848291  0.7509539556888789
  0.6407802935703175  0.3898422865049060  0.2503158092709314
  0.6391948515711251  0.8907793037791848  0.2506136960023991
  0.6353792059567890  0.8842298780274477  0.7503762229131619
  0.3589033012324016  0.3906929716173059  0.9984290394280149
  0.3592191286193948  0.8904872165453739  0.9991610170815496
  0.3554976039111123  0.8942693471020281  0.5010731122453022
  0.8600918910945236  0.3900546000378622  0.0004865304798845
  0.8629008020845541  0.3864068474758531  0.4990652600276179
  0.8591020957049200  0.8903475192644541  0.9956636791475243
  0.8628741876219643  0.8966838149409154  0.5047472078686909
  0.1403143689673017  0.1094340256234760  0.0013820207544719
  0.1424044379229764  0.1081151940335649  0.4989375938595528
  0.1409187495932607  0.6089607577359955  0.9996185934884518
  0.1413080585122417  0.6096808382043968  0.5000441201466490
  0.6411111356892729  0.1092738856820220  0.0000863644775620
  0.6394413626115151  0.1116472734253005  0.4997649557640566
  0.6401451327243630  0.6094734807203803  0.0069616168225143
  0.1096108473217459  0.3590021686478483  0.0005474678208404
  0.1108327511709962  0.3593275275500607  0.4998119549668034
  0.1090990290393408  0.8589066611422018  0.0000487326380733
  0.1085326717893253  0.8578329653044385  0.4997876458311034
  0.6101444051595125  0.3589539483530406  0.0005700101392915
  0.6087311115076999  0.8601514696380477 -0.0000240109114393
  0.6018966604263800  0.8574575615664758  0.4986363609958950
  0.3910297464278771  0.1409959736732118  0.0002373836643044
  0.3917844015409171  0.1442356981693785  0.4999868429952094
  0.3900786011547056  0.6410819373834014  0.0011094433456313
  0.3976448815373317  0.6461371001539158  0.4978503880511419
  0.8907376903178430  0.1403919319614213  0.0000754870599633
  0.8913371487835539  0.1419620565711264  0.5003683885777263
  0.8908641241926674  0.6400190396282662  0.9989093558630677
  0.9965719949688929  0.9971393519396845  0.1250450075166598
  0.0054998621405256  0.0040055555694101  0.6260079180123309
  0.0009102250927961  0.4993446826757702  0.1246340953260538
  0.0025541360390313  0.4990289027908056  0.6258046605503892
  0.4992337287235069  0.0000055931987481  0.1246445266029536
  0.5004430839087722  0.0024756372663594  0.6252701462526062
  0.4935670407202641  0.4936328227058829  0.1265307232647154
  0.0008763279347851  0.0015234936056766  0.3750629123623495
  0.9999350405205480  0.9995756550306216  0.8748781292557265
  0.0016774738464474  0.5005036311212634  0.3744598876282823
  0.0010069004790219  0.4986129163172820  0.8753031762648975
  0.4979528707965281  0.0023494382408552  0.3744016130474953
  0.5002695438567702  0.0010580444671324  0.8752148716381971
  0.5039647244386359  0.5042636389094507  0.8776899659809926
  0.2487416003180677  0.2504320511766208  0.3754322517286619
  0.2512608972849001  0.2498632084942506  0.8755812542401790
  0.2489007583907299  0.7518085902170382  0.3749873214900282
  0.2500726410234400  0.7483070833376081  0.8749087433227617
  0.7492408377549891  0.2482827898874765  0.3748244271932486
  0.7508477001725063  0.2500129654294178  0.8750112739340365
  0.7411495581652298  0.7372807535773932  0.3711579966615812
  0.7407163103813389  0.7421437205045557  0.8747612729256988
  0.2536338851083914  0.2527886707136170  0.1257897902611954
  0.2465619668540177  0.2477354107724231  0.6244469992185467
  0.2495691117522267  0.7491675651807271  0.1251461630142372
  0.2487749867010715  0.7500310488530817  0.6244537230330000
  0.7514091357070813  0.2497924469730813  0.1251844344127300
  0.7486156997035527  0.2490256913180552  0.6248736668607862
  0.7552671262576756  0.7562064945416690  0.1239639599430163
  0.6475392998961516  0.3957030707992915  0.7498804832978342
  0.5167834401322815  0.5146694126733008  0.3786320602741453
  0.6157508510943329  0.3706794169808821  0.4988353928491662
  0.3578469219381378  0.3940096003704800  0.5027255241942725
  0.7275211438385659  0.7271903039103268  0.6316109334398368
  0.8834625413864984  0.6305304995650822  0.5018424493444187
  0.5228506837622073  0.5213340445328761  0.6169860881111235
 
  0.00000000E+00  0.00000000E+00  0.00000000E+00
  0.00000000E+00  0.00000000E+00  0.00000000E+00
  0.00000000E+00  0.00000000E+00  0.00000000E+00
  0.00000000E+00  0.00000000E+00  0.00000000E+00
  0.00000000E+00  0.00000000E+00  0.00000000E+00
  0.00000000E+00  0.00000000E+00  0.00000000E+00
  0.00000000E+00  0.00000000E+00  0.00000000E+00
  0.00000000E+00  0.00000000E+00  0.00000000E+00
  0.00000000E+00  0.00000000E+00  0.00000000E+00
  0.00000000E+00  0.00000000E+00  0.00000000E+00
  0.00000000E+00  0.00000000E+00  0.00000000E+00
  0.00000000E+00  0.00000000E+00  0.00000000E+00
  0.00000000E+00  0.00000000E+00  0.00000000E+00
  0.00000000E+00  0.00000000E+00  0.00000000E+00
  0.00000000E+00  0.00000000E+00  0.00000000E+00
  0.00000000E+00  0.00000000E+00  0.00000000E+00
  0.00000000E+00  0.00000000E+00  0.00000000E+00
  0.00000000E+00  0.00000000E+00  0.00000000E+00
  0.00000000E+00  0.00000000E+00  0.00000000E+00
  0.00000000E+00  0.00000000E+00  0.00000000E+00
  0.00000000E+00  0.00000000E+00  0.00000000E+00
  0.00000000E+00  0.00000000E+00  0.00000000E+00
  0.00000000E+00  0.00000000E+00  0.00000000E+00
  0.00000000E+00  0.00000000E+00  0.00000000E+00
  0.00000000E+00  0.00000000E+00  0.00000000E+00
  0.00000000E+00  0.00000000E+00  0.00000000E+00
  0.00000000E+00  0.00000000E+00  0.00000000E+00
  0.00000000E+00  0.00000000E+00  0.00000000E+00
  0.00000000E+00  0.00000000E+00  0.00000000E+00
  0.00000000E+00  0.00000000E+00  0.00000000E+00
  0.00000000E+00  0.00000000E+00  0.00000000E+00
  0.00000000E+00  0.00000000E+00  0.00000000E+00
  0.00000000E+00  0.00000000E+00  0.00000000E+00
  0.00000000E+00  0.00000000E+00  0.00000000E+00
  0.00000000E+00  0.00000000E+00  0.00000000E+00
  0.00000000E+00  0.00000000E+00  0.00000000E+00
  0.00000000E+00  0.00000000E+00  0.00000000E+00
  0.00000000E+00  0.00000000E+00  0.00000000E+00
  0.00000000E+00  0.00000000E+00  0.00000000E+00
  0.00000000E+00  0.00000000E+00  0.00000000E+00
  0.00000000E+00  0.00000000E+00  0.00000000E+00
  0.00000000E+00  0.00000000E+00  0.00000000E+00
  0.00000000E+00  0.00000000E+00  0.00000000E+00
  0.00000000E+00  0.00000000E+00  0.00000000E+00
  0.00000000E+00  0.00000000E+00  0.00000000E+00
  0.00000000E+00  0.00000000E+00  0.00000000E+00
  0.00000000E+00  0.00000000E+00  0.00000000E+00
  0.00000000E+00  0.00000000E+00  0.00000000E+00
  0.00000000E+00  0.00000000E+00  0.00000000E+00
  0.00000000E+00  0.00000000E+00  0.00000000E+00
  0.00000000E+00  0.00000000E+00  0.00000000E+00
  0.00000000E+00  0.00000000E+00  0.00000000E+00
  0.00000000E+00  0.00000000E+00  0.00000000E+00
  0.00000000E+00  0.00000000E+00  0.00000000E+00
  0.00000000E+00  0.00000000E+00  0.00000000E+00
  0.00000000E+00  0.00000000E+00  0.00000000E+00
  0.00000000E+00  0.00000000E+00  0.00000000E+00
  0.00000000E+00  0.00000000E+00  0.00000000E+00
  0.00000000E+00  0.00000000E+00  0.00000000E+00
  0.00000000E+00  0.00000000E+00  0.00000000E+00
  0.00000000E+00  0.00000000E+00  0.00000000E+00
  0.00000000E+00  0.00000000E+00  0.00000000E+00
  0.00000000E+00  0.00000000E+00  0.00000000E+00
  0.00000000E+00  0.00000000E+00  0.00000000E+00
  0.00000000E+00  0.00000000E+00  0.00000000E+00
  0.00000000E+00  0.00000000E+00  0.00000000E+00
  0.00000000E+00  0.00000000E+00  0.00000000E+00
  0.00000000E+00  0.00000000E+00  0.00000000E+00
  0.00000000E+00  0.00000000E+00  0.00000000E+00
  0.00000000E+00  0.00000000E+00  0.00000000E+00
  0.00000000E+00  0.00000000E+00  0.00000000E+00
  0.00000000E+00  0.00000000E+00  0.00000000E+00
  0.00000000E+00  0.00000000E+00  0.00000000E+00
  0.00000000E+00  0.00000000E+00  0.00000000E+00
  0.00000000E+00  0.00000000E+00  0.00000000E+00
  0.00000000E+00  0.00000000E+00  0.00000000E+00
  0.00000000E+00  0.00000000E+00  0.00000000E+00
  0.00000000E+00  0.00000000E+00  0.00000000E+00
  0.00000000E+00  0.00000000E+00  0.00000000E+00
  0.00000000E+00  0.00000000E+00  0.00000000E+00
  0.00000000E+00  0.00000000E+00  0.00000000E+00
  0.00000000E+00  0.00000000E+00  0.00000000E+00
  0.00000000E+00  0.00000000E+00  0.00000000E+00
  0.00000000E+00  0.00000000E+00  0.00000000E+00
  0.00000000E+00  0.00000000E+00  0.00000000E+00
  0.00000000E+00  0.00000000E+00  0.00000000E+00
  0.00000000E+00  0.00000000E+00  0.00000000E+00
  0.00000000E+00  0.00000000E+00  0.00000000E+00
  0.00000000E+00  0.00000000E+00  0.00000000E+00
  0.00000000E+00  0.00000000E+00  0.00000000E+00
  0.00000000E+00  0.00000000E+00  0.00000000E+00
  0.00000000E+00  0.00000000E+00  0.00000000E+00
  0.00000000E+00  0.00000000E+00  0.00000000E+00
  0.00000000E+00  0.00000000E+00  0.00000000E+00
  0.00000000E+00  0.00000000E+00  0.00000000E+00
  0.00000000E+00  0.00000000E+00  0.00000000E+00
  0.00000000E+00  0.00000000E+00  0.00000000E+00
  0.00000000E+00  0.00000000E+00  0.00000000E+00
  0.00000000E+00  0.00000000E+00  0.00000000E+00
  0.00000000E+00  0.00000000E+00  0.00000000E+00
  0.00000000E+00  0.00000000E+00  0.00000000E+00
  0.00000000E+00  0.00000000E+00  0.00000000E+00
  0.00000000E+00  0.00000000E+00  0.00000000E+00
  0.00000000E+00  0.00000000E+00  0.00000000E+00
  0.00000000E+00  0.00000000E+00  0.00000000E+00
  0.00000000E+00  0.00000000E+00  0.00000000E+00
  0.00000000E+00  0.00000000E+00  0.00000000E+00
  0.00000000E+00  0.00000000E+00  0.00000000E+00
  0.00000000E+00  0.00000000E+00  0.00000000E+00
  0.00000000E+00  0.00000000E+00  0.00000000E+00
  0.00000000E+00  0.00000000E+00  0.00000000E+00
  0.00000000E+00  0.00000000E+00  0.00000000E+00
  0.00000000E+00  0.00000000E+00  0.00000000E+00
  0.00000000E+00  0.00000000E+00  0.00000000E+00
  0.00000000E+00  0.00000000E+00  0.00000000E+00
  0.00000000E+00  0.00000000E+00  0.00000000E+00
  0.00000000E+00  0.00000000E+00  0.00000000E+00
  0.00000000E+00  0.00000000E+00  0.00000000E+00
  0.00000000E+00  0.00000000E+00  0.00000000E+00
  0.00000000E+00  0.00000000E+00  0.00000000E+00
  0.00000000E+00  0.00000000E+00  0.00000000E+00
  0.00000000E+00  0.00000000E+00  0.00000000E+00
  0.00000000E+00  0.00000000E+00  0.00000000E+00
  0.00000000E+00  0.00000000E+00  0.00000000E+00
  0.00000000E+00  0.00000000E+00  0.00000000E+00
  0.00000000E+00  0.00000000E+00  0.00000000E+00
  0.00000000E+00  0.00000000E+00  0.00000000E+00
  0.00000000E+00  0.00000000E+00  0.00000000E+00
  0.00000000E+00  0.00000000E+00  0.00000000E+00
  0.00000000E+00  0.00000000E+00  0.00000000E+00
  0.00000000E+00  0.00000000E+00  0.00000000E+00
  0.00000000E+00  0.00000000E+00  0.00000000E+00
  0.00000000E+00  0.00000000E+00  0.00000000E+00
  0.00000000E+00  0.00000000E+00  0.00000000E+00
  0.00000000E+00  0.00000000E+00  0.00000000E+00
  0.00000000E+00  0.00000000E+00  0.00000000E+00
  0.00000000E+00  0.00000000E+00  0.00000000E+00
  0.00000000E+00  0.00000000E+00  0.00000000E+00
  0.00000000E+00  0.00000000E+00  0.00000000E+00
  0.00000000E+00  0.00000000E+00  0.00000000E+00
  0.00000000E+00  0.00000000E+00  0.00000000E+00
  0.00000000E+00  0.00000000E+00  0.00000000E+00
  0.00000000E+00  0.00000000E+00  0.00000000E+00
  0.00000000E+00  0.00000000E+00  0.00000000E+00
  0.00000000E+00  0.00000000E+00  0.00000000E+00
  0.00000000E+00  0.00000000E+00  0.00000000E+00
  0.00000000E+00  0.00000000E+00  0.00000000E+00
  0.00000000E+00  0.00000000E+00  0.00000000E+00
  0.00000000E+00  0.00000000E+00  0.00000000E+00
  0.00000000E+00  0.00000000E+00  0.00000000E+00
  0.00000000E+00  0.00000000E+00  0.00000000E+00
  0.00000000E+00  0.00000000E+00  0.00000000E+00
  0.00000000E+00  0.00000000E+00  0.00000000E+00
  0.00000000E+00  0.00000000E+00  0.00000000E+00
  0.00000000E+00  0.00000000E+00  0.00000000E+00
  0.00000000E+00  0.00000000E+00  0.00000000E+00
  0.00000000E+00  0.00000000E+00  0.00000000E+00
  0.00000000E+00  0.00000000E+00  0.00000000E+00
