Sr   Ti   Fe   O                        
   1.00000000000000     
    11.1989999999999998    0.0000000000000000    0.0000000000000000
     0.0000000000000000   11.1989999999999998    0.0000000000000000
     0.0000000000000000    0.0000000000000000   15.9830000000000005
   Sr   Ti   Fe   O 
    32    31     1    94
Direct
  0.0001895607964249  0.2491358319130317  0.1250043702385833
  0.0009653127524523  0.2477032997438131  0.6238500813652750
  0.9981027826477042  0.7505061074009229  0.1257554041278288
 -0.0021425086704110  0.7514038465494507  0.6220643500182418
  0.4995029113196440  0.2506439052203832  0.1252676184303446
  0.5003118675256046  0.2387143510559659  0.6230243023186635
  0.5008818009455529  0.7515274970018866  0.1238452152996461
  0.4947627714426004  0.7593641887099856  0.6218419305561007
  0.0000620241929662  0.2484242702895842  0.3757831255626124
  0.0013346845698306  0.2499575870801065  0.8755603387127684
  0.9939750247870909  0.7490907858099707  0.3780573278102141
  0.0025689392037568  0.7500222688387276  0.8760804757540024
  0.5016940477638560  0.2425713314663157  0.3734033839359559
  0.4985990737655401  0.2485005360179331  0.8757482759733317
  0.4989535370604452  0.7529520132931331  0.3706178942997664
  0.4981562976701714  0.7567380990001874  0.8787284052933253
  0.2495908648566028  0.0004725021470629  0.1250381986223137
  0.2478846686863737  0.0004870012810176  0.6242878396165036
  0.2505123667877559  0.5003336830325745  0.1245069398995930
  0.2365846472602297  0.5016781204808680  0.6252414243893537
  0.7504912645274060  0.9982259670416052  0.1249002488932475
  0.7503927232665988 -0.0025916463684531  0.6230291174103758
  0.7504481755367800  0.5000413230654479  0.1257357124766057
  0.7678474400323069  0.4968201733955998  0.6260426775194557
  0.2481904532103639 -0.0004768749441812  0.3750016305726642
  0.2493538361257283  0.0019365489692101  0.8749721065296236
  0.2439338704883151  0.5013036663545329  0.3746089984286600
  0.2489075908890903  0.5008037379842029  0.8759148007646795
  0.7510007088159291  0.9944272071607673  0.3765524612366090
  0.7494598324278935  0.0014097994726150  0.8756331394199979
  0.7571174199733796  0.4976279804475686  0.3706293409899297
  0.7528770432004188  0.5000578838247098  0.8794841553318440
  0.9997459092846955  1.0000961786376319  0.9995719103186856
  0.9974964530071687  0.9985930251485139  0.4995124121175767
  0.0004845519323065  0.4999115927391330  0.0006124069515798
  0.9976670389514893  0.5004382339273438  0.4991826860428024
  0.4997947549717792  0.0011119471680358  0.0003795891688665
  0.5008294806910013  0.9966592679396840  0.4987371870848537
  0.5002914975284233  0.5006619893996014  1.0000161241642813
  0.2506037200944566  0.2509957581355323  0.9998925387066895
  0.2482531085358924  0.2471475746259781  0.5008411854502578
  0.2501623737086537  0.7496932759362384  0.0003150897284834
  0.2486306119967075  0.7507243700126044  0.4989382034765821
  0.7497796073947454  0.2502425744297881  0.0003187264633870
  0.7491844918591284  0.2487028958755699  0.4994455795061381
  0.7497043212167526  0.7496504792750304  0.0005368578378644
  0.2506148196645390  0.2507251949838570  0.2503565267602538
  0.2516525429131771  0.2512820459150489  0.7491010112477544
  0.2487508724967545  0.7502155121551083  0.2499668310759305
  0.2500916385358833  0.7518138845817084  0.7486050751061843
  0.7500772426760394  0.2485888802264959  0.2498898351586116
  0.7506452876163831  0.2500841063163504  0.7493358872189345
  0.7490762409239866  0.7486714530767163  0.2517222191263230
  0.7569767190524458  0.7549181246718538  0.7504600529156751
  0.9995888570661138  0.9992421534194631  0.2504307032398190
  0.0017349007215591  0.0030916306253099  0.7505978799288443
  0.0007378246346958  0.4997357920816137  0.2491936743050568
  1.0003367841585806  0.4991388980077933  0.7518524019245921
  0.4997337464591497 -0.0002346212972733  0.2492418921204426
  0.4991122916839952  0.0004574942329732  0.7505670378694282
  0.5007778646481633  0.5005523649813861  0.2474118019139848
  0.5022936137003363  0.4996720280100288  0.7530801790478798
  0.4944576539807163  0.4951213969865341  0.4937304405350567
  0.7477709408487101  0.7502537355105484  0.5034483393968985
  0.1101581213077474  0.1418516698781435  0.2494847001686666
  0.1086971282793063  0.1413710237704431  0.7528397278940879
  0.1088052976825247  0.6410417271792170  0.2503140105963043
  0.1130430244914239  0.6382997060619067  0.7496020526872568
  0.6085805733055715  0.1407383649466313  0.2482495372170105
  0.6092650272239682  0.1413783612095261  0.7509331275074038
  0.6080920256561979  0.6400914948006371  0.2409886089244778
  0.3926320122489081  0.3606239691499263  0.2553202038871051
  0.3907019019960217  0.3576786639909201  0.7414091213894165
  0.3900432881153698  0.8595085699015240  0.2486776214841446
  0.3880667569657498  0.8627900000541927  0.7510344008552470
  0.8906983649185354  0.3591201385444349  0.2510152677222162
  0.8931080690947212  0.3568990267719309  0.7493050977831877
  0.8907623109952620  0.8591791036317009  0.2531632592085922
  0.8946336181460008  0.8596214721584323  0.7553015721518235
  0.3590131160954961  0.1101448792182847  0.2500925959247062
  0.3595601177148373  0.1096805786025944  0.7500562399033245
  0.3589081606636130  0.6087132437853036  0.2522069397043906
  0.3737522173199549  0.6164526915285576  0.7353914953371922
  0.8587973901119236  0.1086735477703832  0.2494992810508671
  0.8574038802972692  0.1078383949874668  0.7505919185085458
  0.8602915059013156  0.6077840604729288  0.2472334515890982
  0.8586971984663712  0.6066928473977424  0.7540399601684187
  0.1416464089625258  0.3915780937312508  0.2491511903931380
  0.1420588806752520  0.3912522152130921  0.7518963420945690
  0.1407397717597124  0.8914973173105165  0.2480450789618114
  0.1413090012982618  0.8903197720403051  0.7518972312852682
  0.6412521918716022  0.3906980571249722  0.2494684511989454
  0.6393517015225377  0.8908847518621216  0.2498712769908729
  0.6352359829210490  0.8847541758151616  0.7536095005823039
  0.3588760960294726  0.3915277167559779  0.9982044266714110
  0.3593793770996589  0.8902946504388974  0.9985988407420006
  0.3572604377700838  0.8910144021888879  0.5005995022456441
  0.8598265842950040  0.3903884016021029  0.0002483294212563
  0.8606476572126901  0.3860066131810157  0.4981329361778593
  0.8598790978497937  0.8902248243134333  0.9959420603551209
  0.8642731706154839  0.8948482277921295  0.4994034760777852
  0.1409089532440468  0.1101302925996421  0.0012818622367989
  0.1413794056177493  0.1106343007610138  0.4983296972872489
  0.1411103101716422  0.6089825907390570  0.9994057558765919
  0.1346837816168629  0.6125003149597097  0.4991085331745593
  0.6408262557757447  0.1097852263940020  0.9997829876093519
  0.6411516958622389  0.1065166255931103  0.4997420541413153
  0.6408820525697394  0.6088164500923144  0.0070597566664842
  0.1097302844289144  0.3590670476007973  0.0001779311565964
  0.1118193437364852  0.3611161348576109  0.4998909864295757
  0.1103278596823299  0.8588755129557379  0.9986218698245451
  0.1088736381938760  0.8604147919464463  0.4987512560109357
  0.6090838781973075  0.3592751241645726  0.0001144536913963
  0.6089342228042515  0.8606511715152879  0.0003122884700449
  0.6018415103712763  0.8568231293939667  0.4981899797259408
  0.3909182890438503  0.1412864735931207  0.0005046405994978
  0.3903992449879312  0.1409569130955166  0.4996425230425546
  0.3910260751269303  0.6411773084918942  0.0017163071472822
  0.3827562932179556  0.6372873104437021  0.4963911469771433
  0.8899629220860105  0.1408512760419988  0.9989093458822541
  0.8908732351265446  0.1410909234252084  0.4994309173707331
  0.8912601635523766  0.6398088686065930  0.9988903923346067
  0.9977613662342113  0.9985450361186210  0.1243976306877888
  0.0022399868332395  0.0013038783736400  0.6263834990982249
  0.0012371938626639  0.4991734829983481  0.1245202598854148
  0.0025114406139810  0.4984099238690206  0.6259845599718207
  0.4986330143570010  0.0003008149507653  0.1245253769445787
  0.5008416136223455  0.0012791860837268  0.6254687637216563
  0.4942126598251440  0.4940959084509592  0.1256115961360209
  1.0022157856198053  0.0025301210799079  0.3737941050836012
  0.0020479400455797  0.0026542313991390  0.8757535874768256
  0.0009504284004331  0.4997026767671484  0.3740648191997299
  0.0019264213175708  0.4983623674237930  0.8756647860838349
  0.4981975656319056  0.0013828920055818  0.3739402974626695
  0.4991350284089809  0.0024228544572862  0.8756895311281501
  0.5047118006200367  0.5077902462958680  0.8774191602534472
  0.2527937855050696  0.2552360062199755  0.3763027344102674
  0.2530476546392197  0.2509266981188316  0.8750609609055390
  0.2479098678438207  0.7529184538438529  0.3739012289321007
  0.2545124448862948  0.7430769214884778  0.8734372246867979
  0.7483611063638147  0.2481720033387120  0.3742331704328078
  0.7473821368890174  0.2538903587251614  0.8738956936734338
  0.7415433098764175  0.7375585616457981  0.3705555351828673
  0.7398837854924030  0.7416166820601385  0.8761529246748125
  0.2533099051018050  0.2529443779898878  0.1256752335452558
  0.2425377489405880  0.2433517270436309  0.6253630645018314
  0.2495128652621913  0.7493351548242853  0.1245531696881047
  0.2450409480123515  0.7534300420459644  0.6239691175805766
  0.7510152400074311  0.2502277121962868  0.1245895392433566
  0.7506732332558473  0.2469774738217754  0.6244575460561818
  0.7549117251520691  0.7553754221156554  0.1238622159243174
  0.6447605832359801  0.3978701375572513  0.7421359929847825
  0.5175270916351283  0.5140835777500025  0.3764656910285453
  0.6060319400954698  0.3552584581423366  0.4985527195375687
  0.3619072480499672  0.3920735151609861  0.5151674667185723
  0.7477391268754779  0.7492781570635375  0.6336760837899226
  0.8822043823889463  0.6291745957509128  0.5017337359572106
  0.5866682131641505  0.5755704572861782  0.5708413019043355
 
  0.00000000E+00  0.00000000E+00  0.00000000E+00
  0.00000000E+00  0.00000000E+00  0.00000000E+00
  0.00000000E+00  0.00000000E+00  0.00000000E+00
  0.00000000E+00  0.00000000E+00  0.00000000E+00
  0.00000000E+00  0.00000000E+00  0.00000000E+00
  0.00000000E+00  0.00000000E+00  0.00000000E+00
  0.00000000E+00  0.00000000E+00  0.00000000E+00
  0.00000000E+00  0.00000000E+00  0.00000000E+00
  0.00000000E+00  0.00000000E+00  0.00000000E+00
  0.00000000E+00  0.00000000E+00  0.00000000E+00
  0.00000000E+00  0.00000000E+00  0.00000000E+00
  0.00000000E+00  0.00000000E+00  0.00000000E+00
  0.00000000E+00  0.00000000E+00  0.00000000E+00
  0.00000000E+00  0.00000000E+00  0.00000000E+00
  0.00000000E+00  0.00000000E+00  0.00000000E+00
  0.00000000E+00  0.00000000E+00  0.00000000E+00
  0.00000000E+00  0.00000000E+00  0.00000000E+00
  0.00000000E+00  0.00000000E+00  0.00000000E+00
  0.00000000E+00  0.00000000E+00  0.00000000E+00
  0.00000000E+00  0.00000000E+00  0.00000000E+00
  0.00000000E+00  0.00000000E+00  0.00000000E+00
  0.00000000E+00  0.00000000E+00  0.00000000E+00
  0.00000000E+00  0.00000000E+00  0.00000000E+00
  0.00000000E+00  0.00000000E+00  0.00000000E+00
  0.00000000E+00  0.00000000E+00  0.00000000E+00
  0.00000000E+00  0.00000000E+00  0.00000000E+00
  0.00000000E+00  0.00000000E+00  0.00000000E+00
  0.00000000E+00  0.00000000E+00  0.00000000E+00
  0.00000000E+00  0.00000000E+00  0.00000000E+00
  0.00000000E+00  0.00000000E+00  0.00000000E+00
  0.00000000E+00  0.00000000E+00  0.00000000E+00
  0.00000000E+00  0.00000000E+00  0.00000000E+00
  0.00000000E+00  0.00000000E+00  0.00000000E+00
  0.00000000E+00  0.00000000E+00  0.00000000E+00
  0.00000000E+00  0.00000000E+00  0.00000000E+00
  0.00000000E+00  0.00000000E+00  0.00000000E+00
  0.00000000E+00  0.00000000E+00  0.00000000E+00
  0.00000000E+00  0.00000000E+00  0.00000000E+00
  0.00000000E+00  0.00000000E+00  0.00000000E+00
  0.00000000E+00  0.00000000E+00  0.00000000E+00
  0.00000000E+00  0.00000000E+00  0.00000000E+00
  0.00000000E+00  0.00000000E+00  0.00000000E+00
  0.00000000E+00  0.00000000E+00  0.00000000E+00
  0.00000000E+00  0.00000000E+00  0.00000000E+00
  0.00000000E+00  0.00000000E+00  0.00000000E+00
  0.00000000E+00  0.00000000E+00  0.00000000E+00
  0.00000000E+00  0.00000000E+00  0.00000000E+00
  0.00000000E+00  0.00000000E+00  0.00000000E+00
  0.00000000E+00  0.00000000E+00  0.00000000E+00
  0.00000000E+00  0.00000000E+00  0.00000000E+00
  0.00000000E+00  0.00000000E+00  0.00000000E+00
  0.00000000E+00  0.00000000E+00  0.00000000E+00
  0.00000000E+00  0.00000000E+00  0.00000000E+00
  0.00000000E+00  0.00000000E+00  0.00000000E+00
  0.00000000E+00  0.00000000E+00  0.00000000E+00
  0.00000000E+00  0.00000000E+00  0.00000000E+00
  0.00000000E+00  0.00000000E+00  0.00000000E+00
  0.00000000E+00  0.00000000E+00  0.00000000E+00
  0.00000000E+00  0.00000000E+00  0.00000000E+00
  0.00000000E+00  0.00000000E+00  0.00000000E+00
  0.00000000E+00  0.00000000E+00  0.00000000E+00
  0.00000000E+00  0.00000000E+00  0.00000000E+00
  0.00000000E+00  0.00000000E+00  0.00000000E+00
  0.00000000E+00  0.00000000E+00  0.00000000E+00
  0.00000000E+00  0.00000000E+00  0.00000000E+00
  0.00000000E+00  0.00000000E+00  0.00000000E+00
  0.00000000E+00  0.00000000E+00  0.00000000E+00
  0.00000000E+00  0.00000000E+00  0.00000000E+00
  0.00000000E+00  0.00000000E+00  0.00000000E+00
  0.00000000E+00  0.00000000E+00  0.00000000E+00
  0.00000000E+00  0.00000000E+00  0.00000000E+00
  0.00000000E+00  0.00000000E+00  0.00000000E+00
  0.00000000E+00  0.00000000E+00  0.00000000E+00
  0.00000000E+00  0.00000000E+00  0.00000000E+00
  0.00000000E+00  0.00000000E+00  0.00000000E+00
  0.00000000E+00  0.00000000E+00  0.00000000E+00
  0.00000000E+00  0.00000000E+00  0.00000000E+00
  0.00000000E+00  0.00000000E+00  0.00000000E+00
  0.00000000E+00  0.00000000E+00  0.00000000E+00
  0.00000000E+00  0.00000000E+00  0.00000000E+00
  0.00000000E+00  0.00000000E+00  0.00000000E+00
  0.00000000E+00  0.00000000E+00  0.00000000E+00
  0.00000000E+00  0.00000000E+00  0.00000000E+00
  0.00000000E+00  0.00000000E+00  0.00000000E+00
  0.00000000E+00  0.00000000E+00  0.00000000E+00
  0.00000000E+00  0.00000000E+00  0.00000000E+00
  0.00000000E+00  0.00000000E+00  0.00000000E+00
  0.00000000E+00  0.00000000E+00  0.00000000E+00
  0.00000000E+00  0.00000000E+00  0.00000000E+00
  0.00000000E+00  0.00000000E+00  0.00000000E+00
  0.00000000E+00  0.00000000E+00  0.00000000E+00
  0.00000000E+00  0.00000000E+00  0.00000000E+00
  0.00000000E+00  0.00000000E+00  0.00000000E+00
  0.00000000E+00  0.00000000E+00  0.00000000E+00
  0.00000000E+00  0.00000000E+00  0.00000000E+00
  0.00000000E+00  0.00000000E+00  0.00000000E+00
  0.00000000E+00  0.00000000E+00  0.00000000E+00
  0.00000000E+00  0.00000000E+00  0.00000000E+00
  0.00000000E+00  0.00000000E+00  0.00000000E+00
  0.00000000E+00  0.00000000E+00  0.00000000E+00
  0.00000000E+00  0.00000000E+00  0.00000000E+00
  0.00000000E+00  0.00000000E+00  0.00000000E+00
  0.00000000E+00  0.00000000E+00  0.00000000E+00
  0.00000000E+00  0.00000000E+00  0.00000000E+00
  0.00000000E+00  0.00000000E+00  0.00000000E+00
  0.00000000E+00  0.00000000E+00  0.00000000E+00
  0.00000000E+00  0.00000000E+00  0.00000000E+00
  0.00000000E+00  0.00000000E+00  0.00000000E+00
  0.00000000E+00  0.00000000E+00  0.00000000E+00
  0.00000000E+00  0.00000000E+00  0.00000000E+00
  0.00000000E+00  0.00000000E+00  0.00000000E+00
  0.00000000E+00  0.00000000E+00  0.00000000E+00
  0.00000000E+00  0.00000000E+00  0.00000000E+00
  0.00000000E+00  0.00000000E+00  0.00000000E+00
  0.00000000E+00  0.00000000E+00  0.00000000E+00
  0.00000000E+00  0.00000000E+00  0.00000000E+00
  0.00000000E+00  0.00000000E+00  0.00000000E+00
  0.00000000E+00  0.00000000E+00  0.00000000E+00
  0.00000000E+00  0.00000000E+00  0.00000000E+00
  0.00000000E+00  0.00000000E+00  0.00000000E+00
  0.00000000E+00  0.00000000E+00  0.00000000E+00
  0.00000000E+00  0.00000000E+00  0.00000000E+00
  0.00000000E+00  0.00000000E+00  0.00000000E+00
  0.00000000E+00  0.00000000E+00  0.00000000E+00
  0.00000000E+00  0.00000000E+00  0.00000000E+00
  0.00000000E+00  0.00000000E+00  0.00000000E+00
  0.00000000E+00  0.00000000E+00  0.00000000E+00
  0.00000000E+00  0.00000000E+00  0.00000000E+00
  0.00000000E+00  0.00000000E+00  0.00000000E+00
  0.00000000E+00  0.00000000E+00  0.00000000E+00
  0.00000000E+00  0.00000000E+00  0.00000000E+00
  0.00000000E+00  0.00000000E+00  0.00000000E+00
  0.00000000E+00  0.00000000E+00  0.00000000E+00
  0.00000000E+00  0.00000000E+00  0.00000000E+00
  0.00000000E+00  0.00000000E+00  0.00000000E+00
  0.00000000E+00  0.00000000E+00  0.00000000E+00
  0.00000000E+00  0.00000000E+00  0.00000000E+00
  0.00000000E+00  0.00000000E+00  0.00000000E+00
  0.00000000E+00  0.00000000E+00  0.00000000E+00
  0.00000000E+00  0.00000000E+00  0.00000000E+00
  0.00000000E+00  0.00000000E+00  0.00000000E+00
  0.00000000E+00  0.00000000E+00  0.00000000E+00
  0.00000000E+00  0.00000000E+00  0.00000000E+00
  0.00000000E+00  0.00000000E+00  0.00000000E+00
  0.00000000E+00  0.00000000E+00  0.00000000E+00
  0.00000000E+00  0.00000000E+00  0.00000000E+00
  0.00000000E+00  0.00000000E+00  0.00000000E+00
  0.00000000E+00  0.00000000E+00  0.00000000E+00
  0.00000000E+00  0.00000000E+00  0.00000000E+00
  0.00000000E+00  0.00000000E+00  0.00000000E+00
  0.00000000E+00  0.00000000E+00  0.00000000E+00
  0.00000000E+00  0.00000000E+00  0.00000000E+00
  0.00000000E+00  0.00000000E+00  0.00000000E+00
  0.00000000E+00  0.00000000E+00  0.00000000E+00
  0.00000000E+00  0.00000000E+00  0.00000000E+00
  0.00000000E+00  0.00000000E+00  0.00000000E+00
  0.00000000E+00  0.00000000E+00  0.00000000E+00
  0.00000000E+00  0.00000000E+00  0.00000000E+00
