Sr   Ti   O                             
   1.00000000000000     
    11.1989999999999998    0.0000000000000000    0.0000000000000000
     0.0000000000000000   11.1989999999999998    0.0000000000000000
     0.0000000000000000    0.0000000000000000   15.9830000000000005
   Sr   Ti   O 
    32    32    94
Direct
  0.0000996120698360  0.2491655125956935  0.1248100906886816
  0.0010252239284111  0.2471490254721648  0.6245066707517893
  0.9983213325519147  0.7505898162910081  0.1253830098554261
  0.0012073389570023  0.7510811291728903  0.6248435696459200
  0.4998740576269443  0.2507937809965548  0.1250949090724820
  0.5002564177849688  0.2387509167863952  0.6238976640726118
  0.5006813067731725  0.7515708558881293  0.1235523907973491
  0.4896481683149314  0.7602770214882913  0.6230554742671147
  0.0000100642530557  0.2482410072489197  0.3750812448401622
  0.0013969842779568  0.2498064111416607  0.8755678479401076
 -0.0023601747985009  0.7486742443615684  0.3758673443521927
  0.0024440907435036  0.7497514366201715  0.8769559262546103
  0.5018980302950210  0.2431073518990298  0.3727982114646738
  0.4988592263458696  0.2487627483296184  0.8755647672975124
  0.4966895974643484  0.7525789703706158  0.3692268874555436
  0.4977983185386851  0.7566485047406278  0.8790532773121053
  0.2500680882536094  0.0003858961002065  0.1249862216561995
  0.2476209898920213  0.0005572189448862  0.6250857070321212
  0.2506214826020249  0.5005302347514291  0.1244493905395361
  0.2367670222313598  0.5020661996874141  0.6258315218418716
  0.7501324644379570  0.9983203484403194  0.1244298401541884
  0.7502082646859439  0.0010284019821999  0.6252539205992539
  0.7510264227876675  0.5000301664260939  0.1254157421070645
  0.7682405947445595  0.4918786037248127  0.6267564915971702
  0.2482451675271475 -0.0005309806882504  0.3741836492655730
  0.2495227424660655  0.0020285429487013  0.8750627769245579
  0.2440508850134302  0.5015454883691027  0.3743253698867283
  0.2491726454891797  0.5006267594340186  0.8761493602276599
  0.7508111849390635 -0.0008968484060473  0.3734887388674977
  0.7492966951019039  0.0012799226419939  0.8759390782115596
  0.7577674098235572  0.4946263377361621  0.3692119407145565
  0.7528740783391997  0.4998826821429207  0.8794869634722827
  0.9999981235861928  1.0002551547067986  0.9995787002337797
 -0.0018951062437253 -0.0009875704567009  0.4992438538295687
  0.0005977854824863  0.4997000820353851  0.0005464413477685
 -0.0012859922611550  0.4983837560723033  0.4992424744729070
  0.4998719071127873  0.0012026083167594  0.0002976170496289
  0.4992264165912940 -0.0016961904366278  0.4988531131327432
  0.5002686328843616  0.5006813407776204  0.9998235834229203
  0.2508109682392935  0.2509014347345457  0.9999531466745963
  0.2484829997570094  0.2472591674243411  0.5008497269969967
  0.2501615453949096  0.7496856618194122  0.0003138055445442
  0.2480129014139709  0.7508224656395669  0.4988064362435927
  0.7498848995869066  0.2502537157146237  0.0001987812677284
  0.7489723554700770  0.2481424595365815  0.4993837983606551
  0.7498032266755674  0.7496962618835703  0.0005298396358163
  0.2505993173742050  0.2508856109359997  0.2503583287736841
  0.2516435764154443  0.2513952180580425  0.7491668123211486
  0.2487700948939527  0.7502596071100864  0.2494415000891125
  0.2500189099869701  0.7517162205113028  0.7493418104870188
  0.7501470209651604  0.2486922895789758  0.2491477734857356
  0.7509407776402750  0.2497715689058679  0.7499079127475912
  0.7491173000304201  0.7487758278423675  0.2513861634078474
  0.7566636918093222  0.7546219836684934  0.7507253316063076
  0.9996735878384052  0.9991029504942087  0.2500698613657402
  0.0015592487623821  0.0025023272928975  0.7508715706867525
  0.0009153096734530  0.4998258225314294  0.2488980483443700
  1.0003060184364365  0.4990977325454515  0.7519593332532380
  0.4996389632010151 -0.0002310568475650  0.2489869683717674
  0.4989831620917989  0.0002960746635901  0.7507535708586978
  0.5008905059513827  0.5006369935050156  0.2474689414192675
  0.5028113732284980  0.5001935931342235  0.7524573046342539
  0.4948067288074485  0.4957523510910987  0.4946523179613239
  0.7486713099407882  0.7523830705101476  0.5036783474217501
  0.1109123555213831  0.1415327888509580  0.2497215294463050
  0.1093755881590579  0.1407201889199201  0.7518554122777218
  0.1092154985863649  0.6406704996613188  0.2500213715380338
  0.1131459242114422  0.6379903364726003  0.7493891509182619
  0.6094859838928006  0.1398990453296282  0.2485469126097065
  0.6103083146033165  0.1401145597066497  0.7501514196249860
  0.6085254447903463  0.6401547862457682  0.2416270242359551
  0.3924529368052067  0.3613493307229806  0.2560113973250663
  0.3902484302809000  0.3585616997486427  0.7408250011580837
  0.3892101023060504  0.8602262470318077  0.2486661222310768
  0.3869453352805212  0.8636051604186495  0.7513572165683982
  0.8901846224259753  0.3597564020551265  0.2513875459888908
  0.8928643749842534  0.3570931390993146  0.7490850579511089
  0.8900502929974355  0.8596120299677180  0.2541901031900931
  0.8941909363682984  0.8598713755012201  0.7566792462696197
  0.3598604560979040  0.1107366575947802  0.2510106610807619
  0.3602970479574795  0.1103745956135986  0.7494030489491247
  0.3597304477047973  0.6093277112912920  0.2531861153399327
  0.3744030212378835  0.6172354142856364  0.7352718294715491
  0.8596923117206838  0.1093246562902711  0.2488567817492011
  0.8582314302785061  0.1082367984514781  0.7508596658620470
  0.8602369685546563  0.6088833306848652  0.2481278965814231
  0.8576440937477738  0.6070641343014334  0.7524456702323946
  0.1413342578116423  0.3913634837527175  0.2500727810498636
  0.1415596848653666  0.3909173063550652  0.7513760490987331
  0.1399956675872863  0.8909849009530026  0.2481899329607583
  0.1404763078892260  0.8897300271057490  0.7514759223328364
  0.6406589571487452  0.3902529883757824  0.2494866893533665
  0.6393489195655458  0.8900963056577849  0.2505102008818076
  0.6345883237710817  0.8829015526975287  0.7523788104232286
  0.3590750222658078  0.3915377484944084  0.9981717554291468
  0.3596924763837483  0.8901987526816246  0.9984293203154491
  0.3571784574077826  0.8909686686052956  0.5005003652479764
  0.8599870191116918  0.3902031632946909  0.0000896993719825
  0.8613125534202575  0.3851450319654606  0.4979007711646999
  0.8600738536700130  0.8900371071802067  0.9958017324147140
  0.8600998511144530  0.8919425429347327  0.4971782414584905
  0.1411240873690588  0.1104377858379205  0.0017230926831212
  0.1408231241678872  0.1097066797210187  0.4984506313343031
  0.1408489069671268  0.6091700125225159  0.9995884510188781
  0.1323849630993315  0.6135017257582741  0.4992598079000041
  0.6407575413024519  0.1098877554570375  1.0000080174269090
  0.6415141735705000  0.1046604714642255  0.4998463629593106
  0.6408079321660813  0.6092140046899535  0.0070118305612006
  0.1100013481066108  0.3591997453506209  1.0000121885186926
  0.1115089418619514  0.3611931737981816  0.4997753591820862
  0.1104526105449078  0.8591178798430529  0.9986810812425384
  0.1068880215832153  0.8601001089783886  0.4990414197748668
  0.6090628196852653  0.3597050986545886  0.9998601138783704
  0.6095249996283879  0.8605157017263264  0.0003145149921182
  0.6017228689799103  0.8513008600653066  0.4992741751035519
  0.3909039163858071  0.1413436781311385  0.0003539608574882
  0.3910132985785332  0.1406030372238085  0.4996348644630974
  0.3911144752436461  0.6410223658082237  0.0016990199226110
  0.3823560490881251  0.6368257851122541  0.4965197962351325
  0.8900715858599275  0.1406115068655792  0.9990213285159816
  0.8905176950158857  0.1394226181776111  0.4996397320474353
  0.8907752844776957  0.6400137400776381  0.9992357670131916
  0.9978736972959310  0.9981523161071071  0.1245257031805175
  0.0000319862342175 -0.0004890122293832  0.6259697196396975
  1.0007708876178349  0.4989301270654200  0.1247607728031301
  0.0018975010915428  0.4989362354981022  0.6253807955597452
  0.4986909594736482  1.0000472127977247  0.1247025780424872
  0.5009187037525459  0.0002124840811895  0.6248761787063689
  0.4941250048799743  0.4945159129730590  0.1258195912459843
  1.0019835411115536  1.0027733656964828  0.3739776894730688
  0.0030107347048206  1.0033320120293032  0.8758265367964142
  0.0000012572933189  0.5011852414238456  0.3747333072339018
  0.0011176551353756  0.4991090369292430  0.8753923726531563
  0.4993592398452122  0.9998466749072940  0.3747082074574343
  0.5000137361496871  0.0021659707123116  0.8753465612510343
  0.5041290577274438  0.5078117151649437  0.8770079734610490
  0.2528582795196311  0.2550797049569566  0.3769238260125404
  0.2530616442988604  0.2508006440726949  0.8747564199781231
  0.2468274104200019  0.7531505369852641  0.3741112605680163
  0.2543559637265261  0.7428142330196758  0.8734718210648803
  0.7482982408494009  0.2473140119748057  0.3743945453934874
  0.7472954379352678  0.2533947544269926  0.8738902704170786
  0.7407517550427901  0.7375588083382668  0.3731168775005632
  0.7402074905196517  0.7416174742266471  0.8755645352308077
  0.2538758629256940  0.2534690449608691  0.1260106671539901
  0.2426751029817024  0.2432222236049721  0.6247500530644908
  0.2498602621972849  0.7492127679209165  0.1246614238824526
  0.2452550139682696  0.7534328118372154  0.6238601462400093
  0.7509025071645612  0.2506515893044429  0.1245835242972750
  0.7508237039211987  0.2468914054890642  0.6243743403098375
  0.7552596328259644  0.7559300552833113  0.1245674542337737
  0.6444362863796526  0.3972360120601690  0.7426509448098569
  0.5187713593458388  0.5144115306308246  0.3775721397779943
  0.6065068204998160  0.3558948865467354  0.4992714793605668
  0.3621528249748444  0.3920511551253189  0.5148851779355954
  0.7519652816094812  0.7539607945665561  0.6313491562742731
  0.8761402728287102  0.6288379708431817  0.5024331636167380
  0.5859489287871650  0.5759424747137695  0.5743086620299079
 
  0.00000000E+00  0.00000000E+00  0.00000000E+00
  0.00000000E+00  0.00000000E+00  0.00000000E+00
  0.00000000E+00  0.00000000E+00  0.00000000E+00
  0.00000000E+00  0.00000000E+00  0.00000000E+00
  0.00000000E+00  0.00000000E+00  0.00000000E+00
  0.00000000E+00  0.00000000E+00  0.00000000E+00
  0.00000000E+00  0.00000000E+00  0.00000000E+00
  0.00000000E+00  0.00000000E+00  0.00000000E+00
  0.00000000E+00  0.00000000E+00  0.00000000E+00
  0.00000000E+00  0.00000000E+00  0.00000000E+00
  0.00000000E+00  0.00000000E+00  0.00000000E+00
  0.00000000E+00  0.00000000E+00  0.00000000E+00
  0.00000000E+00  0.00000000E+00  0.00000000E+00
  0.00000000E+00  0.00000000E+00  0.00000000E+00
  0.00000000E+00  0.00000000E+00  0.00000000E+00
  0.00000000E+00  0.00000000E+00  0.00000000E+00
  0.00000000E+00  0.00000000E+00  0.00000000E+00
  0.00000000E+00  0.00000000E+00  0.00000000E+00
  0.00000000E+00  0.00000000E+00  0.00000000E+00
  0.00000000E+00  0.00000000E+00  0.00000000E+00
  0.00000000E+00  0.00000000E+00  0.00000000E+00
  0.00000000E+00  0.00000000E+00  0.00000000E+00
  0.00000000E+00  0.00000000E+00  0.00000000E+00
  0.00000000E+00  0.00000000E+00  0.00000000E+00
  0.00000000E+00  0.00000000E+00  0.00000000E+00
  0.00000000E+00  0.00000000E+00  0.00000000E+00
  0.00000000E+00  0.00000000E+00  0.00000000E+00
  0.00000000E+00  0.00000000E+00  0.00000000E+00
  0.00000000E+00  0.00000000E+00  0.00000000E+00
  0.00000000E+00  0.00000000E+00  0.00000000E+00
  0.00000000E+00  0.00000000E+00  0.00000000E+00
  0.00000000E+00  0.00000000E+00  0.00000000E+00
  0.00000000E+00  0.00000000E+00  0.00000000E+00
  0.00000000E+00  0.00000000E+00  0.00000000E+00
  0.00000000E+00  0.00000000E+00  0.00000000E+00
  0.00000000E+00  0.00000000E+00  0.00000000E+00
  0.00000000E+00  0.00000000E+00  0.00000000E+00
  0.00000000E+00  0.00000000E+00  0.00000000E+00
  0.00000000E+00  0.00000000E+00  0.00000000E+00
  0.00000000E+00  0.00000000E+00  0.00000000E+00
  0.00000000E+00  0.00000000E+00  0.00000000E+00
  0.00000000E+00  0.00000000E+00  0.00000000E+00
  0.00000000E+00  0.00000000E+00  0.00000000E+00
  0.00000000E+00  0.00000000E+00  0.00000000E+00
  0.00000000E+00  0.00000000E+00  0.00000000E+00
  0.00000000E+00  0.00000000E+00  0.00000000E+00
  0.00000000E+00  0.00000000E+00  0.00000000E+00
  0.00000000E+00  0.00000000E+00  0.00000000E+00
  0.00000000E+00  0.00000000E+00  0.00000000E+00
  0.00000000E+00  0.00000000E+00  0.00000000E+00
  0.00000000E+00  0.00000000E+00  0.00000000E+00
  0.00000000E+00  0.00000000E+00  0.00000000E+00
  0.00000000E+00  0.00000000E+00  0.00000000E+00
  0.00000000E+00  0.00000000E+00  0.00000000E+00
  0.00000000E+00  0.00000000E+00  0.00000000E+00
  0.00000000E+00  0.00000000E+00  0.00000000E+00
  0.00000000E+00  0.00000000E+00  0.00000000E+00
  0.00000000E+00  0.00000000E+00  0.00000000E+00
  0.00000000E+00  0.00000000E+00  0.00000000E+00
  0.00000000E+00  0.00000000E+00  0.00000000E+00
  0.00000000E+00  0.00000000E+00  0.00000000E+00
  0.00000000E+00  0.00000000E+00  0.00000000E+00
  0.00000000E+00  0.00000000E+00  0.00000000E+00
  0.00000000E+00  0.00000000E+00  0.00000000E+00
  0.00000000E+00  0.00000000E+00  0.00000000E+00
  0.00000000E+00  0.00000000E+00  0.00000000E+00
  0.00000000E+00  0.00000000E+00  0.00000000E+00
  0.00000000E+00  0.00000000E+00  0.00000000E+00
  0.00000000E+00  0.00000000E+00  0.00000000E+00
  0.00000000E+00  0.00000000E+00  0.00000000E+00
  0.00000000E+00  0.00000000E+00  0.00000000E+00
  0.00000000E+00  0.00000000E+00  0.00000000E+00
  0.00000000E+00  0.00000000E+00  0.00000000E+00
  0.00000000E+00  0.00000000E+00  0.00000000E+00
  0.00000000E+00  0.00000000E+00  0.00000000E+00
  0.00000000E+00  0.00000000E+00  0.00000000E+00
  0.00000000E+00  0.00000000E+00  0.00000000E+00
  0.00000000E+00  0.00000000E+00  0.00000000E+00
  0.00000000E+00  0.00000000E+00  0.00000000E+00
  0.00000000E+00  0.00000000E+00  0.00000000E+00
  0.00000000E+00  0.00000000E+00  0.00000000E+00
  0.00000000E+00  0.00000000E+00  0.00000000E+00
  0.00000000E+00  0.00000000E+00  0.00000000E+00
  0.00000000E+00  0.00000000E+00  0.00000000E+00
  0.00000000E+00  0.00000000E+00  0.00000000E+00
  0.00000000E+00  0.00000000E+00  0.00000000E+00
  0.00000000E+00  0.00000000E+00  0.00000000E+00
  0.00000000E+00  0.00000000E+00  0.00000000E+00
  0.00000000E+00  0.00000000E+00  0.00000000E+00
  0.00000000E+00  0.00000000E+00  0.00000000E+00
  0.00000000E+00  0.00000000E+00  0.00000000E+00
  0.00000000E+00  0.00000000E+00  0.00000000E+00
  0.00000000E+00  0.00000000E+00  0.00000000E+00
  0.00000000E+00  0.00000000E+00  0.00000000E+00
  0.00000000E+00  0.00000000E+00  0.00000000E+00
  0.00000000E+00  0.00000000E+00  0.00000000E+00
  0.00000000E+00  0.00000000E+00  0.00000000E+00
  0.00000000E+00  0.00000000E+00  0.00000000E+00
  0.00000000E+00  0.00000000E+00  0.00000000E+00
  0.00000000E+00  0.00000000E+00  0.00000000E+00
  0.00000000E+00  0.00000000E+00  0.00000000E+00
  0.00000000E+00  0.00000000E+00  0.00000000E+00
  0.00000000E+00  0.00000000E+00  0.00000000E+00
  0.00000000E+00  0.00000000E+00  0.00000000E+00
  0.00000000E+00  0.00000000E+00  0.00000000E+00
  0.00000000E+00  0.00000000E+00  0.00000000E+00
  0.00000000E+00  0.00000000E+00  0.00000000E+00
  0.00000000E+00  0.00000000E+00  0.00000000E+00
  0.00000000E+00  0.00000000E+00  0.00000000E+00
  0.00000000E+00  0.00000000E+00  0.00000000E+00
  0.00000000E+00  0.00000000E+00  0.00000000E+00
  0.00000000E+00  0.00000000E+00  0.00000000E+00
  0.00000000E+00  0.00000000E+00  0.00000000E+00
  0.00000000E+00  0.00000000E+00  0.00000000E+00
  0.00000000E+00  0.00000000E+00  0.00000000E+00
  0.00000000E+00  0.00000000E+00  0.00000000E+00
  0.00000000E+00  0.00000000E+00  0.00000000E+00
  0.00000000E+00  0.00000000E+00  0.00000000E+00
  0.00000000E+00  0.00000000E+00  0.00000000E+00
  0.00000000E+00  0.00000000E+00  0.00000000E+00
  0.00000000E+00  0.00000000E+00  0.00000000E+00
  0.00000000E+00  0.00000000E+00  0.00000000E+00
  0.00000000E+00  0.00000000E+00  0.00000000E+00
  0.00000000E+00  0.00000000E+00  0.00000000E+00
  0.00000000E+00  0.00000000E+00  0.00000000E+00
  0.00000000E+00  0.00000000E+00  0.00000000E+00
  0.00000000E+00  0.00000000E+00  0.00000000E+00
  0.00000000E+00  0.00000000E+00  0.00000000E+00
  0.00000000E+00  0.00000000E+00  0.00000000E+00
  0.00000000E+00  0.00000000E+00  0.00000000E+00
  0.00000000E+00  0.00000000E+00  0.00000000E+00
  0.00000000E+00  0.00000000E+00  0.00000000E+00
  0.00000000E+00  0.00000000E+00  0.00000000E+00
  0.00000000E+00  0.00000000E+00  0.00000000E+00
  0.00000000E+00  0.00000000E+00  0.00000000E+00
  0.00000000E+00  0.00000000E+00  0.00000000E+00
  0.00000000E+00  0.00000000E+00  0.00000000E+00
  0.00000000E+00  0.00000000E+00  0.00000000E+00
  0.00000000E+00  0.00000000E+00  0.00000000E+00
  0.00000000E+00  0.00000000E+00  0.00000000E+00
  0.00000000E+00  0.00000000E+00  0.00000000E+00
  0.00000000E+00  0.00000000E+00  0.00000000E+00
  0.00000000E+00  0.00000000E+00  0.00000000E+00
  0.00000000E+00  0.00000000E+00  0.00000000E+00
  0.00000000E+00  0.00000000E+00  0.00000000E+00
  0.00000000E+00  0.00000000E+00  0.00000000E+00
  0.00000000E+00  0.00000000E+00  0.00000000E+00
  0.00000000E+00  0.00000000E+00  0.00000000E+00
  0.00000000E+00  0.00000000E+00  0.00000000E+00
  0.00000000E+00  0.00000000E+00  0.00000000E+00
  0.00000000E+00  0.00000000E+00  0.00000000E+00
  0.00000000E+00  0.00000000E+00  0.00000000E+00
  0.00000000E+00  0.00000000E+00  0.00000000E+00
  0.00000000E+00  0.00000000E+00  0.00000000E+00
  0.00000000E+00  0.00000000E+00  0.00000000E+00
  0.00000000E+00  0.00000000E+00  0.00000000E+00
  0.00000000E+00  0.00000000E+00  0.00000000E+00
  0.00000000E+00  0.00000000E+00  0.00000000E+00
