Sr   Ti   Fe   O                        
   1.00000000000000     
    11.1989999999999998    0.0000000000000000    0.0000000000000000
     0.0000000000000000   11.1989999999999998    0.0000000000000000
     0.0000000000000000    0.0000000000000000   15.9830000000000005
   Sr   Ti   Fe   O 
    32    30     2    95
Direct
  0.9993700428654769  0.2505571916822135  0.1247625855583080
  0.0058486766361775  0.2513973678455472  0.6254991765839866
  0.9981625340736184  0.7505151705476475  0.1254801730902357
  1.0015079075854050  0.7479723209752724  0.6253560388262537
  0.5004237050376722  0.2512929419688828  0.1243289926744065
  0.4956525082783984  0.2474859361111683  0.6278460303582244
  0.4995035409723645  0.7487249647485795  0.1244663249241578
  0.5003672255511977  0.7525526102585037  0.6280186522665279
  0.0058486766361775  0.2513973678455472  0.3745008234160120
  0.9993700428654769  0.2505571916822135  0.8752374144416928
  1.0015079075854050  0.7479723209752724  0.3746439611737465
  0.9981625340736184  0.7505151705476475  0.8745198269097646
  0.4956525082783984  0.2474859361111683  0.3721539696417752
  0.5004237050376722  0.2512929419688828  0.8756710073255944
  0.5003672255511977  0.7525526102585037  0.3719813477334710
  0.4995035409723645  0.7487249647485795  0.8755336750758429
  0.2492853516714331  0.9995413778578061  0.1249070267551586
  0.2510708061989493  0.9995767739086394  0.6254535841721678
  0.2509979246943460  0.4997894180387068  0.1242221662083749
  0.2512410396205509  0.4984017285303841  0.6262598460512632
  0.7497327766868881  0.9996386064416475  0.1254624939819444
  0.7484403152101863  0.9985566836788146  0.6251753409585945
  0.7484794425828165  0.5015155822945855  0.1243702880660809
  0.7561694598142702  0.4991252155792253  0.6280884625912381
  0.2510708061989493  0.9995767739086394  0.3745464158278315
  0.2492853516714331  0.9995413778578061  0.8750929732448408
  0.2512410396205509  0.4984017285303841  0.3737401539487353
  0.2509979246943460  0.4997894180387068  0.8757778337916244
  0.7484403152101863  0.9985566836788146  0.3748246590414057
  0.7497327766868881  0.9996386064416475  0.8745375060180551
  0.7561694598142702  0.4991252155792253  0.3719115374087638
  0.7484794425828165  0.5015155822945855  0.8756297119339201
  0.9988374028332039  0.9999975571729597  0.0000000000000000
  0.0059434502959903  0.9959705296857848  0.5000000000000000
 -0.0000767987942948  0.5000667486791434  0.0000000000000000
  1.0020778966258435  0.5019547806740313  0.5000000000000000
  0.4997304695104662  0.0001304655158154  0.0000000000000000
  0.5004912885436004  0.9984432521558640  0.5000000000000000
  0.4993470628757935  0.5001804456797968  0.0000000000000000
  0.2494843171361305  0.2493609660981994  0.0000000000000000
  0.2520762636481971  0.2490852078124536  0.5000000000000000
  0.2491172697453513  0.7505839032520231  0.0000000000000000
  0.2543827163778240  0.7488701650428268  0.5000000000000000
  0.7503322551098227  0.2499187315850823  0.0000000000000000
  0.7496244946922651  0.7507499709234018  0.0000000000000000
  0.2499379784192159  0.2492881737488768  0.2488452039432776
  0.2499379784192159  0.2492881737488768  0.7511547960567215
  0.2495659366347587  0.7497071144824479  0.2493306735208698
  0.2495659366347587  0.7497071144824479  0.7506693264791306
  0.7489957902384211  0.2511607245984110  0.2500807848427001
  0.7489957902384211  0.2511607245984110  0.7499192151573004
  0.7492830782211292  0.7488210605802953  0.2516478311875681
  0.7492830782211292  0.7488210605802953  0.7483521688124318
  0.9994015105563505  1.0003332720457987  0.2507914383025113
  0.9994015105563505  1.0003332720457987  0.7492085616974891
  0.0010251143472456  0.5001522685731350  0.2493750617982089
  0.0010251143472456  0.5001522685731350  0.7506249382017904
  0.5000795631228699  0.9997711036522551  0.2494399732671657
  0.5000795631228699  0.9997711036522551  0.7505600267328333
  0.4989979149301875  0.5001383800773581  0.2509146004691094
  0.4989979149301875  0.5001383800773581  0.7490853995308908
  0.7623748094023949  0.2471217406397451  0.5000000000000000
  0.4882736994509415  0.5024796290620505  0.5000000000000000
  0.7603440495191135  0.7601977676417666  0.5000000000000000
  0.1083315822247659  0.1405543415405715  0.2489053553224296
  0.1083315822247659  0.1405543415405715  0.7510946446775697
  0.1091454742578507  0.6409978197478353  0.2490907503788766
  0.1091454742578507  0.6409978197478353  0.7509092496211230
  0.6091516555905997  0.1409081360629967  0.2503548128010422
  0.6091516555905997  0.1409081360629967  0.7496451871989570
  0.6090381910792503  0.6402114420594743  0.2472997721243466
  0.6090381910792503  0.6402114420594743  0.7527002278756527
  0.3891665042779153  0.3578600420740841  0.2471684636327729
  0.3891665042779153  0.3578600420740841  0.7528315363672281
  0.3899400051727888  0.8601298336996888  0.2495745853799913
  0.3899400051727888  0.8601298336996888  0.7504254146200090
  0.8898729142055516  0.3600619783567734  0.2522802636809287
  0.8898729142055516  0.3600619783567734  0.7477197363190712
  0.8882336333356081  0.8602952143805676  0.2545577871265743
  0.8882336333356081  0.8602952143805676  0.7454422128734249
  0.3594731827004649  0.1091673221220015  0.2507803394681996
  0.3594731827004649  0.1091673221220015  0.7492196605317999
  0.3573922923161039  0.6106391725347097  0.2465148887615209
  0.3573922923161039  0.6106391725347097  0.7534851112384797
  0.8579298111193391  0.1111275786246671  0.2551720876456285
  0.8579298111193391  0.1111275786246671  0.7448279123543712
  0.8613990645120359  0.6111926136978302  0.2478597194495678
  0.8613990645120359  0.6111926136978302  0.7521402805504322
  0.1403921921881330  0.3901216572577674  0.2496779929625742
  0.1403921921881330  0.3901216572577674  0.7503220070374242
  0.1389432219409160  0.8908091419649441  0.2496425781192841
  0.1389432219409160  0.8908091419649441  0.7503574218807197
  0.6395312930363384  0.3902950876577669  0.2471334775013156
  0.6395312930363384  0.3902950876577669  0.7528665224986848
  0.6399618244995722  0.8902529333203590  0.2511747808743290
  0.6399618244995722  0.8902529333203590  0.7488252191256708
  0.3585927025168447  0.3895218782591898  0.0000000000000000
  0.3588441223528506  0.8913761318400433  0.0000000000000000
  0.3576812597405846  0.8932371494766539  0.5000000000000000
  0.8589367715636907  0.3907094060129139  0.0000000000000000
  0.8583499776968249  0.8914067122349192  0.0000000000000000
  0.8605611370675730  0.8955523960288576  0.5000000000000000
  0.1397008828204619  0.1079890398794394  0.0000000000000000
  0.1398800339027869  0.1097737298700264  0.5000000000000000
  0.1401300490995356  0.6092649094937385  0.0000000000000000
  0.1459138336221856  0.6087032271413241  0.5000000000000000
  0.6410005184854487  0.1094809486137075  0.0000000000000000
  0.6341905443018988  0.1229452767226165  0.5000000000000000
  0.6402870724988282  0.6104199668300215  0.0000000000000000
  0.1089527337531390  0.3587709676361835  0.0000000000000000
  0.1178188261145641  0.3626231931094516  0.5000000000000000
  0.1074708996879664  0.8600010264123026  0.0000000000000000
  0.1089854603043326  0.8571574084385332  0.5000000000000000
  0.6103767860431818  0.3590995765477869  0.0000000000000000
  0.6086309537307194  0.8597030937433474  0.0000000000000000
  0.6089440691141410  0.8583887828512696  0.5000000000000000
  0.3907564438444410  0.1405911179473488  0.0000000000000000
  0.3882299561980566  0.1364439180655944  0.5000000000000000
  0.3891555610684839  0.6412674510896554  0.0000000000000000
  0.8910127541214936  0.1413708536745374  0.0000000000000000
  0.8894520499700068  0.1394447235385413  0.5000000000000000
  0.8903755974455128  0.6406590545135044  0.0000000000000000
  0.9951761286935699  1.0000289185797457  0.1260029100154607
  0.0030010500085825  0.0010387448602810  0.6242002543559956
 -0.0000100898881098  0.4983955839400939  0.1248564379250427
  0.0029981852672610  0.5015586070332598  0.6255317421995863
  0.5002814891849423  0.0005522505133429  0.1251051570075001
  0.5009199101047407  0.0002756857081254  0.6251191515111993
  0.4984962648593695  0.4999739579596605  0.1234369119052503
  0.4904391741788035  0.5012645748281033  0.6291259715402956
  0.0030010500085825  0.0010387448602810  0.3757997456440043
  0.9951761286935699  1.0000289185797457  0.8739970899845386
  0.0029981852672610  0.5015586070332598  0.3744682578004135
 -0.0000100898881098  0.4983955839400939  0.8751435620749579
  0.5009199101047407  0.0002756857081254  0.3748808484887987
  0.5002814891849423  0.0005522505133429  0.8748948429924993
  0.4984962648593695  0.4999739579596605  0.8765630880947516
  0.2494185840245347  0.2488856485011874  0.3741203558570297
  0.2485216870530599  0.2476746992399487  0.8755368863078442
  0.2500483487899209  0.7502903002753063  0.3746767105797963
  0.2480845436165434  0.7525163896372961  0.8755683387742045
  0.7520988025578201  0.2483659732608447  0.8743082309856252
  0.7507057520727519  0.7521690817684880  0.8747237372119071
  0.2485216870530599  0.2476746992399487  0.1244631136921562
  0.2494185840245347  0.2488856485011874  0.6258796441429700
  0.2480845436165434  0.7525163896372961  0.1244316612257952
  0.2500483487899209  0.7502903002753063  0.6253232894202030
  0.7520988025578201  0.2483659732608447  0.1256917690143685
  0.7393134749678253  0.2599746141855733  0.6217179420750594
  0.7507057520727519  0.7521690817684880  0.1252762627880958
  0.7420977158261977  0.7400296268593399  0.6228309025448289
  0.7393134749678253  0.2599746141855733  0.3782820579249408
  0.8737784564036245  0.3819857933557851  0.5000000000000000
  0.3996389783308381  0.6505939455260423  0.5000000000000000
  0.4904391741788035  0.5012645748281033  0.3708740284597045
  0.3708415124819044  0.3785424996314843  0.5000000000000000
  0.8905796075523489  0.6378517433588505  0.5000000000000000
  0.7420977158261977  0.7400296268593399  0.3771690974551715
  0.6486886365276180  0.4780145673315631  0.5000000000000000
 
  0.00000000E+00  0.00000000E+00  0.00000000E+00
  0.00000000E+00  0.00000000E+00  0.00000000E+00
  0.00000000E+00  0.00000000E+00  0.00000000E+00
  0.00000000E+00  0.00000000E+00  0.00000000E+00
  0.00000000E+00  0.00000000E+00  0.00000000E+00
  0.00000000E+00  0.00000000E+00  0.00000000E+00
  0.00000000E+00  0.00000000E+00  0.00000000E+00
  0.00000000E+00  0.00000000E+00  0.00000000E+00
  0.00000000E+00  0.00000000E+00  0.00000000E+00
  0.00000000E+00  0.00000000E+00  0.00000000E+00
  0.00000000E+00  0.00000000E+00  0.00000000E+00
  0.00000000E+00  0.00000000E+00  0.00000000E+00
  0.00000000E+00  0.00000000E+00  0.00000000E+00
  0.00000000E+00  0.00000000E+00  0.00000000E+00
  0.00000000E+00  0.00000000E+00  0.00000000E+00
  0.00000000E+00  0.00000000E+00  0.00000000E+00
  0.00000000E+00  0.00000000E+00  0.00000000E+00
  0.00000000E+00  0.00000000E+00  0.00000000E+00
  0.00000000E+00  0.00000000E+00  0.00000000E+00
  0.00000000E+00  0.00000000E+00  0.00000000E+00
  0.00000000E+00  0.00000000E+00  0.00000000E+00
  0.00000000E+00  0.00000000E+00  0.00000000E+00
  0.00000000E+00  0.00000000E+00  0.00000000E+00
  0.00000000E+00  0.00000000E+00  0.00000000E+00
  0.00000000E+00  0.00000000E+00  0.00000000E+00
  0.00000000E+00  0.00000000E+00  0.00000000E+00
  0.00000000E+00  0.00000000E+00  0.00000000E+00
  0.00000000E+00  0.00000000E+00  0.00000000E+00
  0.00000000E+00  0.00000000E+00  0.00000000E+00
  0.00000000E+00  0.00000000E+00  0.00000000E+00
  0.00000000E+00  0.00000000E+00  0.00000000E+00
  0.00000000E+00  0.00000000E+00  0.00000000E+00
  0.00000000E+00  0.00000000E+00  0.00000000E+00
  0.00000000E+00  0.00000000E+00  0.00000000E+00
  0.00000000E+00  0.00000000E+00  0.00000000E+00
  0.00000000E+00  0.00000000E+00  0.00000000E+00
  0.00000000E+00  0.00000000E+00  0.00000000E+00
  0.00000000E+00  0.00000000E+00  0.00000000E+00
  0.00000000E+00  0.00000000E+00  0.00000000E+00
  0.00000000E+00  0.00000000E+00  0.00000000E+00
  0.00000000E+00  0.00000000E+00  0.00000000E+00
  0.00000000E+00  0.00000000E+00  0.00000000E+00
  0.00000000E+00  0.00000000E+00  0.00000000E+00
  0.00000000E+00  0.00000000E+00  0.00000000E+00
  0.00000000E+00  0.00000000E+00  0.00000000E+00
  0.00000000E+00  0.00000000E+00  0.00000000E+00
  0.00000000E+00  0.00000000E+00  0.00000000E+00
  0.00000000E+00  0.00000000E+00  0.00000000E+00
  0.00000000E+00  0.00000000E+00  0.00000000E+00
  0.00000000E+00  0.00000000E+00  0.00000000E+00
  0.00000000E+00  0.00000000E+00  0.00000000E+00
  0.00000000E+00  0.00000000E+00  0.00000000E+00
  0.00000000E+00  0.00000000E+00  0.00000000E+00
  0.00000000E+00  0.00000000E+00  0.00000000E+00
  0.00000000E+00  0.00000000E+00  0.00000000E+00
  0.00000000E+00  0.00000000E+00  0.00000000E+00
  0.00000000E+00  0.00000000E+00  0.00000000E+00
  0.00000000E+00  0.00000000E+00  0.00000000E+00
  0.00000000E+00  0.00000000E+00  0.00000000E+00
  0.00000000E+00  0.00000000E+00  0.00000000E+00
  0.00000000E+00  0.00000000E+00  0.00000000E+00
  0.00000000E+00  0.00000000E+00  0.00000000E+00
  0.00000000E+00  0.00000000E+00  0.00000000E+00
  0.00000000E+00  0.00000000E+00  0.00000000E+00
  0.00000000E+00  0.00000000E+00  0.00000000E+00
  0.00000000E+00  0.00000000E+00  0.00000000E+00
  0.00000000E+00  0.00000000E+00  0.00000000E+00
  0.00000000E+00  0.00000000E+00  0.00000000E+00
  0.00000000E+00  0.00000000E+00  0.00000000E+00
  0.00000000E+00  0.00000000E+00  0.00000000E+00
  0.00000000E+00  0.00000000E+00  0.00000000E+00
  0.00000000E+00  0.00000000E+00  0.00000000E+00
  0.00000000E+00  0.00000000E+00  0.00000000E+00
  0.00000000E+00  0.00000000E+00  0.00000000E+00
  0.00000000E+00  0.00000000E+00  0.00000000E+00
  0.00000000E+00  0.00000000E+00  0.00000000E+00
  0.00000000E+00  0.00000000E+00  0.00000000E+00
  0.00000000E+00  0.00000000E+00  0.00000000E+00
  0.00000000E+00  0.00000000E+00  0.00000000E+00
  0.00000000E+00  0.00000000E+00  0.00000000E+00
  0.00000000E+00  0.00000000E+00  0.00000000E+00
  0.00000000E+00  0.00000000E+00  0.00000000E+00
  0.00000000E+00  0.00000000E+00  0.00000000E+00
  0.00000000E+00  0.00000000E+00  0.00000000E+00
  0.00000000E+00  0.00000000E+00  0.00000000E+00
  0.00000000E+00  0.00000000E+00  0.00000000E+00
  0.00000000E+00  0.00000000E+00  0.00000000E+00
  0.00000000E+00  0.00000000E+00  0.00000000E+00
  0.00000000E+00  0.00000000E+00  0.00000000E+00
  0.00000000E+00  0.00000000E+00  0.00000000E+00
  0.00000000E+00  0.00000000E+00  0.00000000E+00
  0.00000000E+00  0.00000000E+00  0.00000000E+00
  0.00000000E+00  0.00000000E+00  0.00000000E+00
  0.00000000E+00  0.00000000E+00  0.00000000E+00
  0.00000000E+00  0.00000000E+00  0.00000000E+00
  0.00000000E+00  0.00000000E+00  0.00000000E+00
  0.00000000E+00  0.00000000E+00  0.00000000E+00
  0.00000000E+00  0.00000000E+00  0.00000000E+00
  0.00000000E+00  0.00000000E+00  0.00000000E+00
  0.00000000E+00  0.00000000E+00  0.00000000E+00
  0.00000000E+00  0.00000000E+00  0.00000000E+00
  0.00000000E+00  0.00000000E+00  0.00000000E+00
  0.00000000E+00  0.00000000E+00  0.00000000E+00
  0.00000000E+00  0.00000000E+00  0.00000000E+00
  0.00000000E+00  0.00000000E+00  0.00000000E+00
  0.00000000E+00  0.00000000E+00  0.00000000E+00
  0.00000000E+00  0.00000000E+00  0.00000000E+00
  0.00000000E+00  0.00000000E+00  0.00000000E+00
  0.00000000E+00  0.00000000E+00  0.00000000E+00
  0.00000000E+00  0.00000000E+00  0.00000000E+00
  0.00000000E+00  0.00000000E+00  0.00000000E+00
  0.00000000E+00  0.00000000E+00  0.00000000E+00
  0.00000000E+00  0.00000000E+00  0.00000000E+00
  0.00000000E+00  0.00000000E+00  0.00000000E+00
  0.00000000E+00  0.00000000E+00  0.00000000E+00
  0.00000000E+00  0.00000000E+00  0.00000000E+00
  0.00000000E+00  0.00000000E+00  0.00000000E+00
  0.00000000E+00  0.00000000E+00  0.00000000E+00
  0.00000000E+00  0.00000000E+00  0.00000000E+00
  0.00000000E+00  0.00000000E+00  0.00000000E+00
  0.00000000E+00  0.00000000E+00  0.00000000E+00
  0.00000000E+00  0.00000000E+00  0.00000000E+00
  0.00000000E+00  0.00000000E+00  0.00000000E+00
  0.00000000E+00  0.00000000E+00  0.00000000E+00
  0.00000000E+00  0.00000000E+00  0.00000000E+00
  0.00000000E+00  0.00000000E+00  0.00000000E+00
  0.00000000E+00  0.00000000E+00  0.00000000E+00
  0.00000000E+00  0.00000000E+00  0.00000000E+00
  0.00000000E+00  0.00000000E+00  0.00000000E+00
  0.00000000E+00  0.00000000E+00  0.00000000E+00
  0.00000000E+00  0.00000000E+00  0.00000000E+00
  0.00000000E+00  0.00000000E+00  0.00000000E+00
  0.00000000E+00  0.00000000E+00  0.00000000E+00
  0.00000000E+00  0.00000000E+00  0.00000000E+00
  0.00000000E+00  0.00000000E+00  0.00000000E+00
  0.00000000E+00  0.00000000E+00  0.00000000E+00
  0.00000000E+00  0.00000000E+00  0.00000000E+00
  0.00000000E+00  0.00000000E+00  0.00000000E+00
  0.00000000E+00  0.00000000E+00  0.00000000E+00
  0.00000000E+00  0.00000000E+00  0.00000000E+00
  0.00000000E+00  0.00000000E+00  0.00000000E+00
  0.00000000E+00  0.00000000E+00  0.00000000E+00
  0.00000000E+00  0.00000000E+00  0.00000000E+00
  0.00000000E+00  0.00000000E+00  0.00000000E+00
  0.00000000E+00  0.00000000E+00  0.00000000E+00
  0.00000000E+00  0.00000000E+00  0.00000000E+00
  0.00000000E+00  0.00000000E+00  0.00000000E+00
  0.00000000E+00  0.00000000E+00  0.00000000E+00
  0.00000000E+00  0.00000000E+00  0.00000000E+00
  0.00000000E+00  0.00000000E+00  0.00000000E+00
  0.00000000E+00  0.00000000E+00  0.00000000E+00
  0.00000000E+00  0.00000000E+00  0.00000000E+00
  0.00000000E+00  0.00000000E+00  0.00000000E+00
  0.00000000E+00  0.00000000E+00  0.00000000E+00
  0.00000000E+00  0.00000000E+00  0.00000000E+00
  0.00000000E+00  0.00000000E+00  0.00000000E+00
  0.00000000E+00  0.00000000E+00  0.00000000E+00
  0.00000000E+00  0.00000000E+00  0.00000000E+00
  0.00000000E+00  0.00000000E+00  0.00000000E+00
