SrTiFeO                                 
   1.00000000000000     
    11.1989999999999998    0.0000000000000000    0.0000000000000000
     0.0000000000000000   11.1989999999999998    0.0000000000000000
     0.0000000000000000    0.0000000000000000   15.9830000000000005
   Sr   Ti   Fe   O 
    32    30     2    95
Direct
 -0.0005084429924910  0.2507986440445015  0.1245663117144751
  0.0068501786681482  0.2503409046517024  0.6271148117427253
 -0.0005989348316979  0.7496835314336904  0.1251738529094922
 -0.0022868989136575  0.7491680133625755  0.6250457987848104
  0.5008871090488153  0.2510443483768895  0.1244616091004976
  0.4942048473288346  0.2456358621252105  0.6283523436639177
  0.5008056144463922  0.7489535671069838  0.1250150771871766
  0.5028071913687759  0.7513200821026901  0.6245849199132323
  0.0068501786681482  0.2503409046517024  0.3728851882572748
 -0.0005084429924910  0.2507986440445015  0.8754336882855249
 -0.0022868989136575  0.7491680133625755  0.3749542012151899
 -0.0005989348316979  0.7496835314336904  0.8748261470905077
  0.4942048473288346  0.2456358621252105  0.3716476563360821
  0.5008871090488153  0.2510443483768895  0.8755383908995026
  0.5028071913687759  0.7513200821026901  0.3754150800867677
  0.5008056144463922  0.7489535671069838  0.8749849228128235
  0.2497855913340633 -0.0001491000258231  0.1248892440815431
  0.2501513727154424 -0.0003062063242316  0.6250345379932075
  0.2515492515532527  0.5003303213156340  0.1254502263343688
  0.2503942524336566  0.4976163573533078  0.6240476294950249
  0.7505275967017019  0.0003805661458302  0.1254902458406185
  0.7479702939393869 -0.0073172373757641  0.6245152889655057
  0.7495271499141618  0.5012155879286755  0.1239227400706880
  0.7505379251617627  0.5053751670997770  0.6268583354640409
  0.2501513727154424 -0.0003062063242316  0.3749654620067924
  0.2497855913340633 -0.0001491000258231  0.8751107559184570
  0.2503942524336566  0.4976163573533078  0.3759523705049749
  0.2515492515532527  0.5003303213156340  0.8745497736656312
  0.7479702939393869 -0.0073172373757641  0.3754847110344943
  0.7505275967017019  0.0003805661458302  0.8745097541593816
  0.7505379251617627  0.5053751670997770  0.3731416645359591
  0.7495271499141618  0.5012155879286755  0.8760772599293122
 -0.0004767004960988  0.0004032921579600  0.0000000000000000
  0.0025313911167134 -0.0061923499458740  0.5000000000000000
  0.0003799359008343  0.4999851764864010  0.0000000000000000
 -0.0015342635072440  0.5023238696332389  0.5000000000000000
  0.4997109055480607 -0.0000098869403485  0.0000000000000000
  0.4995345410756207 -0.0012753406703061  0.5000000000000000
  0.4994759960225044  0.5005924462554895  0.0000000000000000
  0.2500046781708504  0.2497874751748957  0.0000000000000000
  0.2512922332150012  0.2499232757295036  0.5000000000000000
  0.2503051669375679  0.7496524987805103  0.0000000000000000
  0.2494347714041222  0.7498609841098641  0.5000000000000000
  0.7506011876747054  0.2495556231347658  0.0000000000000000
  0.7499507072485654  0.7504558502871145  0.0000000000000000
  0.2500225434758727  0.2497786376070337  0.2489464108571899
  0.2500225434758727  0.2497786376070337  0.7510535891428098
  0.2500663216407824  0.7494271691916479  0.2506601355035080
  0.2500663216407824  0.7494271691916479  0.7493398644964923
  0.7490453750086634  0.2510515113387958  0.2505519365905574
  0.7490453750086634  0.2510515113387958  0.7494480634094427
  0.7498851673704572  0.7498392390949649  0.2506901448758027
  0.7498851673704572  0.7498392390949649  0.7493098551241975
 -0.0001958640257328 -0.0000112219395197  0.2503537067863703
 -0.0001958640257328 -0.0000112219395197  0.7496462932136296
  0.0001911381971976  0.4998607210526093  0.2499877325219138
  0.0001911381971976  0.4998607210526093  0.7500122674780862
  0.4999315783167567 -0.0007304976185029  0.2494541371618806
  0.4999315783167567 -0.0007304976185029  0.7505458628381194
  0.5009154104682131  0.4988960932290923  0.2520256597775062
  0.5009154104682131  0.4988960932290923  0.7479743402224940
  0.7631625092595107  0.2429214329796643  0.5000000000000000
  0.4930225347213297  0.5127529102691344  0.5000000000000000
  0.7496234679895077  0.7470473649804255  0.5000000000000000
  0.1090292504017421  0.1409838499418808  0.2488986522211874
  0.1090292504017421  0.1409838499418808  0.7511013477788127
  0.1093794534675388  0.6405388252043825  0.2500821930958219
  0.1093794534675388  0.6405388252043825  0.7499178069041784
  0.6089196583222725  0.1411087835640580  0.2498616475062150
  0.6089196583222725  0.1411087835640580  0.7501383524937848
  0.6090699124457886  0.6402981107837221  0.2507080090068216
  0.6090699124457886  0.6402981107837221  0.7492919909931781
  0.3904846815746477  0.3582525419327970  0.2484706705738935
  0.3904846815746477  0.3582525419327970  0.7515293294261064
  0.3909061846589672  0.8588524059427595  0.2503279083749101
  0.3909061846589672  0.8588524059427595  0.7496720916250902
  0.8908284008461455  0.3586624007559369  0.2516722963778726
  0.8908284008461455  0.3586624007559369  0.7483277036221272
  0.8904316274650450  0.8605053980466312  0.2494432760305982
  0.8904316274650450  0.8605053980466312  0.7505567239694017
  0.3593665951238784  0.1093707729406054  0.2511330766036023
  0.3593665951238784  0.1093707729406054  0.7488669233963975
  0.3600049236851134  0.6084622840950681  0.2545401329212470
  0.3600049236851134  0.6084622840950681  0.7454598670787531
  0.8579100791089870  0.1110100405634033  0.2564266833514180
  0.8579100791089870  0.1110100405634033  0.7435733166485821
  0.8602476811724620  0.6096105381876148  0.2488309668320307
  0.8602476811724620  0.6096105381876148  0.7511690331679693
  0.1410782879016454  0.3906059439965747  0.2500670807396215
  0.1410782879016454  0.3906059439965747  0.7499329192603786
  0.1404952074377760  0.8909469250352777  0.2486446797034838
  0.1404952074377760  0.8909469250352777  0.7513553202965164
  0.6412703973311011  0.3908283129744046  0.2445067288953999
  0.6412703973311011  0.3908283129744046  0.7554932711046001
  0.6402959245220595  0.8910120231343250  0.2487939072202598
  0.6402959245220595  0.8910120231343250  0.7512060927797404
  0.3590966902690481  0.3904247571507157  0.0000000000000000
  0.3586820041813081  0.8908291677602267  0.0000000000000000
  0.3585279456131750  0.8913364972990088  0.5000000000000000
  0.8593008189748883  0.3904429611826183  0.0000000000000000
  0.8591482870317066  0.8910287236988426  0.0000000000000000
  0.8606766591707099  0.8943867093008945  0.5000000000000000
  0.1408038038823565  0.1085447047849891  0.0000000000000000
  0.1405013778703889  0.1093380031145175  0.5000000000000000
  0.1407305819867106  0.6090618997489750  0.0000000000000000
  0.1427149966545628  0.6077714620926923  0.5000000000000000
  0.6407033668958846  0.1094312076939252  0.0000000000000000
  0.6342152510983469  0.1234324763418350  0.5000000000000000
  0.6404277568153813  0.6095798797340776  0.0000000000000000
  0.1090933974483540  0.3587480020828034  0.0000000000000000
  0.1104109962547989  0.3597991496921825  0.5000000000000000
  0.1091165071572998  0.8594535572906153  0.0000000000000000
  0.1081629820939076  0.8572032034962831  0.5000000000000000
  0.6102762595829005  0.3595307153919133  0.0000000000000000
  0.6087883635020702  0.8596735304881111  0.0000000000000000
  0.6101852471078607  0.8641430767560402  0.5000000000000000
  0.3908004330615763  0.1409487276266484  0.0000000000000000
  0.3876757709878403  0.1375073662950445  0.5000000000000000
  0.3903290341506901  0.6412665227167595  0.0000000000000000
  0.8911837733210786  0.1410633675522373  0.0000000000000000
  0.8938364512408008  0.1436192593578327  0.5000000000000000
  0.8909570247183840  0.6404627067043085  0.0000000000000000
 -0.0029537446090912  0.0022844057640363  0.1254019558125838
  0.0027151990141357 -0.0002377022894800  0.6248211475672298
  0.0001673174072137  0.4988204553551554  0.1250447462800749
  0.0008315805434862  0.4991562504616875  0.6250674039011199
  0.4986754129340746  0.0005648005739271  0.1249358946205597
  0.5009538187652328 -0.0000659684588383  0.6253165769420937
  0.4976422209932470  0.5020912861528489  0.1248811409803189
  0.5082615624906853  0.4870930402396150  0.6239700935655407
  0.0027151990141357 -0.0002377022894800  0.3751788524327700
 -0.0029537446090912  0.0022844057640363  0.8745980441874164
  0.0008315805434862  0.4991562504616875  0.3749325960988801
  0.0001673174072137  0.4988204553551554  0.8749552537199250
  0.5009538187652328 -0.0000659684588383  0.3746834230579062
  0.4986754129340746  0.0005648005739271  0.8750641053794403
  0.4976422209932470  0.5020912861528489  0.8751188590196811
  0.2489908337389064  0.2504439922222611  0.3743770524664597
  0.2496965005534442  0.2491309669562262  0.8753286970311925
  0.2479440192860433  0.7522589795216916  0.3752764079684752
  0.2512900778329092  0.7480631739225575  0.8745543903378418
  0.7527899202804507  0.2471570499778964  0.8744412667651865
  0.7496824563302061  0.7497825113901967  0.8754399137152399
  0.2496965005534442  0.2491309669562262  0.1246713029688072
  0.2489908337389064  0.2504439922222611  0.6256229475335405
  0.2512900778329092  0.7480631739225575  0.1254456096621584
  0.2479440192860433  0.7522589795216916  0.6247235920315246
  0.7527899202804507  0.2471570499778964  0.1255587332348133
  0.7351725448927925  0.2640330922169362  0.6208571772184109
  0.7496824563302061  0.7497825113901967  0.1245600862847600
  0.7500226594424698  0.7512971024814861  0.6268931705293024
  0.7351725448927925  0.2640330922169362  0.3791428227815890
  0.8517008066359002  0.3943212799360873  0.5000000000000000
  0.3896546957419456  0.6451584061878420  0.5000000000000000
  0.5082615624906853  0.4870930402396150  0.3760299064344596
  0.3705696390428366  0.3829779646555548  0.5000000000000000
  0.8946202148268900  0.6410437603804492  0.5000000000000000
  0.7500226594424698  0.7512971024814861  0.3731068294706976
  0.6429569730185752  0.6004370213326964  0.5000000000000000
 
  0.00000000E+00  0.00000000E+00  0.00000000E+00
  0.00000000E+00  0.00000000E+00  0.00000000E+00
  0.00000000E+00  0.00000000E+00  0.00000000E+00
  0.00000000E+00  0.00000000E+00  0.00000000E+00
  0.00000000E+00  0.00000000E+00  0.00000000E+00
  0.00000000E+00  0.00000000E+00  0.00000000E+00
  0.00000000E+00  0.00000000E+00  0.00000000E+00
  0.00000000E+00  0.00000000E+00  0.00000000E+00
  0.00000000E+00  0.00000000E+00  0.00000000E+00
  0.00000000E+00  0.00000000E+00  0.00000000E+00
  0.00000000E+00  0.00000000E+00  0.00000000E+00
  0.00000000E+00  0.00000000E+00  0.00000000E+00
  0.00000000E+00  0.00000000E+00  0.00000000E+00
  0.00000000E+00  0.00000000E+00  0.00000000E+00
  0.00000000E+00  0.00000000E+00  0.00000000E+00
  0.00000000E+00  0.00000000E+00  0.00000000E+00
  0.00000000E+00  0.00000000E+00  0.00000000E+00
  0.00000000E+00  0.00000000E+00  0.00000000E+00
  0.00000000E+00  0.00000000E+00  0.00000000E+00
  0.00000000E+00  0.00000000E+00  0.00000000E+00
  0.00000000E+00  0.00000000E+00  0.00000000E+00
  0.00000000E+00  0.00000000E+00  0.00000000E+00
  0.00000000E+00  0.00000000E+00  0.00000000E+00
  0.00000000E+00  0.00000000E+00  0.00000000E+00
  0.00000000E+00  0.00000000E+00  0.00000000E+00
  0.00000000E+00  0.00000000E+00  0.00000000E+00
  0.00000000E+00  0.00000000E+00  0.00000000E+00
  0.00000000E+00  0.00000000E+00  0.00000000E+00
  0.00000000E+00  0.00000000E+00  0.00000000E+00
  0.00000000E+00  0.00000000E+00  0.00000000E+00
  0.00000000E+00  0.00000000E+00  0.00000000E+00
  0.00000000E+00  0.00000000E+00  0.00000000E+00
  0.00000000E+00  0.00000000E+00  0.00000000E+00
  0.00000000E+00  0.00000000E+00  0.00000000E+00
  0.00000000E+00  0.00000000E+00  0.00000000E+00
  0.00000000E+00  0.00000000E+00  0.00000000E+00
  0.00000000E+00  0.00000000E+00  0.00000000E+00
  0.00000000E+00  0.00000000E+00  0.00000000E+00
  0.00000000E+00  0.00000000E+00  0.00000000E+00
  0.00000000E+00  0.00000000E+00  0.00000000E+00
  0.00000000E+00  0.00000000E+00  0.00000000E+00
  0.00000000E+00  0.00000000E+00  0.00000000E+00
  0.00000000E+00  0.00000000E+00  0.00000000E+00
  0.00000000E+00  0.00000000E+00  0.00000000E+00
  0.00000000E+00  0.00000000E+00  0.00000000E+00
  0.00000000E+00  0.00000000E+00  0.00000000E+00
  0.00000000E+00  0.00000000E+00  0.00000000E+00
  0.00000000E+00  0.00000000E+00  0.00000000E+00
  0.00000000E+00  0.00000000E+00  0.00000000E+00
  0.00000000E+00  0.00000000E+00  0.00000000E+00
  0.00000000E+00  0.00000000E+00  0.00000000E+00
  0.00000000E+00  0.00000000E+00  0.00000000E+00
  0.00000000E+00  0.00000000E+00  0.00000000E+00
  0.00000000E+00  0.00000000E+00  0.00000000E+00
  0.00000000E+00  0.00000000E+00  0.00000000E+00
  0.00000000E+00  0.00000000E+00  0.00000000E+00
  0.00000000E+00  0.00000000E+00  0.00000000E+00
  0.00000000E+00  0.00000000E+00  0.00000000E+00
  0.00000000E+00  0.00000000E+00  0.00000000E+00
  0.00000000E+00  0.00000000E+00  0.00000000E+00
  0.00000000E+00  0.00000000E+00  0.00000000E+00
  0.00000000E+00  0.00000000E+00  0.00000000E+00
  0.00000000E+00  0.00000000E+00  0.00000000E+00
  0.00000000E+00  0.00000000E+00  0.00000000E+00
  0.00000000E+00  0.00000000E+00  0.00000000E+00
  0.00000000E+00  0.00000000E+00  0.00000000E+00
  0.00000000E+00  0.00000000E+00  0.00000000E+00
  0.00000000E+00  0.00000000E+00  0.00000000E+00
  0.00000000E+00  0.00000000E+00  0.00000000E+00
  0.00000000E+00  0.00000000E+00  0.00000000E+00
  0.00000000E+00  0.00000000E+00  0.00000000E+00
  0.00000000E+00  0.00000000E+00  0.00000000E+00
  0.00000000E+00  0.00000000E+00  0.00000000E+00
  0.00000000E+00  0.00000000E+00  0.00000000E+00
  0.00000000E+00  0.00000000E+00  0.00000000E+00
  0.00000000E+00  0.00000000E+00  0.00000000E+00
  0.00000000E+00  0.00000000E+00  0.00000000E+00
  0.00000000E+00  0.00000000E+00  0.00000000E+00
  0.00000000E+00  0.00000000E+00  0.00000000E+00
  0.00000000E+00  0.00000000E+00  0.00000000E+00
  0.00000000E+00  0.00000000E+00  0.00000000E+00
  0.00000000E+00  0.00000000E+00  0.00000000E+00
  0.00000000E+00  0.00000000E+00  0.00000000E+00
  0.00000000E+00  0.00000000E+00  0.00000000E+00
  0.00000000E+00  0.00000000E+00  0.00000000E+00
  0.00000000E+00  0.00000000E+00  0.00000000E+00
  0.00000000E+00  0.00000000E+00  0.00000000E+00
  0.00000000E+00  0.00000000E+00  0.00000000E+00
  0.00000000E+00  0.00000000E+00  0.00000000E+00
  0.00000000E+00  0.00000000E+00  0.00000000E+00
  0.00000000E+00  0.00000000E+00  0.00000000E+00
  0.00000000E+00  0.00000000E+00  0.00000000E+00
  0.00000000E+00  0.00000000E+00  0.00000000E+00
  0.00000000E+00  0.00000000E+00  0.00000000E+00
  0.00000000E+00  0.00000000E+00  0.00000000E+00
  0.00000000E+00  0.00000000E+00  0.00000000E+00
  0.00000000E+00  0.00000000E+00  0.00000000E+00
  0.00000000E+00  0.00000000E+00  0.00000000E+00
  0.00000000E+00  0.00000000E+00  0.00000000E+00
  0.00000000E+00  0.00000000E+00  0.00000000E+00
  0.00000000E+00  0.00000000E+00  0.00000000E+00
  0.00000000E+00  0.00000000E+00  0.00000000E+00
  0.00000000E+00  0.00000000E+00  0.00000000E+00
  0.00000000E+00  0.00000000E+00  0.00000000E+00
  0.00000000E+00  0.00000000E+00  0.00000000E+00
  0.00000000E+00  0.00000000E+00  0.00000000E+00
  0.00000000E+00  0.00000000E+00  0.00000000E+00
  0.00000000E+00  0.00000000E+00  0.00000000E+00
  0.00000000E+00  0.00000000E+00  0.00000000E+00
  0.00000000E+00  0.00000000E+00  0.00000000E+00
  0.00000000E+00  0.00000000E+00  0.00000000E+00
  0.00000000E+00  0.00000000E+00  0.00000000E+00
  0.00000000E+00  0.00000000E+00  0.00000000E+00
  0.00000000E+00  0.00000000E+00  0.00000000E+00
  0.00000000E+00  0.00000000E+00  0.00000000E+00
  0.00000000E+00  0.00000000E+00  0.00000000E+00
  0.00000000E+00  0.00000000E+00  0.00000000E+00
  0.00000000E+00  0.00000000E+00  0.00000000E+00
  0.00000000E+00  0.00000000E+00  0.00000000E+00
  0.00000000E+00  0.00000000E+00  0.00000000E+00
  0.00000000E+00  0.00000000E+00  0.00000000E+00
  0.00000000E+00  0.00000000E+00  0.00000000E+00
  0.00000000E+00  0.00000000E+00  0.00000000E+00
  0.00000000E+00  0.00000000E+00  0.00000000E+00
  0.00000000E+00  0.00000000E+00  0.00000000E+00
  0.00000000E+00  0.00000000E+00  0.00000000E+00
  0.00000000E+00  0.00000000E+00  0.00000000E+00
  0.00000000E+00  0.00000000E+00  0.00000000E+00
  0.00000000E+00  0.00000000E+00  0.00000000E+00
  0.00000000E+00  0.00000000E+00  0.00000000E+00
  0.00000000E+00  0.00000000E+00  0.00000000E+00
  0.00000000E+00  0.00000000E+00  0.00000000E+00
  0.00000000E+00  0.00000000E+00  0.00000000E+00
  0.00000000E+00  0.00000000E+00  0.00000000E+00
  0.00000000E+00  0.00000000E+00  0.00000000E+00
  0.00000000E+00  0.00000000E+00  0.00000000E+00
  0.00000000E+00  0.00000000E+00  0.00000000E+00
  0.00000000E+00  0.00000000E+00  0.00000000E+00
  0.00000000E+00  0.00000000E+00  0.00000000E+00
  0.00000000E+00  0.00000000E+00  0.00000000E+00
  0.00000000E+00  0.00000000E+00  0.00000000E+00
  0.00000000E+00  0.00000000E+00  0.00000000E+00
  0.00000000E+00  0.00000000E+00  0.00000000E+00
  0.00000000E+00  0.00000000E+00  0.00000000E+00
  0.00000000E+00  0.00000000E+00  0.00000000E+00
  0.00000000E+00  0.00000000E+00  0.00000000E+00
  0.00000000E+00  0.00000000E+00  0.00000000E+00
  0.00000000E+00  0.00000000E+00  0.00000000E+00
  0.00000000E+00  0.00000000E+00  0.00000000E+00
  0.00000000E+00  0.00000000E+00  0.00000000E+00
  0.00000000E+00  0.00000000E+00  0.00000000E+00
  0.00000000E+00  0.00000000E+00  0.00000000E+00
  0.00000000E+00  0.00000000E+00  0.00000000E+00
  0.00000000E+00  0.00000000E+00  0.00000000E+00
  0.00000000E+00  0.00000000E+00  0.00000000E+00
  0.00000000E+00  0.00000000E+00  0.00000000E+00
  0.00000000E+00  0.00000000E+00  0.00000000E+00
  0.00000000E+00  0.00000000E+00  0.00000000E+00
  0.00000000E+00  0.00000000E+00  0.00000000E+00
