SrTiFeO                                 
   1.00000000000000     
    11.1989999999999998    0.0000000000000000    0.0000000000000000
     0.0000000000000000   11.1989999999999998    0.0000000000000000
     0.0000000000000000    0.0000000000000000   15.9830000000000005
   Sr   Ti   Fe   O 
    32    30     2    94
Direct
  0.9995181810829670  0.2504628342887729  0.1243414557618067
  0.0069159144299023  0.2487131328309833  0.6279334702724980
  0.9986330644212824  0.7501221047257501  0.1256610272469641
  0.9991785153325548  0.7474716285799562  0.6237144912978243
  0.5001670326260826  0.2519133813691392  0.1251346821827956
  0.4951293231060280  0.2433885807831243  0.6272118593637879
  0.5005398074840061  0.7493703903016093  0.1237814141827521
  0.5002443507152238  0.7534229014717405  0.6278815878184800
  0.0069159144299023  0.2487131328309833  0.3720665297275020
  0.9995181810829670  0.2504628342887729  0.8756585442381934
  0.9991785153325548  0.7474716285799562  0.3762855087021752
  0.9986330644212824  0.7501221047257501  0.8743389727530364
  0.4951293231060280  0.2433885807831243  0.3727881406362124
  0.5001670326260826  0.2519133813691392  0.8748653178172048
  0.5002443507152238  0.7534229014717405  0.3721184121815199
  0.5005398074840061  0.7493703903016093  0.8762185858172477
  0.2497781513006740  0.9998255549659044  0.1249468178286804
  0.2490764347491152  0.0001852788597721  0.6251265237544499
  0.2522797178893221  0.5007145964811605  0.1253320526033752
  0.2477192815193372  0.4967124263299282  0.6242727605567210
  0.7499997278509372  0.9994408018875791  0.1252230392415066
  0.7471359393983558  0.9952279854283433  0.6246484005830609
  0.7494663073985578  0.5014825048991433  0.1232642509556940
  0.7580810904823193  0.4986262782886302  0.6334366787374124
  0.2490764347491152  0.0001852788597721  0.3748734762455505
  0.2497781513006740  0.9998255549659044  0.8750531821713200
  0.2477192815193372  0.4967124263299282  0.3757272394432792
  0.2522797178893221  0.5007145964811605  0.8746679473966247
  0.7471359393983558  0.9952279854283433  0.3753515994169390
  0.7499997278509372  0.9994408018875791  0.8747769607584930
  0.7580810904823193  0.4986262782886302  0.3665633212625873
  0.7494663073985578  0.5014825048991433  0.8767357490443064
  0.9993499866267760  0.9998624916677543 -0.0000000000000000
  0.0040155987901538  0.9946372153532976  0.5000000000000000
  0.0007508246930720  0.4997757183702501 -0.0000000000000000
  0.9983846675168926  0.5019940860758274  0.5000000000000000
  0.4999285517359581  0.0003911032136354 -0.0000000000000000
  0.4976709349240837  0.9980998520503674  0.5000000000000000
  0.4990937588558498  0.4999283191578379 -0.0000000000000000
  0.2506242679991112  0.2503964479911923 -0.0000000000000000
  0.2490308749609688  0.2483784793474988  0.5000000000000000
  0.2500818457328440  0.7496075699319540 -0.0000000000000000
  0.2532112717202736  0.7499732564668752  0.5000000000000000
  0.7506597250541656  0.2493758956020510 -0.0000000000000000
  0.7632364849448321  0.2432479359347799  0.5000000000000000
  0.7504415345608694  0.7509462793964115 -0.0000000000000000
  0.2501538176628540  0.2495965856303887  0.2493556765012418
  0.2501538176628540  0.2495965856303887  0.7506443234987580
  0.2500155326374118  0.7494171504897963  0.2506423672476199
  0.2500155326374118  0.7494171504897963  0.7493576327523811
  0.7490552485066072  0.2496904319158606  0.2498928805739652
  0.7490552485066072  0.2496904319158606  0.7501071194260344
  0.7491447897058013  0.7489853620151353  0.2514383054005689
  0.7491447897058013  0.7489853620151353  0.7485616945994318
  0.9998201601853273  0.9991232113535627  0.2506541503954521
  0.9998201601853273  0.9991232113535627  0.7493458496045480
  0.0014642441736486  0.4997032551366560  0.2491309494369240
  0.0014642441736486  0.4997032551366560  0.7508690505630765
  0.4996430949712345  0.9995889669473801  0.2492420416655079
  0.4996430949712345  0.9995889669473801  0.7507579583344924
  0.5025157976126208  0.4997454967611429  0.2527503873898907
  0.5025157976126208  0.4997454967611429  0.7472496126101095
  0.4864226319428241  0.5040707560126088  0.5000000000000000
  0.7550212982915259  0.7567353705645889  0.5000000000000000
  0.1093863774824590  0.1405276375196393  0.2462960882388803
  0.1093863774824590  0.1405276375196393  0.7537039117611197
  0.1100889573567720  0.6398009930513445  0.2498801437040468
  0.1100889573567720  0.6398009930513445  0.7501198562959529
  0.6088949020231925  0.1409304766988231  0.2492441720689685
  0.6088949020231925  0.1409304766988231  0.7507558279310311
  0.6092142062565292  0.6399661985845310  0.2445510335638418
  0.3915135208459782  0.3603200818392538  0.2547463347036348
  0.3915135208459782  0.3603200818392538  0.7452536652963656
  0.3900843450729543  0.8596036735574186  0.2490112415726440
  0.3900843450729543  0.8596036735574186  0.7509887584273562
  0.8899214801458359  0.3594682018672214  0.2523465373049953
  0.8899214801458359  0.3594682018672214  0.7476534626950051
  0.8893253550344911  0.8595475623812110  0.2539782479551254
  0.8893253550344911  0.8595475623812110  0.7460217520448743
  0.3598581732091569  0.1103191482964924  0.2497780794918769
  0.3598581732091569  0.1103191482964924  0.7502219205081230
  0.3613215984982654  0.6087213389328744  0.2563779844380794
  0.3613215984982654  0.6087213389328744  0.7436220155619204
  0.8581077127574985  0.1103552709719804  0.2550227822800903
  0.8581077127574985  0.1103552709719804  0.7449772177199099
  0.8614303457731778  0.6095595660403382  0.2473654842879887
  0.8614303457731778  0.6095595660403382  0.7526345157120112
  0.1413316519676563  0.3903801173229965  0.2491108551782763
  0.1413316519676563  0.3903801173229965  0.7508891448217240
  0.1399466066008868  0.8900503386081370  0.2478772055068272
  0.1399466066008868  0.8900503386081370  0.7521227944931724
  0.6417471513631023  0.3902917041345820  0.2441803071571222
  0.6398943635982396  0.8906491331255020  0.2501830995891465
  0.6398943635982396  0.8906491331255020  0.7498169004108531
  0.3588338263611992  0.3908844930848792 -0.0000000000000000
  0.3588154616141260  0.8906672937012018 -0.0000000000000000
  0.3518941241843330  0.8979452519673716  0.5000000000000000
  0.8594233948470366  0.3903133235557542 -0.0000000000000000
  0.8412676372536515  0.3989693809369319  0.5000000000000000
  0.8592553695669605  0.8913968000003960 -0.0000000000000000
  0.8596396623345103  0.9058209171966860  0.5000000000000000
  0.1408488598546230  0.1090409595948423 -0.0000000000000000
  0.1417916142044287  0.1070377095794291  0.5000000000000000
  0.1409632124490232  0.6086547942897403 -0.0000000000000000
  0.1444746881553818  0.6059267568249728  0.5000000000000000
  0.6411797760415533  0.1093481835912935 -0.0000000000000000
  0.6342078350474815  0.1235404352465493  0.5000000000000000
  0.6397303594104888  0.6099264050454923 -0.0000000000000000
  0.1093325475568993  0.3582956325335443 -0.0000000000000000
  0.1042289042923106  0.3560753526884449  0.5000000000000000
  0.1094001762625344  0.8591236553576661 -0.0000000000000000
  0.1053632345418632  0.8553608912824183  0.5000000000000000
  0.6102586055572130  0.3595854340194186 -0.0000000000000000
  0.6090887038455476  0.8598345385611328 -0.0000000000000000
  0.6016358853330727  0.8642540129228672  0.5000000000000000
  0.3911499417911340  0.1410746440942997 -0.0000000000000000
  0.3883020727674493  0.1404056431110391  0.5000000000000000
  0.3906179065929057  0.6408919004131791 -0.0000000000000000
  0.3978910511104408  0.6576345567566506  0.5000000000000000
  0.8916518843304059  0.1409999396791184 -0.0000000000000000
  0.8969918871801896  0.1491243410192164  0.5000000000000000
  0.8909944210253977  0.6400393595356212 -0.0000000000000000
  0.9959014188795419  0.9993006937977069  0.1253753103137716
  0.0047497230426351  0.0023771527516444  0.6256005049051900
  0.0005763577263271  0.4979082251800735  0.1247554617892552
  0.0016071111459930  0.4980502321056408  0.6257028030572306
  0.4995656208419488  0.0001717760267126  0.1246999253450005
  0.4989113940124055  0.0018698125594496  0.6261368962793868
  0.4954530374141118  0.4990181063073392  0.1253310250023011
  0.0047497230426351  0.0023771527516444  0.3743994950948095
  0.9959014188795419  0.9993006937977069  0.8746246896862288
  0.0016071111459930  0.4980502321056408  0.3742971969427694
  0.0005763577263271  0.4979082251800735  0.8752445382107452
  0.4989113940124055  0.0018698125594496  0.3738631037206128
  0.4995656208419488  0.0001717760267126  0.8753000746549993
  0.4954530374141118  0.4990181063073392  0.8746689749976988
  0.2456673610860855  0.2476611730434906  0.3736300209261020
  0.2531057605923214  0.2517549046120971  0.8750892824893911
  0.2470748248362035  0.7528097372633168  0.3747578244040149
  0.2517421008858735  0.7469253837791497  0.8746045034231038
  0.7368355539305419  0.2599784957018245  0.3779650734315279
  0.7530933427925618  0.2473514001240385  0.8747326442706521
  0.7406357608081215  0.7386149398734121  0.3735391419542113
  0.7519493712399384  0.7521910271492127  0.8755556336211054
  0.2531057605923214  0.2517549046120971  0.1249107175106089
  0.2456673610860855  0.2476611730434906  0.6263699790738977
  0.2517421008858735  0.7469253837791497  0.1253954965768962
  0.2470748248362035  0.7528097372633168  0.6252421755959844
  0.7530933427925618  0.2473514001240385  0.1252673557293477
  0.7368355539305419  0.2599784957018245  0.6220349265684728
  0.7519493712399384  0.7521910271492127  0.1244443663788949
  0.6417471513631023  0.3902917041345820  0.7558196928428776
  0.6092142062565292  0.6399661985845310  0.7554489664361583
  0.5251769729720783  0.4980558123375145  0.3791631989850329
  0.3589564659339657  0.3814552342277809  0.5000000000000000
  0.7406357608081215  0.7386149398734121  0.6264608580457819
  0.8943102613335540  0.6360290674723682  0.5000000000000000
  0.5251769729720783  0.4980558123375145  0.6208368010149676
 
  0.00000000E+00  0.00000000E+00  0.00000000E+00
  0.00000000E+00  0.00000000E+00  0.00000000E+00
  0.00000000E+00  0.00000000E+00  0.00000000E+00
  0.00000000E+00  0.00000000E+00  0.00000000E+00
  0.00000000E+00  0.00000000E+00  0.00000000E+00
  0.00000000E+00  0.00000000E+00  0.00000000E+00
  0.00000000E+00  0.00000000E+00  0.00000000E+00
  0.00000000E+00  0.00000000E+00  0.00000000E+00
  0.00000000E+00  0.00000000E+00  0.00000000E+00
  0.00000000E+00  0.00000000E+00  0.00000000E+00
  0.00000000E+00  0.00000000E+00  0.00000000E+00
  0.00000000E+00  0.00000000E+00  0.00000000E+00
  0.00000000E+00  0.00000000E+00  0.00000000E+00
  0.00000000E+00  0.00000000E+00  0.00000000E+00
  0.00000000E+00  0.00000000E+00  0.00000000E+00
  0.00000000E+00  0.00000000E+00  0.00000000E+00
  0.00000000E+00  0.00000000E+00  0.00000000E+00
  0.00000000E+00  0.00000000E+00  0.00000000E+00
  0.00000000E+00  0.00000000E+00  0.00000000E+00
  0.00000000E+00  0.00000000E+00  0.00000000E+00
  0.00000000E+00  0.00000000E+00  0.00000000E+00
  0.00000000E+00  0.00000000E+00  0.00000000E+00
  0.00000000E+00  0.00000000E+00  0.00000000E+00
  0.00000000E+00  0.00000000E+00  0.00000000E+00
  0.00000000E+00  0.00000000E+00  0.00000000E+00
  0.00000000E+00  0.00000000E+00  0.00000000E+00
  0.00000000E+00  0.00000000E+00  0.00000000E+00
  0.00000000E+00  0.00000000E+00  0.00000000E+00
  0.00000000E+00  0.00000000E+00  0.00000000E+00
  0.00000000E+00  0.00000000E+00  0.00000000E+00
  0.00000000E+00  0.00000000E+00  0.00000000E+00
  0.00000000E+00  0.00000000E+00  0.00000000E+00
  0.00000000E+00  0.00000000E+00  0.00000000E+00
  0.00000000E+00  0.00000000E+00  0.00000000E+00
  0.00000000E+00  0.00000000E+00  0.00000000E+00
  0.00000000E+00  0.00000000E+00  0.00000000E+00
  0.00000000E+00  0.00000000E+00  0.00000000E+00
  0.00000000E+00  0.00000000E+00  0.00000000E+00
  0.00000000E+00  0.00000000E+00  0.00000000E+00
  0.00000000E+00  0.00000000E+00  0.00000000E+00
  0.00000000E+00  0.00000000E+00  0.00000000E+00
  0.00000000E+00  0.00000000E+00  0.00000000E+00
  0.00000000E+00  0.00000000E+00  0.00000000E+00
  0.00000000E+00  0.00000000E+00  0.00000000E+00
  0.00000000E+00  0.00000000E+00  0.00000000E+00
  0.00000000E+00  0.00000000E+00  0.00000000E+00
  0.00000000E+00  0.00000000E+00  0.00000000E+00
  0.00000000E+00  0.00000000E+00  0.00000000E+00
  0.00000000E+00  0.00000000E+00  0.00000000E+00
  0.00000000E+00  0.00000000E+00  0.00000000E+00
  0.00000000E+00  0.00000000E+00  0.00000000E+00
  0.00000000E+00  0.00000000E+00  0.00000000E+00
  0.00000000E+00  0.00000000E+00  0.00000000E+00
  0.00000000E+00  0.00000000E+00  0.00000000E+00
  0.00000000E+00  0.00000000E+00  0.00000000E+00
  0.00000000E+00  0.00000000E+00  0.00000000E+00
  0.00000000E+00  0.00000000E+00  0.00000000E+00
  0.00000000E+00  0.00000000E+00  0.00000000E+00
  0.00000000E+00  0.00000000E+00  0.00000000E+00
  0.00000000E+00  0.00000000E+00  0.00000000E+00
  0.00000000E+00  0.00000000E+00  0.00000000E+00
  0.00000000E+00  0.00000000E+00  0.00000000E+00
  0.00000000E+00  0.00000000E+00  0.00000000E+00
  0.00000000E+00  0.00000000E+00  0.00000000E+00
  0.00000000E+00  0.00000000E+00  0.00000000E+00
  0.00000000E+00  0.00000000E+00  0.00000000E+00
  0.00000000E+00  0.00000000E+00  0.00000000E+00
  0.00000000E+00  0.00000000E+00  0.00000000E+00
  0.00000000E+00  0.00000000E+00  0.00000000E+00
  0.00000000E+00  0.00000000E+00  0.00000000E+00
  0.00000000E+00  0.00000000E+00  0.00000000E+00
  0.00000000E+00  0.00000000E+00  0.00000000E+00
  0.00000000E+00  0.00000000E+00  0.00000000E+00
  0.00000000E+00  0.00000000E+00  0.00000000E+00
  0.00000000E+00  0.00000000E+00  0.00000000E+00
  0.00000000E+00  0.00000000E+00  0.00000000E+00
  0.00000000E+00  0.00000000E+00  0.00000000E+00
  0.00000000E+00  0.00000000E+00  0.00000000E+00
  0.00000000E+00  0.00000000E+00  0.00000000E+00
  0.00000000E+00  0.00000000E+00  0.00000000E+00
  0.00000000E+00  0.00000000E+00  0.00000000E+00
  0.00000000E+00  0.00000000E+00  0.00000000E+00
  0.00000000E+00  0.00000000E+00  0.00000000E+00
  0.00000000E+00  0.00000000E+00  0.00000000E+00
  0.00000000E+00  0.00000000E+00  0.00000000E+00
  0.00000000E+00  0.00000000E+00  0.00000000E+00
  0.00000000E+00  0.00000000E+00  0.00000000E+00
  0.00000000E+00  0.00000000E+00  0.00000000E+00
  0.00000000E+00  0.00000000E+00  0.00000000E+00
  0.00000000E+00  0.00000000E+00  0.00000000E+00
  0.00000000E+00  0.00000000E+00  0.00000000E+00
  0.00000000E+00  0.00000000E+00  0.00000000E+00
  0.00000000E+00  0.00000000E+00  0.00000000E+00
  0.00000000E+00  0.00000000E+00  0.00000000E+00
  0.00000000E+00  0.00000000E+00  0.00000000E+00
  0.00000000E+00  0.00000000E+00  0.00000000E+00
  0.00000000E+00  0.00000000E+00  0.00000000E+00
  0.00000000E+00  0.00000000E+00  0.00000000E+00
  0.00000000E+00  0.00000000E+00  0.00000000E+00
  0.00000000E+00  0.00000000E+00  0.00000000E+00
  0.00000000E+00  0.00000000E+00  0.00000000E+00
  0.00000000E+00  0.00000000E+00  0.00000000E+00
  0.00000000E+00  0.00000000E+00  0.00000000E+00
  0.00000000E+00  0.00000000E+00  0.00000000E+00
  0.00000000E+00  0.00000000E+00  0.00000000E+00
  0.00000000E+00  0.00000000E+00  0.00000000E+00
  0.00000000E+00  0.00000000E+00  0.00000000E+00
  0.00000000E+00  0.00000000E+00  0.00000000E+00
  0.00000000E+00  0.00000000E+00  0.00000000E+00
  0.00000000E+00  0.00000000E+00  0.00000000E+00
  0.00000000E+00  0.00000000E+00  0.00000000E+00
  0.00000000E+00  0.00000000E+00  0.00000000E+00
  0.00000000E+00  0.00000000E+00  0.00000000E+00
  0.00000000E+00  0.00000000E+00  0.00000000E+00
  0.00000000E+00  0.00000000E+00  0.00000000E+00
  0.00000000E+00  0.00000000E+00  0.00000000E+00
  0.00000000E+00  0.00000000E+00  0.00000000E+00
  0.00000000E+00  0.00000000E+00  0.00000000E+00
  0.00000000E+00  0.00000000E+00  0.00000000E+00
  0.00000000E+00  0.00000000E+00  0.00000000E+00
  0.00000000E+00  0.00000000E+00  0.00000000E+00
  0.00000000E+00  0.00000000E+00  0.00000000E+00
  0.00000000E+00  0.00000000E+00  0.00000000E+00
  0.00000000E+00  0.00000000E+00  0.00000000E+00
  0.00000000E+00  0.00000000E+00  0.00000000E+00
  0.00000000E+00  0.00000000E+00  0.00000000E+00
  0.00000000E+00  0.00000000E+00  0.00000000E+00
  0.00000000E+00  0.00000000E+00  0.00000000E+00
  0.00000000E+00  0.00000000E+00  0.00000000E+00
  0.00000000E+00  0.00000000E+00  0.00000000E+00
  0.00000000E+00  0.00000000E+00  0.00000000E+00
  0.00000000E+00  0.00000000E+00  0.00000000E+00
  0.00000000E+00  0.00000000E+00  0.00000000E+00
  0.00000000E+00  0.00000000E+00  0.00000000E+00
  0.00000000E+00  0.00000000E+00  0.00000000E+00
  0.00000000E+00  0.00000000E+00  0.00000000E+00
  0.00000000E+00  0.00000000E+00  0.00000000E+00
  0.00000000E+00  0.00000000E+00  0.00000000E+00
  0.00000000E+00  0.00000000E+00  0.00000000E+00
  0.00000000E+00  0.00000000E+00  0.00000000E+00
  0.00000000E+00  0.00000000E+00  0.00000000E+00
  0.00000000E+00  0.00000000E+00  0.00000000E+00
  0.00000000E+00  0.00000000E+00  0.00000000E+00
  0.00000000E+00  0.00000000E+00  0.00000000E+00
  0.00000000E+00  0.00000000E+00  0.00000000E+00
  0.00000000E+00  0.00000000E+00  0.00000000E+00
  0.00000000E+00  0.00000000E+00  0.00000000E+00
  0.00000000E+00  0.00000000E+00  0.00000000E+00
  0.00000000E+00  0.00000000E+00  0.00000000E+00
  0.00000000E+00  0.00000000E+00  0.00000000E+00
  0.00000000E+00  0.00000000E+00  0.00000000E+00
  0.00000000E+00  0.00000000E+00  0.00000000E+00
  0.00000000E+00  0.00000000E+00  0.00000000E+00
  0.00000000E+00  0.00000000E+00  0.00000000E+00
  0.00000000E+00  0.00000000E+00  0.00000000E+00
  0.00000000E+00  0.00000000E+00  0.00000000E+00
  0.00000000E+00  0.00000000E+00  0.00000000E+00
  0.00000000E+00  0.00000000E+00  0.00000000E+00
