SrTiFeO                                 
   1.00000000000000     
    11.1989999999999998    0.0000000000000000    0.0000000000000000
     0.0000000000000000   11.1989999999999998    0.0000000000000000
     0.0000000000000000    0.0000000000000000   15.9830000000000005
   Sr   Ti   O 
    32    32    94
Direct
  0.0004458692856526  0.2502429780676111  0.1249516711807280
  0.0011393784919186  0.2513643927976857  0.6264888952360136
  0.0000484702249637  0.7497263721311129  0.1249553554076806
 -0.0001420188659887  0.7499498300792345  0.6256480011707553
  0.5009957535578531  0.2491617881329288  0.1230882207193224
  0.4981556961674818  0.2425659873167366  0.6318570763906727
  0.5005278539816228  0.7490806386308393  0.1250756330061533
  0.4991657461037265  0.7526401141580966  0.6244486677526186
  0.0011393784919186  0.2513643927976857  0.3735111047639864
  0.0004458692856526  0.2502429780676111  0.8750483288192719
 -0.0001420188659887  0.7499498300792345  0.3743519988292448
  0.0000484702249637  0.7497263721311129  0.8750446445923196
  0.4981556961674818  0.2425659873167366  0.3681429236093274
  0.5009957535578531  0.2491617881329288  0.8769117792806780
  0.4991657461037265  0.7526401141580966  0.3755513322473814
  0.5005278539816228  0.7490806386308393  0.8749243669938467
  0.2503213655337211  0.0002824373743026  0.1245826522932391
  0.2488301047700656 -0.0035665137356081  0.6267289610606996
  0.2507844606536560  0.4998742721433889  0.1248542995579711
  0.2441735647562369  0.5027042715717679  0.6275172691809797
  0.7500013547163875  0.0007086588535102  0.1252225448918762
  0.7482734959973387 -0.0024928451976751  0.6256574623441954
  0.7505071788967034  0.5000165798415600  0.1235499455184582
  0.7526883992800575  0.5016506839745705  0.6281573051496320
  0.2488301047700656 -0.0035665137356081  0.3732710389393004
  0.2503213655337211  0.0002824373743026  0.8754173477067611
  0.2441735647562369  0.5027042715717679  0.3724827308190202
  0.2507844606536560  0.4998742721433889  0.8751457004420290
  0.7482734959973387 -0.0024928451976751  0.3743425376558050
  0.7500013547163875  0.0007086588535102  0.8747774551081238
  0.7526883992800575  0.5016506839745705  0.3718426948503681
  0.7505071788967034  0.5000165798415600  0.8764500544815418
 -0.0000388263729105  0.0003420621120793 -0.0000000000000000
 -0.0009229279703795 -0.0045839913635648  0.5000000000000000
  0.0003282002910454  0.5000056658509194 -0.0000000000000000
 -0.0009353983628854  0.5011932321409900  0.5000000000000000
  0.4996784241752217 -0.0007180569615987 -0.0000000000000000
  0.4992643333727808  0.0011211756003605  0.5000000000000000
  0.5000797781661278  0.5007609870168983 -0.0000000000000000
  0.2494596132717551  0.2493853376275560 -0.0000000000000000
  0.2467440243334518  0.2437289558691911  0.5000000000000000
  0.2501545289450333  0.7496452724462069 -0.0000000000000000
  0.2503560166001875  0.7493990761391849  0.5000000000000000
  0.7509318850435889  0.2496210019423217 -0.0000000000000000
  0.7496471437548106  0.7499627935953659 -0.0000000000000000
  0.2504717606180460  0.2506609017044829  0.2494388418980872
  0.2504717606180460  0.2506609017044829  0.7505611581019128
  0.2500018572332868  0.7499177427884848  0.2498777989937205
  0.2500018572332868  0.7499177427884848  0.7501222010062794
  0.7495733907403889  0.2508087703547277  0.2497944414187019
  0.7495733907403889  0.2508087703547277  0.7502055585812977
  0.7496581804378143  0.7498238422502499  0.2500462604590228
  0.7496581804378143  0.7498238422502499  0.7499537395409771
 -0.0004609700753550  0.0002333376440318  0.2502613204084055
 -0.0004609700753550  0.0002333376440318  0.7497386795915945
 -0.0003116360535799  0.5000829675711724  0.2492895900460809
 -0.0003116360535799  0.5000829675711724  0.7507104099539191
  0.4998618126173692 -0.0011354382097431  0.2492333077456836
  0.4998618126173692 -0.0011354382097431  0.7507666922543161
  0.4998393613268838  0.4981584284853726  0.2499319275918460
  0.4998393613268838  0.4981584284853726  0.7500680724081542
  0.7565535436696310  0.2458915153723852  0.5000000000000000
  0.5007718873420145  0.5002070803273859  0.5000000000000000
  0.7501263731082554  0.7487045835974271  0.5000000000000000
  0.1106271815868137  0.1407942869011773  0.2535074072724268
  0.1106271815868137  0.1407942869011773  0.7464925927275732
  0.1102886688467264  0.6397791776780337  0.2508213082976068
  0.1102886688467264  0.6397791776780337  0.7491786917023934
  0.6104827344673868  0.1393928737165614  0.2485542539031408
  0.6104827344673868  0.1393928737165614  0.7514457460968592
  0.6089093937288665  0.6387354643717030  0.2555481286676119
  0.6089093937288665  0.6387354643717030  0.7444518713323883
  0.3909885527824587  0.3584061969801842  0.2441894461099618
  0.3909885527824587  0.3584061969801842  0.7558105538900380
  0.3905702152641569  0.8589352928378423  0.2502222906009697
  0.3905702152641569  0.8589352928378423  0.7497777093990303
  0.8905166318740190  0.3593961707135520  0.2510461152455969
  0.8905166318740190  0.3593961707135520  0.7489538847544032
  0.8899713385653667  0.8601986999555613  0.2488583047361992
  0.8899713385653667  0.8601986999555613  0.7511416952638005
  0.3598002297122322  0.1098598501789026  0.2518763369539355
  0.3598002297122322  0.1098598501789026  0.7481236630460646
  0.3603094448353577  0.6083147533017570  0.2537573987137524
  0.3603094448353577  0.6083147533017570  0.7462426012862478
  0.8595220322342783  0.1107016736950625  0.2537307241018656
  0.8595220322342783  0.1107016736950625  0.7462692758981343
  0.8598504648175630  0.6100247683362950  0.2491870455052042
  0.8598504648175630  0.6100247683362950  0.7508129544947958
  0.1405091784913327  0.3903841697936532  0.2495572009969728
  0.1405091784913327  0.3903841697936532  0.7504427990030270
  0.1402128291973687  0.8903386863147328  0.2486304004593065
  0.1402128291973687  0.8903386863147328  0.7513695995406936
  0.6409554420428260  0.3907087375263759  0.2463178321180755
  0.6409554420428260  0.3907087375263759  0.7536821678819244
  0.6399769028423004  0.8897033302956036  0.2498447545130433
  0.6399769028423004  0.8897033302956036  0.7501552454869564
  0.3600803360977257  0.3899949492265609 -0.0000000000000000
  0.3586638047086668  0.8903836109303802 -0.0000000000000000
  0.3579822773050455  0.8947366850148692  0.5000000000000000
  0.8596363997228129  0.3905491032274970 -0.0000000000000000
  0.8591491760498977  0.8905959750648639 -0.0000000000000000
  0.8569584885343233  0.8950898934470494  0.5000000000000000
  0.1404408998991346  0.1085518269991961 -0.0000000000000000
  0.1427010463369472  0.1075195149364893  0.5000000000000000
  0.1407211956439537  0.6092754964458396 -0.0000000000000000
  0.1406286069448000  0.6093632588256734  0.5000000000000000
  0.6401743683317079  0.1097524742570909 -0.0000000000000000
  0.6389918120035796  0.1163167932162083  0.5000000000000000
  0.6408306243263802  0.6093351000559343 -0.0000000000000000
  0.1096067736396688  0.3592797340000756 -0.0000000000000000
  0.1137364552994645  0.3623971678742363  0.5000000000000000
  0.1090876689051633  0.8593110792099079 -0.0000000000000000
  0.1076370942241315  0.8587102954751105  0.5000000000000000
  0.6100605218257167  0.3600881289419209 -0.0000000000000000
  0.6090365699614375  0.8592526279029649 -0.0000000000000000
  0.6094585579293542  0.8619761234542970  0.5000000000000000
  0.3901748457893663  0.1402607462579591 -0.0000000000000000
  0.3948644978910128  0.1491805489929787  0.5000000000000000
  0.3907409488732647  0.6407430697165980 -0.0000000000000000
  0.8910170724298127  0.1406735805967014 -0.0000000000000000
  0.8964046089360803  0.1447948794985590  0.5000000000000000
  0.8904571857478042  0.6408848368681269 -0.0000000000000000
 -0.0007103227597494  0.0029019668357642  0.1255097148583116
  0.0006896188474864 -0.0014376741465014  0.6247036599640711
 -0.0000467611847216  0.4999914882228530  0.1250144405045822
 -0.0004521472181291  0.4997723991435091  0.6250666997562312
  0.4987116775342041 -0.0002488116161415  0.1249970622726552
  0.5006674938252081  0.0001853335129244  0.6250080040827977
  0.5002673717610814  0.5041940003280855  0.1251050512832845
  0.4977843065550436  0.4791262377774514  0.6228168294167425
  0.0006896188474864 -0.0014376741465014  0.3752963400359289
 -0.0007103227597494  0.0029019668357642  0.8744902851416887
 -0.0004521472181291  0.4997723991435091  0.3749333002437689
 -0.0000467611847216  0.4999914882228530  0.8749855594954178
  0.5006674938252081  0.0001853335129244  0.3749919959172023
  0.4987116775342041 -0.0002488116161415  0.8750029377273452
  0.5002673717610814  0.5041940003280855  0.8748949487167151
  0.2572397328609144  0.2603607152191430  0.3764892645883216
  0.2477922088704560  0.2473541780853843  0.8750421891409799
  0.2489946431479550  0.7527733072437217  0.3749285680015059
  0.2511644650651759  0.7478263082018803  0.8746369456941693
  0.7521437384224345  0.2484675396984531  0.8749354842401418
  0.7475155843422279  0.7483225524045447  0.8746225801484798
  0.2477922088704560  0.2473541780853843  0.1249578108590203
  0.2572397328609144  0.2603607152191430  0.6235107354116785
  0.2511644650651759  0.7478263082018803  0.1253630543058306
  0.2489946431479550  0.7527733072437217  0.6250714319984944
  0.7521437384224345  0.2484675396984531  0.1250645157598580
  0.7417705422286198  0.2577339330855595  0.6234539584062593
  0.7475155843422279  0.7483225524045447  0.1253774198515198
  0.7522191337492282  0.7523352449081381  0.6249742854046051
  0.7417705422286198  0.2577339330855595  0.3765460415937408
  0.8549774439887815  0.3946681215935555  0.5000000000000000
  0.3874024635841079  0.6421271459846540  0.5000000000000000
  0.4977843065550436  0.4791262377774514  0.3771831705832572
  0.8944270319783634  0.6448122776033249  0.5000000000000000
  0.7522191337492282  0.7523352449081381  0.3750257145953950
  0.6461667082582838  0.6091221626070508  0.5000000000000000
 
  0.00000000E+00  0.00000000E+00  0.00000000E+00
  0.00000000E+00  0.00000000E+00  0.00000000E+00
  0.00000000E+00  0.00000000E+00  0.00000000E+00
  0.00000000E+00  0.00000000E+00  0.00000000E+00
  0.00000000E+00  0.00000000E+00  0.00000000E+00
  0.00000000E+00  0.00000000E+00  0.00000000E+00
  0.00000000E+00  0.00000000E+00  0.00000000E+00
  0.00000000E+00  0.00000000E+00  0.00000000E+00
  0.00000000E+00  0.00000000E+00  0.00000000E+00
  0.00000000E+00  0.00000000E+00  0.00000000E+00
  0.00000000E+00  0.00000000E+00  0.00000000E+00
  0.00000000E+00  0.00000000E+00  0.00000000E+00
  0.00000000E+00  0.00000000E+00  0.00000000E+00
  0.00000000E+00  0.00000000E+00  0.00000000E+00
  0.00000000E+00  0.00000000E+00  0.00000000E+00
  0.00000000E+00  0.00000000E+00  0.00000000E+00
  0.00000000E+00  0.00000000E+00  0.00000000E+00
  0.00000000E+00  0.00000000E+00  0.00000000E+00
  0.00000000E+00  0.00000000E+00  0.00000000E+00
  0.00000000E+00  0.00000000E+00  0.00000000E+00
  0.00000000E+00  0.00000000E+00  0.00000000E+00
  0.00000000E+00  0.00000000E+00  0.00000000E+00
  0.00000000E+00  0.00000000E+00  0.00000000E+00
  0.00000000E+00  0.00000000E+00  0.00000000E+00
  0.00000000E+00  0.00000000E+00  0.00000000E+00
  0.00000000E+00  0.00000000E+00  0.00000000E+00
  0.00000000E+00  0.00000000E+00  0.00000000E+00
  0.00000000E+00  0.00000000E+00  0.00000000E+00
  0.00000000E+00  0.00000000E+00  0.00000000E+00
  0.00000000E+00  0.00000000E+00  0.00000000E+00
  0.00000000E+00  0.00000000E+00  0.00000000E+00
  0.00000000E+00  0.00000000E+00  0.00000000E+00
  0.00000000E+00  0.00000000E+00  0.00000000E+00
  0.00000000E+00  0.00000000E+00  0.00000000E+00
  0.00000000E+00  0.00000000E+00  0.00000000E+00
  0.00000000E+00  0.00000000E+00  0.00000000E+00
  0.00000000E+00  0.00000000E+00  0.00000000E+00
  0.00000000E+00  0.00000000E+00  0.00000000E+00
  0.00000000E+00  0.00000000E+00  0.00000000E+00
  0.00000000E+00  0.00000000E+00  0.00000000E+00
  0.00000000E+00  0.00000000E+00  0.00000000E+00
  0.00000000E+00  0.00000000E+00  0.00000000E+00
  0.00000000E+00  0.00000000E+00  0.00000000E+00
  0.00000000E+00  0.00000000E+00  0.00000000E+00
  0.00000000E+00  0.00000000E+00  0.00000000E+00
  0.00000000E+00  0.00000000E+00  0.00000000E+00
  0.00000000E+00  0.00000000E+00  0.00000000E+00
  0.00000000E+00  0.00000000E+00  0.00000000E+00
  0.00000000E+00  0.00000000E+00  0.00000000E+00
  0.00000000E+00  0.00000000E+00  0.00000000E+00
  0.00000000E+00  0.00000000E+00  0.00000000E+00
  0.00000000E+00  0.00000000E+00  0.00000000E+00
  0.00000000E+00  0.00000000E+00  0.00000000E+00
  0.00000000E+00  0.00000000E+00  0.00000000E+00
  0.00000000E+00  0.00000000E+00  0.00000000E+00
  0.00000000E+00  0.00000000E+00  0.00000000E+00
  0.00000000E+00  0.00000000E+00  0.00000000E+00
  0.00000000E+00  0.00000000E+00  0.00000000E+00
  0.00000000E+00  0.00000000E+00  0.00000000E+00
  0.00000000E+00  0.00000000E+00  0.00000000E+00
  0.00000000E+00  0.00000000E+00  0.00000000E+00
  0.00000000E+00  0.00000000E+00  0.00000000E+00
  0.00000000E+00  0.00000000E+00  0.00000000E+00
  0.00000000E+00  0.00000000E+00  0.00000000E+00
  0.00000000E+00  0.00000000E+00  0.00000000E+00
  0.00000000E+00  0.00000000E+00  0.00000000E+00
  0.00000000E+00  0.00000000E+00  0.00000000E+00
  0.00000000E+00  0.00000000E+00  0.00000000E+00
  0.00000000E+00  0.00000000E+00  0.00000000E+00
  0.00000000E+00  0.00000000E+00  0.00000000E+00
  0.00000000E+00  0.00000000E+00  0.00000000E+00
  0.00000000E+00  0.00000000E+00  0.00000000E+00
  0.00000000E+00  0.00000000E+00  0.00000000E+00
  0.00000000E+00  0.00000000E+00  0.00000000E+00
  0.00000000E+00  0.00000000E+00  0.00000000E+00
  0.00000000E+00  0.00000000E+00  0.00000000E+00
  0.00000000E+00  0.00000000E+00  0.00000000E+00
  0.00000000E+00  0.00000000E+00  0.00000000E+00
  0.00000000E+00  0.00000000E+00  0.00000000E+00
  0.00000000E+00  0.00000000E+00  0.00000000E+00
  0.00000000E+00  0.00000000E+00  0.00000000E+00
  0.00000000E+00  0.00000000E+00  0.00000000E+00
  0.00000000E+00  0.00000000E+00  0.00000000E+00
  0.00000000E+00  0.00000000E+00  0.00000000E+00
  0.00000000E+00  0.00000000E+00  0.00000000E+00
  0.00000000E+00  0.00000000E+00  0.00000000E+00
  0.00000000E+00  0.00000000E+00  0.00000000E+00
  0.00000000E+00  0.00000000E+00  0.00000000E+00
  0.00000000E+00  0.00000000E+00  0.00000000E+00
  0.00000000E+00  0.00000000E+00  0.00000000E+00
  0.00000000E+00  0.00000000E+00  0.00000000E+00
  0.00000000E+00  0.00000000E+00  0.00000000E+00
  0.00000000E+00  0.00000000E+00  0.00000000E+00
  0.00000000E+00  0.00000000E+00  0.00000000E+00
  0.00000000E+00  0.00000000E+00  0.00000000E+00
  0.00000000E+00  0.00000000E+00  0.00000000E+00
  0.00000000E+00  0.00000000E+00  0.00000000E+00
  0.00000000E+00  0.00000000E+00  0.00000000E+00
  0.00000000E+00  0.00000000E+00  0.00000000E+00
  0.00000000E+00  0.00000000E+00  0.00000000E+00
  0.00000000E+00  0.00000000E+00  0.00000000E+00
  0.00000000E+00  0.00000000E+00  0.00000000E+00
  0.00000000E+00  0.00000000E+00  0.00000000E+00
  0.00000000E+00  0.00000000E+00  0.00000000E+00
  0.00000000E+00  0.00000000E+00  0.00000000E+00
  0.00000000E+00  0.00000000E+00  0.00000000E+00
  0.00000000E+00  0.00000000E+00  0.00000000E+00
  0.00000000E+00  0.00000000E+00  0.00000000E+00
  0.00000000E+00  0.00000000E+00  0.00000000E+00
  0.00000000E+00  0.00000000E+00  0.00000000E+00
  0.00000000E+00  0.00000000E+00  0.00000000E+00
  0.00000000E+00  0.00000000E+00  0.00000000E+00
  0.00000000E+00  0.00000000E+00  0.00000000E+00
  0.00000000E+00  0.00000000E+00  0.00000000E+00
  0.00000000E+00  0.00000000E+00  0.00000000E+00
  0.00000000E+00  0.00000000E+00  0.00000000E+00
  0.00000000E+00  0.00000000E+00  0.00000000E+00
  0.00000000E+00  0.00000000E+00  0.00000000E+00
  0.00000000E+00  0.00000000E+00  0.00000000E+00
  0.00000000E+00  0.00000000E+00  0.00000000E+00
  0.00000000E+00  0.00000000E+00  0.00000000E+00
  0.00000000E+00  0.00000000E+00  0.00000000E+00
  0.00000000E+00  0.00000000E+00  0.00000000E+00
  0.00000000E+00  0.00000000E+00  0.00000000E+00
  0.00000000E+00  0.00000000E+00  0.00000000E+00
  0.00000000E+00  0.00000000E+00  0.00000000E+00
  0.00000000E+00  0.00000000E+00  0.00000000E+00
  0.00000000E+00  0.00000000E+00  0.00000000E+00
  0.00000000E+00  0.00000000E+00  0.00000000E+00
  0.00000000E+00  0.00000000E+00  0.00000000E+00
  0.00000000E+00  0.00000000E+00  0.00000000E+00
  0.00000000E+00  0.00000000E+00  0.00000000E+00
  0.00000000E+00  0.00000000E+00  0.00000000E+00
  0.00000000E+00  0.00000000E+00  0.00000000E+00
  0.00000000E+00  0.00000000E+00  0.00000000E+00
  0.00000000E+00  0.00000000E+00  0.00000000E+00
  0.00000000E+00  0.00000000E+00  0.00000000E+00
  0.00000000E+00  0.00000000E+00  0.00000000E+00
  0.00000000E+00  0.00000000E+00  0.00000000E+00
  0.00000000E+00  0.00000000E+00  0.00000000E+00
  0.00000000E+00  0.00000000E+00  0.00000000E+00
  0.00000000E+00  0.00000000E+00  0.00000000E+00
  0.00000000E+00  0.00000000E+00  0.00000000E+00
  0.00000000E+00  0.00000000E+00  0.00000000E+00
  0.00000000E+00  0.00000000E+00  0.00000000E+00
  0.00000000E+00  0.00000000E+00  0.00000000E+00
  0.00000000E+00  0.00000000E+00  0.00000000E+00
  0.00000000E+00  0.00000000E+00  0.00000000E+00
  0.00000000E+00  0.00000000E+00  0.00000000E+00
  0.00000000E+00  0.00000000E+00  0.00000000E+00
  0.00000000E+00  0.00000000E+00  0.00000000E+00
  0.00000000E+00  0.00000000E+00  0.00000000E+00
  0.00000000E+00  0.00000000E+00  0.00000000E+00
  0.00000000E+00  0.00000000E+00  0.00000000E+00
  0.00000000E+00  0.00000000E+00  0.00000000E+00
  0.00000000E+00  0.00000000E+00  0.00000000E+00
  0.00000000E+00  0.00000000E+00  0.00000000E+00
  0.00000000E+00  0.00000000E+00  0.00000000E+00
