Sr   Ti   O                             
   1.00000000000000     
    11.1989999999999998    0.0000000000000000    0.0000000000000000
     0.0000000000000000   11.1989999999999998    0.0000000000000000
     0.0000000000000000    0.0000000000000000   15.9830000000000005
   Sr   Ti   O 
    32    32    94
Direct
  0.0002611282263820  0.2497981599101231  0.1248751384351043
  0.9983131001301543  0.2523467735551570  0.6256723489077665
  0.9984647644783550  0.7511216691819284  0.1251882992679459
  0.0040922741429896  0.7510723688178370  0.6254650219152671
  0.4997948616561160  0.2501570089954950  0.1227462476185642
  0.4974891458492477  0.2429559977588248  0.6342367338315535
  0.4994181628924083  0.7486904663040456  0.1243844336001087
  0.4972174469616904  0.7602393421834260  0.6292880204800433
  0.9983131001301543  0.2523467735551570  0.3743276510922407
  0.0002611282263820  0.2497981599101231  0.8751248615648884
  0.0040922741429896  0.7510723688178370  0.3745349780847398
  0.9984647644783550  0.7511216691819284  0.8748117007320612
  0.4974891458492477  0.2429559977588248  0.3657632661684393
  0.4997948616561160  0.2501570089954950  0.8772537523814500
  0.4972174469616904  0.7602393421834260  0.3707119795199424
  0.4994181628924083  0.7486904663040456  0.8756155663998985
  0.2487779952834212  0.0007744421524989  0.1243790666507009
  0.2478815059068634  0.9984912657603764  0.6278214314783552
  0.2508873555746542  0.4997696998654579  0.1239590015598206
  0.2431821949089146  0.5058324719237440  0.6302054068279725
  0.7496912464104221  0.0004801529048617  0.1257583794963393
  0.7486013647270338  0.0062160905492300  0.6243103001382956
  0.7493914643908630  0.5009401114225636  0.1229864044452913
  0.7621783839420234  0.4992993448036635  0.6339983463003904
  0.2478815059068634  0.9984912657603764  0.3721785685216449
  0.2487779952834212  0.0007744421524989  0.8756209333492991
  0.2431821949089146  0.5058324719237440  0.3697945931720202
  0.2508873555746542  0.4997696998654579  0.8760409984401795
  0.7486013647270338  0.0062160905492300  0.3756896998617115
  0.7496912464104221  0.0004801529048617  0.8742416205036535
  0.7621783839420234  0.4992993448036635  0.3660016536996096
  0.7493914643908630  0.5009401114225636  0.8770135955547302
  0.9987957189916947  0.0003193662277298  0.0000000000000000
  0.9990519444332285  0.0016787482308597  0.5000000000000000
  0.0000887661751111  0.5004109336546397  0.0000000000000000
  0.0058997539931743  0.5042183281963561  0.5000000000000000
  0.4996076501049596  0.9997612908544068  0.0000000000000000
  0.5015786518780271  0.0045002133620741  0.5000000000000000
  0.4994071491171445  0.5009621556347784  0.0000000000000000
  0.2488116106206642  0.2493750351171030  0.0000000000000000
  0.2468210886159226  0.2440669240236827  0.5000000000000000
  0.2492144620619431  0.7502879152772430  0.0000000000000000
  0.2518029193760429  0.7562113627617607  0.5000000000000000
  0.7506186556684116  0.2497328201182299  0.0000000000000000
  0.7485377148472835  0.7508036913976658  0.0000000000000000
  0.2495852469821815  0.2510611724744374  0.2491658793066630
  0.2495852469821815  0.2510611724744374  0.7508341206933441
  0.2499150172141339  0.7512533229447547  0.2483216009093986
  0.2499150172141339  0.7512533229447547  0.7516783990906085
  0.7491623403008606  0.2519011350829534  0.2489782464419932
  0.7491623403008606  0.2519011350829534  0.7510217535580210
  0.7487282485942623  0.7498777563107952  0.2503336574044981
  0.7487282485942623  0.7498777563107952  0.7496663425955018
  0.9988932459520330  0.0005833127341391  0.2517317426222129
  0.9988932459520330  0.0005833127341391  0.7482682573777871
  0.0012050151257695  0.5013247011817610  0.2477560884114429
  0.0012050151257695  0.5013247011817610  0.7522439115885643
  0.4995998313115031  1.0001652395392548  0.2482047263864271
  0.4995998313115031  1.0001652395392548  0.7517952736135800
  0.4981839024775448  0.4989900928720040  0.2500045967123093
  0.4981839024775448  0.4989900928720040  0.7499954032876908
  0.7549431852688451  0.2581723590025177  0.5000000000000000
  0.5019525311435429  0.5064013755075586  0.5000000000000000
  0.7579058981927758  0.7575354030669313  0.5000000000000000
  0.1114731275205793  0.1410013317612519  0.2526511963262842
  0.1114731275205793  0.1410013317612519  0.7473488036737299
  0.1121649945505642  0.6402256528627890  0.2498709886016157
  0.1121649945505642  0.6402256528627890  0.7501290113983773
  0.6119509382256304  0.1387626163498319  0.2489754058778041
  0.6119509382256304  0.1387626163498319  0.7510245941221959
  0.6087476836879269  0.6367446333732806  0.2542769934576109
  0.6087476836879269  0.6367446333732806  0.7457230065423747
  0.3890536588260839  0.3600454773915909  0.2428479356602349
  0.3890536588260839  0.3600454773915909  0.7571520643397509
  0.3885633978813124  0.8621031884169469  0.2477813635087044
  0.3885633978813124  0.8621031884169469  0.7522186364912883
  0.8887609156683958  0.3629592946574445  0.2513259402000363
  0.8887609156683958  0.3629592946574445  0.7486740597999707
  0.8856393945073824  0.8608583037106605  0.2522996605816952
  0.8856393945073824  0.8608583037106605  0.7477003394183048
  0.3611832068126473  0.1118311626241816  0.2509377973008373
  0.3611832068126473  0.1118311626241816  0.7490622026991770
  0.3609260277063666  0.6114922880626447  0.2510509516703737
  0.3609260277063666  0.6114922880626447  0.7489490483296122
  0.8600568847870048  0.1139862232159807  0.2543789255626003
  0.8600568847870048  0.1139862232159807  0.7456210744373998
  0.8627106570221398  0.6135391671258955  0.2465904189285520
  0.8627106570221398  0.6135391671258955  0.7534095810714339
  0.1394666024409255  0.3901863983399993  0.2489255251414968
  0.1394666024409255  0.3901863983399993  0.7510744748585245
  0.1384009009067935  0.8894256955776352  0.2480253670882904
  0.1384009009067935  0.8894256955776352  0.7519746329117165
  0.6377682278021813  0.3902820471585433  0.2462832165286885
  0.6377682278021813  0.3902820471585433  0.7537167834713115
  0.6379362855330275  0.8884685311376136  0.2531337541075181
  0.6379362855330275  0.8884685311376136  0.7468662458924749
  0.3598506584802760  0.3899634460446564  0.0000000000000000
  0.3582260058302986  0.8913480495395498  0.0000000000000000
  0.3567699673796885  0.8993921798594676  0.5000000000000000
  0.8592922779977883  0.3908561132218673  0.0000000000000000
  0.8574898763078074  0.8906556480551704  0.0000000000000000
  0.8569806162571930  0.8880227529406248  0.5000000000000000
  0.1395360766563366  0.1083684049842843  0.0000000000000000
  0.1376811446977105  0.1208558718918357  0.5000000000000000
  0.1402351283262384  0.6097383450748350  0.0000000000000000
  0.1401785659429023  0.6221365420109941  0.5000000000000000
  0.6405554125783638  0.1099319070433291  0.0000000000000000
  0.6333283551238563  0.1146489387098845  0.5000000000000000
  0.6400343802981423  0.6097394196469594  0.0000000000000000
  0.1092615552102848  0.3592827820348733  0.0000000000000000
  0.1455964335229916  0.3845994477065421  0.5000000000000000
  0.1078573634208851  0.8595374191160159  0.0000000000000000
  0.1128653879887148  0.8647897079771887  0.5000000000000000
  0.6097541741685756  0.3604363016715418  0.0000000000000000
  0.6077723396538123  0.8590956076061549  0.0000000000000000
  0.6075649995427582  0.8540075245794041  0.5000000000000000
  0.3899592624223419  0.1404055039092902  0.0000000000000000
  0.3956029211028648  0.1550968706291134  0.5000000000000000
  0.3898673095991845  0.6410397623063051  0.0000000000000000
  0.8906357987931454  0.1412705262278935  0.0000000000000000
  0.8835828414178798  0.1325853183339015  0.5000000000000000
  0.8891170719856286  0.6410832303344243  0.0000000000000000
  0.9964375706821624  0.0014685374447167  0.1254317433243942
  0.0017300843944004  0.9985176206374067  0.6271715737537461
  0.0008147404208082  0.4999861303600793  0.1245463641408468
  0.0041268543351255  0.5039251830726258  0.6260173768990993
  0.5009309440102419  0.0005858843096999  0.1249677177556712
  0.4983595201641836  0.0008885855432957  0.6251450704307028
  0.4991538882995287  0.5043289510830854  0.1247112841586850
  0.4838140840915554  0.4812419015808883  0.6219166075993511
  0.0017300843944004  0.9985176206374067  0.3728284262462611
  0.9964375706821624  0.0014685374447167  0.8745682566756058
  0.0041268543351255  0.5039251830726258  0.3739826231009222
  0.0008147404208082  0.4999861303600793  0.8754536358591462
  0.4983595201641836  0.0008885855432957  0.3748549295692971
  0.5009309440102419  0.0005858843096999  0.8750322822443287
  0.4991538882995287  0.5043289510830854  0.8752887158413079
  0.2592445718785465  0.2603088604846730  0.3759760506972292
  0.2471901941655468  0.2475114564813992  0.8754892221155336
  0.2521681445971756  0.7545542945922363  0.3742786543328984
  0.2502753817142019  0.7494061407626195  0.8754041853462986
  0.7517489091346186  0.2493991833685299  0.8748832844635595
  0.7451957893086339  0.7503495002051189  0.8741680488083845
  0.2471901941655468  0.2475114564813992  0.1245107778844663
  0.2592445718785465  0.2603088604846730  0.6240239493027709
  0.2502753817142019  0.7494061407626195  0.1245958146537014
  0.2521681445971756  0.7545542945922363  0.6257213456671087
  0.7517489091346186  0.2493991833685299  0.1251167155364405
  0.7405292970493821  0.2625822668707598  0.6245226061224683
  0.7451957893086339  0.7503495002051189  0.1258319511916156
  0.7425609611544221  0.7380233802023951  0.6218729889885397
  0.7405292970493821  0.2625822668707598  0.3754773938775460
  0.8924659490185463  0.3776454381988854  0.5000000000000000
  0.3958854118377248  0.6459555478253828  0.5000000000000000
  0.4838140840915554  0.4812419015808883  0.3780833924006275
  0.8890552125325417  0.6385396760246042  0.5000000000000000
  0.7425609611544221  0.7380233802023951  0.3781270110114391
  0.6655914069295632  0.4818524036300280  0.5000000000000000
 
  0.00000000E+00  0.00000000E+00  0.00000000E+00
  0.00000000E+00  0.00000000E+00  0.00000000E+00
  0.00000000E+00  0.00000000E+00  0.00000000E+00
  0.00000000E+00  0.00000000E+00  0.00000000E+00
  0.00000000E+00  0.00000000E+00  0.00000000E+00
  0.00000000E+00  0.00000000E+00  0.00000000E+00
  0.00000000E+00  0.00000000E+00  0.00000000E+00
  0.00000000E+00  0.00000000E+00  0.00000000E+00
  0.00000000E+00  0.00000000E+00  0.00000000E+00
  0.00000000E+00  0.00000000E+00  0.00000000E+00
  0.00000000E+00  0.00000000E+00  0.00000000E+00
  0.00000000E+00  0.00000000E+00  0.00000000E+00
  0.00000000E+00  0.00000000E+00  0.00000000E+00
  0.00000000E+00  0.00000000E+00  0.00000000E+00
  0.00000000E+00  0.00000000E+00  0.00000000E+00
  0.00000000E+00  0.00000000E+00  0.00000000E+00
  0.00000000E+00  0.00000000E+00  0.00000000E+00
  0.00000000E+00  0.00000000E+00  0.00000000E+00
  0.00000000E+00  0.00000000E+00  0.00000000E+00
  0.00000000E+00  0.00000000E+00  0.00000000E+00
  0.00000000E+00  0.00000000E+00  0.00000000E+00
  0.00000000E+00  0.00000000E+00  0.00000000E+00
  0.00000000E+00  0.00000000E+00  0.00000000E+00
  0.00000000E+00  0.00000000E+00  0.00000000E+00
  0.00000000E+00  0.00000000E+00  0.00000000E+00
  0.00000000E+00  0.00000000E+00  0.00000000E+00
  0.00000000E+00  0.00000000E+00  0.00000000E+00
  0.00000000E+00  0.00000000E+00  0.00000000E+00
  0.00000000E+00  0.00000000E+00  0.00000000E+00
  0.00000000E+00  0.00000000E+00  0.00000000E+00
  0.00000000E+00  0.00000000E+00  0.00000000E+00
  0.00000000E+00  0.00000000E+00  0.00000000E+00
  0.00000000E+00  0.00000000E+00  0.00000000E+00
  0.00000000E+00  0.00000000E+00  0.00000000E+00
  0.00000000E+00  0.00000000E+00  0.00000000E+00
  0.00000000E+00  0.00000000E+00  0.00000000E+00
  0.00000000E+00  0.00000000E+00  0.00000000E+00
  0.00000000E+00  0.00000000E+00  0.00000000E+00
  0.00000000E+00  0.00000000E+00  0.00000000E+00
  0.00000000E+00  0.00000000E+00  0.00000000E+00
  0.00000000E+00  0.00000000E+00  0.00000000E+00
  0.00000000E+00  0.00000000E+00  0.00000000E+00
  0.00000000E+00  0.00000000E+00  0.00000000E+00
  0.00000000E+00  0.00000000E+00  0.00000000E+00
  0.00000000E+00  0.00000000E+00  0.00000000E+00
  0.00000000E+00  0.00000000E+00  0.00000000E+00
  0.00000000E+00  0.00000000E+00  0.00000000E+00
  0.00000000E+00  0.00000000E+00  0.00000000E+00
  0.00000000E+00  0.00000000E+00  0.00000000E+00
  0.00000000E+00  0.00000000E+00  0.00000000E+00
  0.00000000E+00  0.00000000E+00  0.00000000E+00
  0.00000000E+00  0.00000000E+00  0.00000000E+00
  0.00000000E+00  0.00000000E+00  0.00000000E+00
  0.00000000E+00  0.00000000E+00  0.00000000E+00
  0.00000000E+00  0.00000000E+00  0.00000000E+00
  0.00000000E+00  0.00000000E+00  0.00000000E+00
  0.00000000E+00  0.00000000E+00  0.00000000E+00
  0.00000000E+00  0.00000000E+00  0.00000000E+00
  0.00000000E+00  0.00000000E+00  0.00000000E+00
  0.00000000E+00  0.00000000E+00  0.00000000E+00
  0.00000000E+00  0.00000000E+00  0.00000000E+00
  0.00000000E+00  0.00000000E+00  0.00000000E+00
  0.00000000E+00  0.00000000E+00  0.00000000E+00
  0.00000000E+00  0.00000000E+00  0.00000000E+00
  0.00000000E+00  0.00000000E+00  0.00000000E+00
  0.00000000E+00  0.00000000E+00  0.00000000E+00
  0.00000000E+00  0.00000000E+00  0.00000000E+00
  0.00000000E+00  0.00000000E+00  0.00000000E+00
  0.00000000E+00  0.00000000E+00  0.00000000E+00
  0.00000000E+00  0.00000000E+00  0.00000000E+00
  0.00000000E+00  0.00000000E+00  0.00000000E+00
  0.00000000E+00  0.00000000E+00  0.00000000E+00
  0.00000000E+00  0.00000000E+00  0.00000000E+00
  0.00000000E+00  0.00000000E+00  0.00000000E+00
  0.00000000E+00  0.00000000E+00  0.00000000E+00
  0.00000000E+00  0.00000000E+00  0.00000000E+00
  0.00000000E+00  0.00000000E+00  0.00000000E+00
  0.00000000E+00  0.00000000E+00  0.00000000E+00
  0.00000000E+00  0.00000000E+00  0.00000000E+00
  0.00000000E+00  0.00000000E+00  0.00000000E+00
  0.00000000E+00  0.00000000E+00  0.00000000E+00
  0.00000000E+00  0.00000000E+00  0.00000000E+00
  0.00000000E+00  0.00000000E+00  0.00000000E+00
  0.00000000E+00  0.00000000E+00  0.00000000E+00
  0.00000000E+00  0.00000000E+00  0.00000000E+00
  0.00000000E+00  0.00000000E+00  0.00000000E+00
  0.00000000E+00  0.00000000E+00  0.00000000E+00
  0.00000000E+00  0.00000000E+00  0.00000000E+00
  0.00000000E+00  0.00000000E+00  0.00000000E+00
  0.00000000E+00  0.00000000E+00  0.00000000E+00
  0.00000000E+00  0.00000000E+00  0.00000000E+00
  0.00000000E+00  0.00000000E+00  0.00000000E+00
  0.00000000E+00  0.00000000E+00  0.00000000E+00
  0.00000000E+00  0.00000000E+00  0.00000000E+00
  0.00000000E+00  0.00000000E+00  0.00000000E+00
  0.00000000E+00  0.00000000E+00  0.00000000E+00
  0.00000000E+00  0.00000000E+00  0.00000000E+00
  0.00000000E+00  0.00000000E+00  0.00000000E+00
  0.00000000E+00  0.00000000E+00  0.00000000E+00
  0.00000000E+00  0.00000000E+00  0.00000000E+00
  0.00000000E+00  0.00000000E+00  0.00000000E+00
  0.00000000E+00  0.00000000E+00  0.00000000E+00
  0.00000000E+00  0.00000000E+00  0.00000000E+00
  0.00000000E+00  0.00000000E+00  0.00000000E+00
  0.00000000E+00  0.00000000E+00  0.00000000E+00
  0.00000000E+00  0.00000000E+00  0.00000000E+00
  0.00000000E+00  0.00000000E+00  0.00000000E+00
  0.00000000E+00  0.00000000E+00  0.00000000E+00
  0.00000000E+00  0.00000000E+00  0.00000000E+00
  0.00000000E+00  0.00000000E+00  0.00000000E+00
  0.00000000E+00  0.00000000E+00  0.00000000E+00
  0.00000000E+00  0.00000000E+00  0.00000000E+00
  0.00000000E+00  0.00000000E+00  0.00000000E+00
  0.00000000E+00  0.00000000E+00  0.00000000E+00
  0.00000000E+00  0.00000000E+00  0.00000000E+00
  0.00000000E+00  0.00000000E+00  0.00000000E+00
  0.00000000E+00  0.00000000E+00  0.00000000E+00
  0.00000000E+00  0.00000000E+00  0.00000000E+00
  0.00000000E+00  0.00000000E+00  0.00000000E+00
  0.00000000E+00  0.00000000E+00  0.00000000E+00
  0.00000000E+00  0.00000000E+00  0.00000000E+00
  0.00000000E+00  0.00000000E+00  0.00000000E+00
  0.00000000E+00  0.00000000E+00  0.00000000E+00
  0.00000000E+00  0.00000000E+00  0.00000000E+00
  0.00000000E+00  0.00000000E+00  0.00000000E+00
  0.00000000E+00  0.00000000E+00  0.00000000E+00
  0.00000000E+00  0.00000000E+00  0.00000000E+00
  0.00000000E+00  0.00000000E+00  0.00000000E+00
  0.00000000E+00  0.00000000E+00  0.00000000E+00
  0.00000000E+00  0.00000000E+00  0.00000000E+00
  0.00000000E+00  0.00000000E+00  0.00000000E+00
  0.00000000E+00  0.00000000E+00  0.00000000E+00
  0.00000000E+00  0.00000000E+00  0.00000000E+00
  0.00000000E+00  0.00000000E+00  0.00000000E+00
  0.00000000E+00  0.00000000E+00  0.00000000E+00
  0.00000000E+00  0.00000000E+00  0.00000000E+00
  0.00000000E+00  0.00000000E+00  0.00000000E+00
  0.00000000E+00  0.00000000E+00  0.00000000E+00
  0.00000000E+00  0.00000000E+00  0.00000000E+00
  0.00000000E+00  0.00000000E+00  0.00000000E+00
  0.00000000E+00  0.00000000E+00  0.00000000E+00
  0.00000000E+00  0.00000000E+00  0.00000000E+00
  0.00000000E+00  0.00000000E+00  0.00000000E+00
  0.00000000E+00  0.00000000E+00  0.00000000E+00
  0.00000000E+00  0.00000000E+00  0.00000000E+00
  0.00000000E+00  0.00000000E+00  0.00000000E+00
  0.00000000E+00  0.00000000E+00  0.00000000E+00
  0.00000000E+00  0.00000000E+00  0.00000000E+00
  0.00000000E+00  0.00000000E+00  0.00000000E+00
  0.00000000E+00  0.00000000E+00  0.00000000E+00
  0.00000000E+00  0.00000000E+00  0.00000000E+00
  0.00000000E+00  0.00000000E+00  0.00000000E+00
  0.00000000E+00  0.00000000E+00  0.00000000E+00
  0.00000000E+00  0.00000000E+00  0.00000000E+00
  0.00000000E+00  0.00000000E+00  0.00000000E+00
  0.00000000E+00  0.00000000E+00  0.00000000E+00
  0.00000000E+00  0.00000000E+00  0.00000000E+00
  0.00000000E+00  0.00000000E+00  0.00000000E+00
