SrTiFeO                                 
   1.00000000000000     
    11.1989999999999998    0.0000000000000000    0.0000000000000000
     0.0000000000000000   11.1989999999999998    0.0000000000000000
     0.0000000000000000    0.0000000000000000   15.9830000000000005
   Sr   Ti   O 
    32    32    95
Direct
 -0.0000000000000000  0.2497164167658526  0.1250000000000000
 -0.0000000000000000  0.2487781606566470  0.6250000000000000
 -0.0000000000000000  0.7502835832341472  0.1250000000000000
 -0.0000000000000000  0.7512218393433532  0.6250000000000000
  0.5000000000000000  0.2488073085235039  0.1250000000000000
  0.5000000000000000  0.2427461898362006  0.6250000000000000
  0.5000000000000000  0.7511926914764965  0.1250000000000000
  0.5000000000000000  0.7572538101637994  0.6250000000000000
  0.0001189267266536  0.2497396024178201  0.3750805116137068
 -0.0001189267266536  0.2497396024178201  0.8749194883862931
 -0.0001189267266536  0.7502603975821801  0.3750805116137068
  0.0001189267266536  0.7502603975821801  0.8749194883862931
  0.5005440363915123  0.2475675849743753  0.3743208660752936
  0.4994559636084874  0.2475675849743753  0.8756791339247062
  0.4994559636084874  0.7524324150256245  0.3743208660752936
  0.5005440363915123  0.7524324150256245  0.8756791339247062
  0.2497164167658526  0.0000000000000000  0.1250000000000000
  0.2487781606566470  0.0000000000000000  0.6250000000000000
  0.2488073085235039  0.5000000000000000  0.1250000000000000
  0.2427461898362006  0.5000000000000000  0.6250000000000000
  0.7502835832341472  0.0000000000000000  0.1250000000000000
  0.7512218393433532  0.0000000000000000  0.6250000000000000
  0.7511926914764965  0.5000000000000000  0.1250000000000000
  0.7572538101637994  0.5000000000000000  0.6250000000000000
  0.2497396024178201 -0.0001189267266536  0.3750805116137068
  0.2497396024178201  0.0001189267266536  0.8749194883862931
  0.2475675849743753  0.4994559636084874  0.3743208660752936
  0.2475675849743753  0.5005440363915123  0.8756791339247062
  0.7502603975821801  0.0001189267266536  0.3750805116137068
  0.7502603975821801 -0.0001189267266536  0.8749194883862931
  0.7524324150256245  0.5005440363915123  0.3743208660752936
  0.7524324150256245  0.4994559636084874  0.8756791339247062
 -0.0000000000000000  0.0000000000000000 -0.0003206262250713
 -0.0000000000000000  0.0000000000000000  0.4994040290007024
 -0.0000000000000000  0.5000000000000000  0.0001142822335743
 -0.0000000000000000  0.5000000000000000  0.4995331692321708
  0.5000000000000000  0.0000000000000000  0.0001142822335743
  0.5000000000000000  0.0000000000000000  0.4995331692321708
  0.5000000000000000  0.5000000000000000  0.0018243217429467
  0.2502292492649907  0.2504476498629152 -0.0000430867864282
  0.2501186902469628  0.2500358316993037  0.5004943514887018
  0.2504476498629152  0.7497707507350092 -0.0000430867864282
  0.2500358316993037  0.7498813097530374  0.5004943514887018
  0.7495523501370847  0.2502292492649907 -0.0000430867864282
  0.7499641683006967  0.2501186902469628  0.5004943514887018
  0.7497707507350092  0.7495523501370847 -0.0000430867864282
  0.2504476498629152  0.2502292492649907  0.2500430867864281
  0.2500358316993037  0.2501186902469628  0.7495056485112983
  0.2502292492649907  0.7495523501370847  0.2500430867864281
  0.2501186902469628  0.7499641683006967  0.7495056485112983
  0.7497707507350092  0.2504476498629152  0.2500430867864281
  0.7498813097530374  0.2500358316993037  0.7495056485112983
  0.7495523501370847  0.7497707507350092  0.2500430867864281
  0.7499641683006967  0.7498813097530374  0.7495056485112983
 -0.0000000000000000  0.0000000000000000  0.2503206262250714
 -0.0000000000000000  0.0000000000000000  0.7505959709992975
 -0.0000000000000000  0.5000000000000000  0.2498857177664257
 -0.0000000000000000  0.5000000000000000  0.7504668307678288
  0.5000000000000000  0.0000000000000000  0.2498857177664257
  0.5000000000000000  0.0000000000000000  0.7504668307678288
  0.5000000000000000  0.5000000000000000  0.2481756782570533
  0.5000000000000000  0.5000000000000000  0.7546212982121054
  0.5000000000000000  0.5000000000000000  0.4953787017878947
  0.7498813097530374  0.7499641683006967  0.5004943514887018
  0.1098808989602451  0.1407375333791488  0.2509888801569963
  0.1097016611693083  0.1404184817391616  0.7513283647707354
  0.1093845037016466  0.6406948474242495  0.2505172214445284
  0.1101108598153609  0.6399141912399724  0.7499566886768820
  0.6092632715942918  0.1409072858112836  0.2499180286395957
  0.6097095756443404  0.1403567583313144  0.7504706628846721
  0.6081652057385954  0.6409686238023085  0.2497437308364071
  0.3918347942614044  0.3590313761976916  0.2497437308364071
  0.3919919437043235  0.3614664328427118  0.7422242565985780
  0.3907367284057082  0.8590927141887164  0.2499180286395957
  0.3902904243556595  0.8596432416686859  0.7504706628846721
  0.8906154962983535  0.3593051525757503  0.2505172214445284
  0.8898891401846392  0.3600858087600279  0.7499566886768820
  0.8901191010397551  0.8592624666208507  0.2509888801569963
  0.8902983388306916  0.8595815182608386  0.7513283647707354
  0.3593051525757503  0.1093845037016466  0.2505172214445284
  0.3600858087600279  0.1101108598153609  0.7499566886768820
  0.3590313761976916  0.6081652057385954  0.2497437308364071
  0.3614664328427118  0.6080080562956764  0.7422242565985780
  0.8592624666208507  0.1098808989602451  0.2509888801569963
  0.8595815182608386  0.1097016611693083  0.7513283647707354
  0.8590927141887164  0.6092632715942918  0.2499180286395957
  0.8596432416686859  0.6097095756443404  0.7504706628846721
  0.1409072858112836  0.3907367284057082  0.2499180286395957
  0.1403567583313144  0.3902904243556595  0.7504706628846721
  0.1407375333791488  0.8901191010397551  0.2509888801569963
  0.1404184817391616  0.8902983388306916  0.7513283647707354
  0.6409686238023085  0.3918347942614044  0.2497437308364071
  0.6406948474242495  0.8906154962983535  0.2505172214445284
  0.6399141912399724  0.8898891401846392  0.7499566886768820
  0.3590313761976916  0.3918347942614044  0.0002562691635929
  0.3593051525757503  0.8906154962983535 -0.0005172214445285
  0.3600858087600279  0.8898891401846392  0.5000433113231180
  0.8590927141887164  0.3907367284057082  0.0000819713604043
  0.8596432416686859  0.3902904243556595  0.4995293371153277
  0.8592624666208507  0.8901191010397551 -0.0009888801569962
  0.8595815182608386  0.8902983388306916  0.4986716352292645
  0.1407375333791488  0.1098808989602451 -0.0009888801569962
  0.1404184817391616  0.1097016611693083  0.4986716352292645
  0.1409072858112836  0.6092632715942918  0.0000819713604043
  0.1403567583313144  0.6097095756443404  0.4995293371153277
  0.6406948474242495  0.1093845037016466 -0.0005172214445285
  0.6399141912399724  0.1101108598153609  0.5000433113231180
  0.6409686238023085  0.6081652057385954  0.0002562691635929
  0.1093845037016466  0.3593051525757503 -0.0005172214445285
  0.1101108598153609  0.3600858087600279  0.5000433113231180
  0.1098808989602451  0.8592624666208507 -0.0009888801569962
  0.1097016611693083  0.8595815182608386  0.4986716352292645
  0.6081652057385954  0.3590313761976916  0.0002562691635929
  0.6092632715942918  0.8590927141887164  0.0000819713604043
  0.6097095756443404  0.8596432416686859  0.4995293371153277
  0.3907367284057082  0.1409072858112836  0.0000819713604043
  0.3902904243556595  0.1403567583313144  0.4995293371153277
  0.3918347942614044  0.6409686238023085  0.0002562691635929
  0.3919919437043235  0.6385335671572882  0.5077757434014220
  0.8901191010397551  0.1407375333791488 -0.0009888801569962
  0.8902983388306916  0.1404184817391616  0.4986716352292645
  0.8906154962983535  0.6406948474242495 -0.0005172214445285
 -0.0000000000000000  0.0000000000000000  0.1250000000000000
 -0.0000000000000000  0.0000000000000000  0.6250000000000000
 -0.0000000000000000  0.5000000000000000  0.1250000000000000
 -0.0000000000000000  0.5000000000000000  0.6250000000000000
  0.5000000000000000  0.0000000000000000  0.1250000000000000
  0.5000000000000000  0.0000000000000000  0.6250000000000000
  0.5000000000000000  0.5000000000000000  0.1250000000000000
 -0.0000000000000000  0.0000000000000000  0.3747786982827238
 -0.0000000000000000  0.0000000000000000  0.8752213017172763
 -0.0000000000000000  0.5000000000000000  0.3748479845459853
 -0.0000000000000000  0.5000000000000000  0.8751520154540148
  0.5000000000000000  0.0000000000000000  0.3748479845459853
  0.5000000000000000  0.0000000000000000  0.8751520154540148
  0.5000000000000000  0.5000000000000000  0.8746923061448917
  0.2528016074517076  0.2539266624430429  0.3757916790645220
  0.2539266624430429  0.2528016074517076  0.8742083209354780
  0.2539266624430429  0.7471983925482926  0.3757916790645220
  0.2528016074517076  0.7460733375569572  0.8742083209354780
  0.7460733375569572  0.2528016074517076  0.3757916790645220
  0.7471983925482926  0.2539266624430429  0.8742083209354780
  0.7471983925482926  0.7460733375569572  0.3757916790645220
  0.7460733375569572  0.7471983925482926  0.8742083209354780
  0.2498957130712412  0.2498957130712412  0.1250000000000000
  0.2462747400017352  0.2462747400017352  0.6250000000000000
  0.2498957130712412  0.7501042869287591  0.1250000000000000
  0.2462747400017352  0.7537252599982646  0.6250000000000000
  0.7501042869287591  0.2498957130712412  0.1250000000000000
  0.7537252599982646  0.2462747400017352  0.6250000000000000
  0.7501042869287591  0.7501042869287591  0.1250000000000000
  0.6385335671572882  0.3919919437043235  0.7422242565985780
  0.6080080562956764  0.6385335671572882  0.7422242565985780
  0.5000000000000000  0.5000000000000000  0.3753076938551083
  0.6080080562956764  0.3614664328427118  0.5077757434014220
  0.3614664328427118  0.3919919437043235  0.5077757434014220
  0.7537252599982646  0.7537252599982646  0.6250000000000000
  0.8898891401846392  0.6399141912399724  0.5000433113231180
  0.6385335671572882  0.6080080562956764  0.5077757434014220
 
  0.00000000E+00  0.00000000E+00  0.00000000E+00
  0.00000000E+00  0.00000000E+00  0.00000000E+00
  0.00000000E+00  0.00000000E+00  0.00000000E+00
  0.00000000E+00  0.00000000E+00  0.00000000E+00
  0.00000000E+00  0.00000000E+00  0.00000000E+00
  0.00000000E+00  0.00000000E+00  0.00000000E+00
  0.00000000E+00  0.00000000E+00  0.00000000E+00
  0.00000000E+00  0.00000000E+00  0.00000000E+00
  0.00000000E+00  0.00000000E+00  0.00000000E+00
  0.00000000E+00  0.00000000E+00  0.00000000E+00
  0.00000000E+00  0.00000000E+00  0.00000000E+00
  0.00000000E+00  0.00000000E+00  0.00000000E+00
  0.00000000E+00  0.00000000E+00  0.00000000E+00
  0.00000000E+00  0.00000000E+00  0.00000000E+00
  0.00000000E+00  0.00000000E+00  0.00000000E+00
  0.00000000E+00  0.00000000E+00  0.00000000E+00
  0.00000000E+00  0.00000000E+00  0.00000000E+00
  0.00000000E+00  0.00000000E+00  0.00000000E+00
  0.00000000E+00  0.00000000E+00  0.00000000E+00
  0.00000000E+00  0.00000000E+00  0.00000000E+00
  0.00000000E+00  0.00000000E+00  0.00000000E+00
  0.00000000E+00  0.00000000E+00  0.00000000E+00
  0.00000000E+00  0.00000000E+00  0.00000000E+00
  0.00000000E+00  0.00000000E+00  0.00000000E+00
  0.00000000E+00  0.00000000E+00  0.00000000E+00
  0.00000000E+00  0.00000000E+00  0.00000000E+00
  0.00000000E+00  0.00000000E+00  0.00000000E+00
  0.00000000E+00  0.00000000E+00  0.00000000E+00
  0.00000000E+00  0.00000000E+00  0.00000000E+00
  0.00000000E+00  0.00000000E+00  0.00000000E+00
  0.00000000E+00  0.00000000E+00  0.00000000E+00
  0.00000000E+00  0.00000000E+00  0.00000000E+00
  0.00000000E+00  0.00000000E+00  0.00000000E+00
  0.00000000E+00  0.00000000E+00  0.00000000E+00
  0.00000000E+00  0.00000000E+00  0.00000000E+00
  0.00000000E+00  0.00000000E+00  0.00000000E+00
  0.00000000E+00  0.00000000E+00  0.00000000E+00
  0.00000000E+00  0.00000000E+00  0.00000000E+00
  0.00000000E+00  0.00000000E+00  0.00000000E+00
  0.00000000E+00  0.00000000E+00  0.00000000E+00
  0.00000000E+00  0.00000000E+00  0.00000000E+00
  0.00000000E+00  0.00000000E+00  0.00000000E+00
  0.00000000E+00  0.00000000E+00  0.00000000E+00
  0.00000000E+00  0.00000000E+00  0.00000000E+00
  0.00000000E+00  0.00000000E+00  0.00000000E+00
  0.00000000E+00  0.00000000E+00  0.00000000E+00
  0.00000000E+00  0.00000000E+00  0.00000000E+00
  0.00000000E+00  0.00000000E+00  0.00000000E+00
  0.00000000E+00  0.00000000E+00  0.00000000E+00
  0.00000000E+00  0.00000000E+00  0.00000000E+00
  0.00000000E+00  0.00000000E+00  0.00000000E+00
  0.00000000E+00  0.00000000E+00  0.00000000E+00
  0.00000000E+00  0.00000000E+00  0.00000000E+00
  0.00000000E+00  0.00000000E+00  0.00000000E+00
  0.00000000E+00  0.00000000E+00  0.00000000E+00
  0.00000000E+00  0.00000000E+00  0.00000000E+00
  0.00000000E+00  0.00000000E+00  0.00000000E+00
  0.00000000E+00  0.00000000E+00  0.00000000E+00
  0.00000000E+00  0.00000000E+00  0.00000000E+00
  0.00000000E+00  0.00000000E+00  0.00000000E+00
  0.00000000E+00  0.00000000E+00  0.00000000E+00
  0.00000000E+00  0.00000000E+00  0.00000000E+00
  0.00000000E+00  0.00000000E+00  0.00000000E+00
  0.00000000E+00  0.00000000E+00  0.00000000E+00
  0.00000000E+00  0.00000000E+00  0.00000000E+00
  0.00000000E+00  0.00000000E+00  0.00000000E+00
  0.00000000E+00  0.00000000E+00  0.00000000E+00
  0.00000000E+00  0.00000000E+00  0.00000000E+00
  0.00000000E+00  0.00000000E+00  0.00000000E+00
  0.00000000E+00  0.00000000E+00  0.00000000E+00
  0.00000000E+00  0.00000000E+00  0.00000000E+00
  0.00000000E+00  0.00000000E+00  0.00000000E+00
  0.00000000E+00  0.00000000E+00  0.00000000E+00
  0.00000000E+00  0.00000000E+00  0.00000000E+00
  0.00000000E+00  0.00000000E+00  0.00000000E+00
  0.00000000E+00  0.00000000E+00  0.00000000E+00
  0.00000000E+00  0.00000000E+00  0.00000000E+00
  0.00000000E+00  0.00000000E+00  0.00000000E+00
  0.00000000E+00  0.00000000E+00  0.00000000E+00
  0.00000000E+00  0.00000000E+00  0.00000000E+00
  0.00000000E+00  0.00000000E+00  0.00000000E+00
  0.00000000E+00  0.00000000E+00  0.00000000E+00
  0.00000000E+00  0.00000000E+00  0.00000000E+00
  0.00000000E+00  0.00000000E+00  0.00000000E+00
  0.00000000E+00  0.00000000E+00  0.00000000E+00
  0.00000000E+00  0.00000000E+00  0.00000000E+00
  0.00000000E+00  0.00000000E+00  0.00000000E+00
  0.00000000E+00  0.00000000E+00  0.00000000E+00
  0.00000000E+00  0.00000000E+00  0.00000000E+00
  0.00000000E+00  0.00000000E+00  0.00000000E+00
  0.00000000E+00  0.00000000E+00  0.00000000E+00
  0.00000000E+00  0.00000000E+00  0.00000000E+00
  0.00000000E+00  0.00000000E+00  0.00000000E+00
  0.00000000E+00  0.00000000E+00  0.00000000E+00
  0.00000000E+00  0.00000000E+00  0.00000000E+00
  0.00000000E+00  0.00000000E+00  0.00000000E+00
  0.00000000E+00  0.00000000E+00  0.00000000E+00
  0.00000000E+00  0.00000000E+00  0.00000000E+00
  0.00000000E+00  0.00000000E+00  0.00000000E+00
  0.00000000E+00  0.00000000E+00  0.00000000E+00
  0.00000000E+00  0.00000000E+00  0.00000000E+00
  0.00000000E+00  0.00000000E+00  0.00000000E+00
  0.00000000E+00  0.00000000E+00  0.00000000E+00
  0.00000000E+00  0.00000000E+00  0.00000000E+00
  0.00000000E+00  0.00000000E+00  0.00000000E+00
  0.00000000E+00  0.00000000E+00  0.00000000E+00
  0.00000000E+00  0.00000000E+00  0.00000000E+00
  0.00000000E+00  0.00000000E+00  0.00000000E+00
  0.00000000E+00  0.00000000E+00  0.00000000E+00
  0.00000000E+00  0.00000000E+00  0.00000000E+00
  0.00000000E+00  0.00000000E+00  0.00000000E+00
  0.00000000E+00  0.00000000E+00  0.00000000E+00
  0.00000000E+00  0.00000000E+00  0.00000000E+00
  0.00000000E+00  0.00000000E+00  0.00000000E+00
  0.00000000E+00  0.00000000E+00  0.00000000E+00
  0.00000000E+00  0.00000000E+00  0.00000000E+00
  0.00000000E+00  0.00000000E+00  0.00000000E+00
  0.00000000E+00  0.00000000E+00  0.00000000E+00
  0.00000000E+00  0.00000000E+00  0.00000000E+00
  0.00000000E+00  0.00000000E+00  0.00000000E+00
  0.00000000E+00  0.00000000E+00  0.00000000E+00
  0.00000000E+00  0.00000000E+00  0.00000000E+00
  0.00000000E+00  0.00000000E+00  0.00000000E+00
  0.00000000E+00  0.00000000E+00  0.00000000E+00
  0.00000000E+00  0.00000000E+00  0.00000000E+00
  0.00000000E+00  0.00000000E+00  0.00000000E+00
  0.00000000E+00  0.00000000E+00  0.00000000E+00
  0.00000000E+00  0.00000000E+00  0.00000000E+00
  0.00000000E+00  0.00000000E+00  0.00000000E+00
  0.00000000E+00  0.00000000E+00  0.00000000E+00
  0.00000000E+00  0.00000000E+00  0.00000000E+00
  0.00000000E+00  0.00000000E+00  0.00000000E+00
  0.00000000E+00  0.00000000E+00  0.00000000E+00
  0.00000000E+00  0.00000000E+00  0.00000000E+00
  0.00000000E+00  0.00000000E+00  0.00000000E+00
  0.00000000E+00  0.00000000E+00  0.00000000E+00
  0.00000000E+00  0.00000000E+00  0.00000000E+00
  0.00000000E+00  0.00000000E+00  0.00000000E+00
  0.00000000E+00  0.00000000E+00  0.00000000E+00
  0.00000000E+00  0.00000000E+00  0.00000000E+00
  0.00000000E+00  0.00000000E+00  0.00000000E+00
  0.00000000E+00  0.00000000E+00  0.00000000E+00
  0.00000000E+00  0.00000000E+00  0.00000000E+00
  0.00000000E+00  0.00000000E+00  0.00000000E+00
  0.00000000E+00  0.00000000E+00  0.00000000E+00
  0.00000000E+00  0.00000000E+00  0.00000000E+00
  0.00000000E+00  0.00000000E+00  0.00000000E+00
  0.00000000E+00  0.00000000E+00  0.00000000E+00
  0.00000000E+00  0.00000000E+00  0.00000000E+00
  0.00000000E+00  0.00000000E+00  0.00000000E+00
  0.00000000E+00  0.00000000E+00  0.00000000E+00
  0.00000000E+00  0.00000000E+00  0.00000000E+00
  0.00000000E+00  0.00000000E+00  0.00000000E+00
  0.00000000E+00  0.00000000E+00  0.00000000E+00
  0.00000000E+00  0.00000000E+00  0.00000000E+00
  0.00000000E+00  0.00000000E+00  0.00000000E+00
  0.00000000E+00  0.00000000E+00  0.00000000E+00
  0.00000000E+00  0.00000000E+00  0.00000000E+00
  0.00000000E+00  0.00000000E+00  0.00000000E+00
