SrTiFeO                                 
   1.00000000000000     
    11.1989999999999998    0.0000000000000000    0.0000000000000000
     0.0000000000000000   11.1989999999999998    0.0000000000000000
     0.0000000000000000    0.0000000000000000   15.9830000000000005
   Sr   Ti   Fe   O 
    32    31     1    94
Direct
  0.0007194388327522  0.2502073437661543  0.1251329693700489
  0.0039859360138710  0.2518252534438707  0.6260172530974505
 -0.0001936867345562  0.7497056073700744  0.1249917419660508
 -0.0007659945582854  0.7498285669474745  0.6249504094808530
  0.5013958888023776  0.2500556321273540  0.1233468297571348
  0.4984114751969892  0.2434774607120490  0.6314710290568405
  0.5005477413700534  0.7482093912447709  0.1255013019420727
  0.4988582308174888  0.7484359176868328  0.6221484973447594
  0.0039859360138710  0.2518252534438707  0.3739827469025497
  0.0007194388327522  0.2502073437661543  0.8748670306299512
 -0.0007659945582854  0.7498285669474745  0.3750495905191472
 -0.0001936867345562  0.7497056073700744  0.8750082580339493
  0.4984114751969892  0.2434774607120490  0.3685289709431594
  0.5013958888023776  0.2500556321273540  0.8766531702428653
  0.4988582308174888  0.7484359176868328  0.3778515026552404
  0.5005477413700534  0.7482093912447709  0.8744986980579272
  0.2504976256934269  0.0005676233817659  0.1248627309251659
  0.2498485803019668 -0.0028256493270886  0.6250400399068989
  0.2516992777285515  0.5000823946685153  0.1252197591272471
  0.2464262767450482  0.5043082466909472  0.6268440908592736
  0.7505230506977412  0.0006573487945176  0.1254477872503091
  0.7487756944815284 -0.0045388829936517  0.6250589747629840
  0.7491773254049242  0.5003155516228380  0.1237689918244477
  0.7502999584628429  0.5028588308378249  0.6272849985249963
  0.2498485803019668 -0.0028256493270886  0.3749599600931011
  0.2504976256934269  0.0005676233817659  0.8751372690748341
  0.2464262767450482  0.5043082466909472  0.3731559091407269
  0.2516992777285515  0.5000823946685153  0.8747802408727530
  0.7487756944815284 -0.0045388829936517  0.3749410252370159
  0.7505230506977412  0.0006573487945176  0.8745522127496911
  0.7502999584628429  0.5028588308378249  0.3727150014750036
  0.7491773254049242  0.5003155516228380  0.8762310081755523
  0.0001030209769588  0.0005609937431017  0.0000000000000000
  0.0025851650626711 -0.0053482355050768  0.5000000000000000
  0.0003459909242934  0.4999771449728301  0.0000000000000000
 -0.0010781026986524  0.5005924456900815  0.5000000000000000
  0.4997681303203399 -0.0006505588125743  0.0000000000000000
  0.4999899868200454  0.0014411728971814  0.5000000000000000
  0.5000800861069499  0.5009121022162355  0.0000000000000000
  0.2497057143325038  0.2494593730042822  0.0000000000000000
  0.2492321549995518  0.2461636176500367  0.5000000000000000
  0.2501720000974655  0.7496870334364524  0.0000000000000000
  0.2506824433224745  0.7483569772330338  0.5000000000000000
  0.7509971365423040  0.2495453252810035  0.0000000000000000
  0.7496545503244820  0.7499935134954794  0.0000000000000000
  0.2507782184325568  0.2510357227381041  0.2496210229479240
  0.2507782184325568  0.2510357227381041  0.7503789770520758
  0.2499048226802589  0.7503765616961182  0.2500212317924185
  0.2499048226802589  0.7503765616961182  0.7499787682075817
  0.7496834876377744  0.2508393053585233  0.2499623108120930
  0.7496834876377744  0.2508393053585233  0.7500376891879069
  0.7495134231628026  0.7498348120588250  0.2500294203377870
  0.7495134231628026  0.7498348120588250  0.7499705796622133
 -0.0001976097737649  0.0001402464065220  0.2506507720094169
 -0.0001976097737649  0.0001402464065220  0.7493492279905831
 -0.0007014940795720  0.5002504151963525  0.2496329402924463
 -0.0007014940795720  0.5002504151963525  0.7503670597075539
  0.5001148542003658 -0.0014835624378322  0.2496800344316218
  0.5001148542003658 -0.0014835624378322  0.7503199655683787
  0.4998371654214511  0.4980561831856606  0.2523217215275285
  0.4998371654214511  0.4980561831856606  0.7476782784724718
  0.7603193827332428  0.2439139692913729  0.5000000000000000
  0.7498115945219413  0.7475140683739500  0.5000000000000000
  0.5002133371913995  0.4966219620675199  0.5000000000000000
  0.1108969388880590  0.1414854818527444  0.2537936872560834
  0.1108969388880590  0.1414854818527444  0.7462063127439166
  0.1098280443012981  0.6400720235765918  0.2503454408532745
  0.1098280443012981  0.6400720235765918  0.7496545591467255
  0.6102447416948350  0.1397991935608070  0.2485747735927401
  0.6102447416948350  0.1397991935608070  0.7514252264072598
  0.6091248245632452  0.6394104775103828  0.2547775048712105
  0.6091248245632452  0.6394104775103828  0.7452224951287900
  0.3911162665474546  0.3582735758204348  0.2434205942496005
  0.3911162665474546  0.3582735758204348  0.7565794057503993
  0.3910669707041429  0.8586688297394793  0.2500998449413986
  0.3910669707041429  0.8586688297394793  0.7499001550586013
  0.8908603838416620  0.3587171868081706  0.2509743892098888
  0.8908603838416620  0.3587171868081706  0.7490256107901113
  0.8905524173645767  0.8601375333450153  0.2481426576410554
  0.8905524173645767  0.8601375333450153  0.7518573423589450
  0.3600040521322648  0.1096839348939622  0.2525346887446179
  0.3600040521322648  0.1096839348939622  0.7474653112553821
  0.3597111426545008  0.6087657738520966  0.2532383714035031
  0.3597111426545008  0.6087657738520966  0.7467616285964968
  0.8591003065899179  0.1109256333528933  0.2543724845553164
  0.8591003065899179  0.1109256333528933  0.7456275154446836
  0.8594474529541315  0.6096668489089172  0.2483792089869894
  0.8594474529541315  0.6096668489089172  0.7516207910130104
  0.1406923786722629  0.3910434591431339  0.2496173656111353
  0.1406923786722629  0.3910434591431339  0.7503826343888648
  0.1407956040812643  0.8913642090148602  0.2482071234885631
  0.1407956040812643  0.8913642090148602  0.7517928765114371
  0.6413086095255601  0.3904031689949056  0.2458615463715206
  0.6413086095255601  0.3904031689949056  0.7541384536284793
  0.6407984359584303  0.8903099976777098  0.2483762156484484
  0.6407984359584303  0.8903099976777098  0.7516237843515516
  0.3597661055686840  0.3899272606408671  0.0000000000000000
  0.3584748562653496  0.8908830164707524  0.0000000000000000
  0.3593305196756902  0.8905034779908173  0.5000000000000000
  0.8594531404044988  0.3906857749361735  0.0000000000000000
  0.8593141611875020  0.8908766516674174  0.0000000000000000
  0.8578054420230725  0.8954051261518283  0.5000000000000000
  0.1409794106042673  0.1083162917295950  0.0000000000000000
  0.1379714507825638  0.1067152665658041  0.5000000000000000
  0.1407948811992337  0.6091054052406388  0.0000000000000000
  0.1388982750771414  0.6095285561595932  0.5000000000000000
  0.6404903744622819  0.1094853946391067  0.0000000000000000
  0.6403893302609122  0.1159176480623919  0.5000000000000000
  0.6411211899752746  0.6096001765371003  0.0000000000000000
  0.1094303512588554  0.3589127158075153  0.0000000000000000
  0.1051222873226585  0.3639060721753319  0.5000000000000000
  0.1087878601800253  0.8593883591890794  0.0000000000000000
  0.1070008708084817  0.8578491940125480  0.5000000000000000
  0.6104297494173702  0.3597827412574441  0.0000000000000000
  0.6088135389247645  0.8593253987816879  0.0000000000000000
  0.6101000816887698  0.8598529292073023  0.5000000000000000
  0.3905591118015894  0.1406113413384414  0.0000000000000000
  0.3966652574291384  0.1404731464557343  0.5000000000000000
  0.3904038931640295  0.6411937830312078  0.0000000000000000
  0.8912993000491497  0.1411230658146099  0.0000000000000000
  0.8940333820129761  0.1456565988547386  0.5000000000000000
  0.8909247409871859  0.6409555082610068  0.0000000000000000
 -0.0008755233173211  0.0039795138519880  0.1255177434808508
  0.0001477916131875 -0.0019776619601248  0.6252236076188216
 -0.0000120757422900  0.4994897285692429  0.1248274370126313
 -0.0022555992123162  0.5005378958749944  0.6257226190285318
  0.4984222930048615  0.0002534583551523  0.1249058529239120
  0.5025761479005467 -0.0016709009326581  0.6256189711523518
  0.5004043100825973  0.5040755361700483  0.1248723133791282
  0.4981148511630029  0.4813144709642311  0.6236540297278199
  0.0001477916131875 -0.0019776619601248  0.3747763923811781
 -0.0008755233173211  0.0039795138519880  0.8744822565191490
 -0.0022555992123162  0.5005378958749944  0.3742773809714680
 -0.0000120757422900  0.4994897285692429  0.8751725629873687
  0.5025761479005467 -0.0016709009326581  0.3743810288476481
  0.4984222930048615  0.0002534583551523  0.8750941470760879
  0.5004043100825973  0.5040755361700483  0.8751276866208717
  0.2590874330656827  0.2630530083692274  0.3755206884974532
  0.2476886901123347  0.2471502179171860  0.8751487612273553
  0.2474324477936615  0.7531051742619207  0.3741971590954533
  0.2506560166942636  0.7484487930889290  0.8748681411216995
  0.7523592399113916  0.2480360462356372  0.8748827467903515
  0.7480079009032140  0.7484603366568874  0.8750751515658868
  0.2476886901123347  0.2471502179171860  0.1248512387726450
  0.2590874330656827  0.2630530083692274  0.6244793115025469
  0.2506560166942636  0.7484487930889290  0.1251318588783004
  0.2474324477936615  0.7531051742619207  0.6258028409045467
  0.7523592399113916  0.2480360462356372  0.1251172532096486
  0.7392660014204476  0.2594119228540341  0.6226295612495859
  0.7480079009032140  0.7484603366568874  0.1249248484341134
  0.7528911103205264  0.7529863508769428  0.6261007583044200
  0.7392660014204476  0.2594119228540341  0.3773704387504142
  0.8482552734645511  0.3962221056314542  0.5000000000000000
  0.3813594291966951  0.6392061620431312  0.5000000000000000
  0.4981148511630029  0.4813144709642311  0.3763459702721801
  0.8944648279115633  0.6455956885965092  0.5000000000000000
  0.7528911103205264  0.7529863508769428  0.3738992416955799
  0.6497797290657719  0.6090511569507301  0.5000000000000000
 
  0.00000000E+00  0.00000000E+00  0.00000000E+00
  0.00000000E+00  0.00000000E+00  0.00000000E+00
  0.00000000E+00  0.00000000E+00  0.00000000E+00
  0.00000000E+00  0.00000000E+00  0.00000000E+00
  0.00000000E+00  0.00000000E+00  0.00000000E+00
  0.00000000E+00  0.00000000E+00  0.00000000E+00
  0.00000000E+00  0.00000000E+00  0.00000000E+00
  0.00000000E+00  0.00000000E+00  0.00000000E+00
  0.00000000E+00  0.00000000E+00  0.00000000E+00
  0.00000000E+00  0.00000000E+00  0.00000000E+00
  0.00000000E+00  0.00000000E+00  0.00000000E+00
  0.00000000E+00  0.00000000E+00  0.00000000E+00
  0.00000000E+00  0.00000000E+00  0.00000000E+00
  0.00000000E+00  0.00000000E+00  0.00000000E+00
  0.00000000E+00  0.00000000E+00  0.00000000E+00
  0.00000000E+00  0.00000000E+00  0.00000000E+00
  0.00000000E+00  0.00000000E+00  0.00000000E+00
  0.00000000E+00  0.00000000E+00  0.00000000E+00
  0.00000000E+00  0.00000000E+00  0.00000000E+00
  0.00000000E+00  0.00000000E+00  0.00000000E+00
  0.00000000E+00  0.00000000E+00  0.00000000E+00
  0.00000000E+00  0.00000000E+00  0.00000000E+00
  0.00000000E+00  0.00000000E+00  0.00000000E+00
  0.00000000E+00  0.00000000E+00  0.00000000E+00
  0.00000000E+00  0.00000000E+00  0.00000000E+00
  0.00000000E+00  0.00000000E+00  0.00000000E+00
  0.00000000E+00  0.00000000E+00  0.00000000E+00
  0.00000000E+00  0.00000000E+00  0.00000000E+00
  0.00000000E+00  0.00000000E+00  0.00000000E+00
  0.00000000E+00  0.00000000E+00  0.00000000E+00
  0.00000000E+00  0.00000000E+00  0.00000000E+00
  0.00000000E+00  0.00000000E+00  0.00000000E+00
  0.00000000E+00  0.00000000E+00  0.00000000E+00
  0.00000000E+00  0.00000000E+00  0.00000000E+00
  0.00000000E+00  0.00000000E+00  0.00000000E+00
  0.00000000E+00  0.00000000E+00  0.00000000E+00
  0.00000000E+00  0.00000000E+00  0.00000000E+00
  0.00000000E+00  0.00000000E+00  0.00000000E+00
  0.00000000E+00  0.00000000E+00  0.00000000E+00
  0.00000000E+00  0.00000000E+00  0.00000000E+00
  0.00000000E+00  0.00000000E+00  0.00000000E+00
  0.00000000E+00  0.00000000E+00  0.00000000E+00
  0.00000000E+00  0.00000000E+00  0.00000000E+00
  0.00000000E+00  0.00000000E+00  0.00000000E+00
  0.00000000E+00  0.00000000E+00  0.00000000E+00
  0.00000000E+00  0.00000000E+00  0.00000000E+00
  0.00000000E+00  0.00000000E+00  0.00000000E+00
  0.00000000E+00  0.00000000E+00  0.00000000E+00
  0.00000000E+00  0.00000000E+00  0.00000000E+00
  0.00000000E+00  0.00000000E+00  0.00000000E+00
  0.00000000E+00  0.00000000E+00  0.00000000E+00
  0.00000000E+00  0.00000000E+00  0.00000000E+00
  0.00000000E+00  0.00000000E+00  0.00000000E+00
  0.00000000E+00  0.00000000E+00  0.00000000E+00
  0.00000000E+00  0.00000000E+00  0.00000000E+00
  0.00000000E+00  0.00000000E+00  0.00000000E+00
  0.00000000E+00  0.00000000E+00  0.00000000E+00
  0.00000000E+00  0.00000000E+00  0.00000000E+00
  0.00000000E+00  0.00000000E+00  0.00000000E+00
  0.00000000E+00  0.00000000E+00  0.00000000E+00
  0.00000000E+00  0.00000000E+00  0.00000000E+00
  0.00000000E+00  0.00000000E+00  0.00000000E+00
  0.00000000E+00  0.00000000E+00  0.00000000E+00
  0.00000000E+00  0.00000000E+00  0.00000000E+00
  0.00000000E+00  0.00000000E+00  0.00000000E+00
  0.00000000E+00  0.00000000E+00  0.00000000E+00
  0.00000000E+00  0.00000000E+00  0.00000000E+00
  0.00000000E+00  0.00000000E+00  0.00000000E+00
  0.00000000E+00  0.00000000E+00  0.00000000E+00
  0.00000000E+00  0.00000000E+00  0.00000000E+00
  0.00000000E+00  0.00000000E+00  0.00000000E+00
  0.00000000E+00  0.00000000E+00  0.00000000E+00
  0.00000000E+00  0.00000000E+00  0.00000000E+00
  0.00000000E+00  0.00000000E+00  0.00000000E+00
  0.00000000E+00  0.00000000E+00  0.00000000E+00
  0.00000000E+00  0.00000000E+00  0.00000000E+00
  0.00000000E+00  0.00000000E+00  0.00000000E+00
  0.00000000E+00  0.00000000E+00  0.00000000E+00
  0.00000000E+00  0.00000000E+00  0.00000000E+00
  0.00000000E+00  0.00000000E+00  0.00000000E+00
  0.00000000E+00  0.00000000E+00  0.00000000E+00
  0.00000000E+00  0.00000000E+00  0.00000000E+00
  0.00000000E+00  0.00000000E+00  0.00000000E+00
  0.00000000E+00  0.00000000E+00  0.00000000E+00
  0.00000000E+00  0.00000000E+00  0.00000000E+00
  0.00000000E+00  0.00000000E+00  0.00000000E+00
  0.00000000E+00  0.00000000E+00  0.00000000E+00
  0.00000000E+00  0.00000000E+00  0.00000000E+00
  0.00000000E+00  0.00000000E+00  0.00000000E+00
  0.00000000E+00  0.00000000E+00  0.00000000E+00
  0.00000000E+00  0.00000000E+00  0.00000000E+00
  0.00000000E+00  0.00000000E+00  0.00000000E+00
  0.00000000E+00  0.00000000E+00  0.00000000E+00
  0.00000000E+00  0.00000000E+00  0.00000000E+00
  0.00000000E+00  0.00000000E+00  0.00000000E+00
  0.00000000E+00  0.00000000E+00  0.00000000E+00
  0.00000000E+00  0.00000000E+00  0.00000000E+00
  0.00000000E+00  0.00000000E+00  0.00000000E+00
  0.00000000E+00  0.00000000E+00  0.00000000E+00
  0.00000000E+00  0.00000000E+00  0.00000000E+00
  0.00000000E+00  0.00000000E+00  0.00000000E+00
  0.00000000E+00  0.00000000E+00  0.00000000E+00
  0.00000000E+00  0.00000000E+00  0.00000000E+00
  0.00000000E+00  0.00000000E+00  0.00000000E+00
  0.00000000E+00  0.00000000E+00  0.00000000E+00
  0.00000000E+00  0.00000000E+00  0.00000000E+00
  0.00000000E+00  0.00000000E+00  0.00000000E+00
  0.00000000E+00  0.00000000E+00  0.00000000E+00
  0.00000000E+00  0.00000000E+00  0.00000000E+00
  0.00000000E+00  0.00000000E+00  0.00000000E+00
  0.00000000E+00  0.00000000E+00  0.00000000E+00
  0.00000000E+00  0.00000000E+00  0.00000000E+00
  0.00000000E+00  0.00000000E+00  0.00000000E+00
  0.00000000E+00  0.00000000E+00  0.00000000E+00
  0.00000000E+00  0.00000000E+00  0.00000000E+00
  0.00000000E+00  0.00000000E+00  0.00000000E+00
  0.00000000E+00  0.00000000E+00  0.00000000E+00
  0.00000000E+00  0.00000000E+00  0.00000000E+00
  0.00000000E+00  0.00000000E+00  0.00000000E+00
  0.00000000E+00  0.00000000E+00  0.00000000E+00
  0.00000000E+00  0.00000000E+00  0.00000000E+00
  0.00000000E+00  0.00000000E+00  0.00000000E+00
  0.00000000E+00  0.00000000E+00  0.00000000E+00
  0.00000000E+00  0.00000000E+00  0.00000000E+00
  0.00000000E+00  0.00000000E+00  0.00000000E+00
  0.00000000E+00  0.00000000E+00  0.00000000E+00
  0.00000000E+00  0.00000000E+00  0.00000000E+00
  0.00000000E+00  0.00000000E+00  0.00000000E+00
  0.00000000E+00  0.00000000E+00  0.00000000E+00
  0.00000000E+00  0.00000000E+00  0.00000000E+00
  0.00000000E+00  0.00000000E+00  0.00000000E+00
  0.00000000E+00  0.00000000E+00  0.00000000E+00
  0.00000000E+00  0.00000000E+00  0.00000000E+00
  0.00000000E+00  0.00000000E+00  0.00000000E+00
  0.00000000E+00  0.00000000E+00  0.00000000E+00
  0.00000000E+00  0.00000000E+00  0.00000000E+00
  0.00000000E+00  0.00000000E+00  0.00000000E+00
  0.00000000E+00  0.00000000E+00  0.00000000E+00
  0.00000000E+00  0.00000000E+00  0.00000000E+00
  0.00000000E+00  0.00000000E+00  0.00000000E+00
  0.00000000E+00  0.00000000E+00  0.00000000E+00
  0.00000000E+00  0.00000000E+00  0.00000000E+00
  0.00000000E+00  0.00000000E+00  0.00000000E+00
  0.00000000E+00  0.00000000E+00  0.00000000E+00
  0.00000000E+00  0.00000000E+00  0.00000000E+00
  0.00000000E+00  0.00000000E+00  0.00000000E+00
  0.00000000E+00  0.00000000E+00  0.00000000E+00
  0.00000000E+00  0.00000000E+00  0.00000000E+00
  0.00000000E+00  0.00000000E+00  0.00000000E+00
  0.00000000E+00  0.00000000E+00  0.00000000E+00
  0.00000000E+00  0.00000000E+00  0.00000000E+00
  0.00000000E+00  0.00000000E+00  0.00000000E+00
  0.00000000E+00  0.00000000E+00  0.00000000E+00
  0.00000000E+00  0.00000000E+00  0.00000000E+00
  0.00000000E+00  0.00000000E+00  0.00000000E+00
  0.00000000E+00  0.00000000E+00  0.00000000E+00
  0.00000000E+00  0.00000000E+00  0.00000000E+00
  0.00000000E+00  0.00000000E+00  0.00000000E+00
