SrTiFeO                                 
   1.00000000000000     
    11.1989999999999998    0.0000000000000000    0.0000000000000000
     0.0000000000000000   11.1989999999999998    0.0000000000000000
     0.0000000000000000    0.0000000000000000   15.9830000000000005
   Sr   Ti   Fe   O 
    32    31     1    95
Direct
  0.9999289379440167  0.2498261663149406  0.1249622239170184
  0.0013135357867409  0.2490143901266371  0.6246630144576188
  0.9985048802823797  0.7502707972916893  0.1256338978796677
  0.0003927730949986  0.7480589730811884  0.6232153703806549
  0.4998475945934916  0.2509469864003794  0.1252191131019058
  0.5025180978775036  0.2464500846986011  0.6255141661407461
  0.5000609380662666  0.7506262597811735  0.1238358666505762
  0.4989524835156158  0.7516134367433872  0.6273299568667446
  0.0013135357867409  0.2490143901266371  0.3753369855423812
  0.9999289379440167  0.2498261663149406  0.8750377760829816
  0.0003927730949986  0.7480589730811884  0.3767846296193451
  0.9985048802823797  0.7502707972916893  0.8743661021203323
  0.5025180978775036  0.2464500846986011  0.3744858338592538
  0.4998475945934916  0.2509469864003794  0.8747808868980942
  0.4989524835156158  0.7516134367433872  0.3726700431332554
  0.5000609380662666  0.7506262597811735  0.8761641333494239
  0.2498811780656591  0.9999543934536711  0.1250424233717738
  0.2499465119907828  0.0001294824009829  0.6250140058650425
  0.2507022046193125  0.5005035208069530  0.1248041616815417
  0.2459085149325070  0.5008993644816304  0.6256512160092887
  0.7496201203388891  0.9989013616987373  0.1249428427845888
  0.7505235114434265  0.0012316175974251  0.6251746139579433
  0.7493771941713063  0.5012802797481356  0.1245515552849147
  0.7566942663021043  0.4959621337311740  0.6286168995569845
  0.2499465119907828  0.0001294824009829  0.3749859941349575
  0.2498811780656591  0.9999543934536711  0.8749575766282263
  0.2459085149325070  0.5008993644816304  0.3743487839907113
  0.2507022046193125  0.5005035208069530  0.8751958383184583
  0.7505235114434265  0.0012316175974251  0.3748253860420567
  0.7496201203388891  0.9989013616987373  0.8750571572154112
  0.7566942663021043  0.4959621337311740  0.3713831004430156
  0.7493771941713063  0.5012802797481356  0.8754484447150853
  0.9994919751963167  0.9995700580865708  0.0000000000000000
  0.0028890730910684  0.0004072686428564  0.5000000000000000
  1.0000096418182995  0.4997102587486737  0.0000000000000000
  0.9987702833698858  0.4996228398586586  0.5000000000000000
  0.5000681664077807  0.0003689367089829  0.0000000000000000
  0.5002846573410139  0.9982916741528717  0.5000000000000000
  0.4994403501960497  0.4996054771469775  0.0000000000000000
  0.2502951070741930  0.2502625915274524  0.0000000000000000
  0.2496360092619082  0.2500537036907040  0.5000000000000000
  0.2495447200645612  0.7499512689235692  0.0000000000000000
  0.2525088121296810  0.7497750292665788  0.5000000000000000
  0.7503213815194720  0.2499910434011917  0.0000000000000000
  0.7504928616628115  0.7506109365786835  0.0000000000000000
  0.2503821601330558  0.2500377430179731  0.2502992465105276
  0.2503821601330558  0.2500377430179731  0.7497007534894723
  0.2498278680456156  0.7499674940174113  0.2499744526217584
  0.2498278680456156  0.7499674940174113  0.7500255473782416
  0.7504648010471372  0.2492042397625530  0.2494361276691196
  0.7504648010471372  0.2492042397625530  0.7505638723308804
  0.7490128907839328  0.7489816024214321  0.2520835106403370
  0.7490128907839328  0.7489816024214321  0.7479164893596629
  0.0001197555523170  0.9994080713248746  0.2504200725145979
  0.0001197555523170  0.9994080713248746  0.7495799274854021
  0.0006769509836442  0.4998782277706187  0.2493359756574939
  0.0006769509836442  0.4998782277706187  0.7506640243425061
  0.5000540300224028  0.9999440836996083  0.2498198274362335
  0.5000540300224028  0.9999440836996083  0.7501801725637665
  0.5012597560153471  0.5005366119919493  0.2504597311619902
  0.5012597560153471  0.5005366119919493  0.7495402688380098
  0.7523398592527619  0.2493635841924339  0.5000000000000000
  0.4940823897797930  0.4925082808591753  0.5000000000000000
  0.7573131511463818  0.7619865635468018  0.5000000000000000
  0.1094632891513214  0.1406731646044393  0.2484274836765046
  0.1094632891513214  0.1406731646044393  0.7515725163234955
  0.1090960680896113  0.6407806286576466  0.2499458922573781
  0.1090960680896113  0.6407806286576466  0.7500541077426220
  0.6091554919493463  0.1408942549948363  0.2493513032875232
  0.6091554919493463  0.1408942549948363  0.7506486967124768
  0.6089016051333025  0.6409519806531006  0.2442569506327570
  0.6089016051333025  0.6409519806531006  0.7557430493672430
  0.3918885516457776  0.3601795675262416  0.2545652753045674
  0.3918885516457776  0.3601795675262416  0.7454347246954326
  0.3902945784943846  0.8597655172027373  0.2494786171754627
  0.3902945784943846  0.8597655172027373  0.7505213828245373
  0.8906577009763835  0.3593254023338806  0.2512473490031173
  0.8906577009763835  0.3593254023338806  0.7487526509968827
  0.8896786744965339  0.8584254000150238  0.2550614248388868
  0.8896786744965339  0.8584254000150238  0.7449385751611132
  0.3596709126064223  0.1097883152402172  0.2497886702027642
  0.3596709126064223  0.1097883152402172  0.7502113297972357
  0.3594755807269397  0.6090263895120074  0.2516673818550383
  0.3594755807269397  0.6090263895120074  0.7483326181449617
  0.8590056212118191  0.1086150863432518  0.2495994846420455
  0.8590056212118191  0.1086150863432518  0.7504005153579545
  0.8594856857244833  0.6087389885864243  0.2490065179641472
  0.8594856857244833  0.6087389885864243  0.7509934820358528
  0.1412059837149113  0.3909861957278336  0.2492130731584372
  0.1412059837149113  0.3909861957278336  0.7507869268415627
  0.1404054688347050  0.8905966062603912  0.2492273107995131
  0.1404054688347050  0.8905966062603912  0.7507726892004869
  0.6414735662458984  0.3905693396678717  0.2491153362865114
  0.6414735662458984  0.3905693396678717  0.7508846637134957
  0.6405992571978062  0.8908048711782347  0.2512958513337085
  0.6405992571978062  0.8908048711782347  0.7487041486662914
  0.3587087609000214  0.3908481720056572  0.0000000000000000
  0.3592625243081096  0.8906212052747523  0.0000000000000000
  0.3566542073549981  0.8947618983284308  0.5000000000000000
  0.8591945876024972  0.3908330756661086  0.0000000000000000
  0.8592304517092100  0.8913660574015155  0.0000000000000000
  0.8601503397291362  0.8944233446967087  0.5000000000000000
  0.1407589368794198  0.1091426388451909  0.0000000000000000
  0.1412133154562594  0.1090127484358515  0.5000000000000000
  0.1407469394326956  0.6088176276036555  0.0000000000000000
  0.1363894379825701  0.6116121965192598  0.5000000000000000
  0.6409785488309557  0.1093821983470884  0.0000000000000000
  0.6400048875177570  0.1103782444297145  0.5000000000000000
  0.6399692329906891  0.6098983750086279  0.0000000000000000
  0.1091013764319351  0.3585868843068751  0.0000000000000000
  0.1062072646948082  0.3586489841640286  0.5000000000000000
  0.1091618851253593  0.8588951171454189  0.0000000000000000
  0.1076514591369457  0.8596931870962597  0.5000000000000000
  0.6094111399441177  0.3592968278405633  0.0000000000000000
  0.6093905725420851  0.8596805042158883  0.0000000000000000
  0.6049386118871627  0.8543186813872926  0.5000000000000000
  0.3910425694770439  0.1408061250038264  0.0000000000000000
  0.3922637032407208  0.1433854494943104  0.5000000000000000
  0.3905524381987562  0.6404870350392807  0.0000000000000000
  0.8912901927853872  0.1408436746440520  0.0000000000000000
  0.8910058013906195  0.1406606812512613  0.5000000000000000
  0.8907350096121653  0.6405036619981470  0.0000000000000000
  0.9982544512880329  0.9977294919201158  0.1252773788018361
  0.0018325389430930  0.0024126944878350  0.6252036755537881
  0.9999320380743859  0.4990835260320929  0.1248235431268451
  0.0006213491457995  0.5004969732509867  0.6256215251739783
  0.5004107286853886  0.9996002165779302  0.1249493425471469
  0.4997379480353344  0.0014735903244311  0.6252431122826053
  0.4976217062121169  0.4975135322335685  0.1250411971756686
  0.5135333137387182  0.5094194085706709  0.6235525500300356
  0.0018325389430930  0.0024126944878350  0.3747963244462119
  0.9982544512880329  0.9977294919201158  0.8747226211981640
  0.0006213491457995  0.5004969732509867  0.3743784748260218
  0.9999320380743859  0.4990835260320929  0.8751764568731549
  0.4997379480353344  0.0014735903244311  0.3747568877173946
  0.5004107286853886  0.9996002165779302  0.8750506574528532
  0.4976217062121169  0.4975135322335685  0.8749588028243314
  0.2478506211261723  0.2490423095239173  0.3747650842602939
  0.2524259884941756  0.2514708028332513  0.8747897767802078
  0.2484391216476326  0.7512234776427448  0.3746214926590574
  0.2504268151590099  0.7491275732204947  0.8749873647617460
  0.7511110522378116  0.2500121168377153  0.8751493868145245
  0.7523301295385134  0.7525568388094437  0.8749136720293642
  0.2524259884941756  0.2514708028332513  0.1252102232197922
  0.2478506211261723  0.2490423095239173  0.6252349157397061
  0.2504268151590099  0.7491275732204947  0.1250126352382540
  0.2484391216476326  0.7512234776427448  0.6253785073409426
  0.7511110522378116  0.2500121168377153  0.1248506131854755
  0.7492540324781650  0.2485461118771451  0.6253741448803373
  0.7523301295385134  0.7525568388094437  0.1250863279706358
  0.7392012077640295  0.7379160592582095  0.6233285309691147
  0.7492540324781650  0.2485461118771451  0.3746258551196627
  0.8612908261247950  0.3875341731645045  0.5000000000000000
  0.3904668930647257  0.6456326700562340  0.5000000000000000
  0.5135333137387182  0.5094194085706709  0.3764474499699644
  0.3486343059656143  0.3950735238090212  0.5000000000000000
  0.8782869164958158  0.6328020046133043  0.5000000000000000
  0.7392012077640295  0.7379160592582095  0.3766714690308853
  0.6179943551226804  0.3682260083393731  0.5000000000000000
 
  0.00000000E+00  0.00000000E+00  0.00000000E+00
  0.00000000E+00  0.00000000E+00  0.00000000E+00
  0.00000000E+00  0.00000000E+00  0.00000000E+00
  0.00000000E+00  0.00000000E+00  0.00000000E+00
  0.00000000E+00  0.00000000E+00  0.00000000E+00
  0.00000000E+00  0.00000000E+00  0.00000000E+00
  0.00000000E+00  0.00000000E+00  0.00000000E+00
  0.00000000E+00  0.00000000E+00  0.00000000E+00
  0.00000000E+00  0.00000000E+00  0.00000000E+00
  0.00000000E+00  0.00000000E+00  0.00000000E+00
  0.00000000E+00  0.00000000E+00  0.00000000E+00
  0.00000000E+00  0.00000000E+00  0.00000000E+00
  0.00000000E+00  0.00000000E+00  0.00000000E+00
  0.00000000E+00  0.00000000E+00  0.00000000E+00
  0.00000000E+00  0.00000000E+00  0.00000000E+00
  0.00000000E+00  0.00000000E+00  0.00000000E+00
  0.00000000E+00  0.00000000E+00  0.00000000E+00
  0.00000000E+00  0.00000000E+00  0.00000000E+00
  0.00000000E+00  0.00000000E+00  0.00000000E+00
  0.00000000E+00  0.00000000E+00  0.00000000E+00
  0.00000000E+00  0.00000000E+00  0.00000000E+00
  0.00000000E+00  0.00000000E+00  0.00000000E+00
  0.00000000E+00  0.00000000E+00  0.00000000E+00
  0.00000000E+00  0.00000000E+00  0.00000000E+00
  0.00000000E+00  0.00000000E+00  0.00000000E+00
  0.00000000E+00  0.00000000E+00  0.00000000E+00
  0.00000000E+00  0.00000000E+00  0.00000000E+00
  0.00000000E+00  0.00000000E+00  0.00000000E+00
  0.00000000E+00  0.00000000E+00  0.00000000E+00
  0.00000000E+00  0.00000000E+00  0.00000000E+00
  0.00000000E+00  0.00000000E+00  0.00000000E+00
  0.00000000E+00  0.00000000E+00  0.00000000E+00
  0.00000000E+00  0.00000000E+00  0.00000000E+00
  0.00000000E+00  0.00000000E+00  0.00000000E+00
  0.00000000E+00  0.00000000E+00  0.00000000E+00
  0.00000000E+00  0.00000000E+00  0.00000000E+00
  0.00000000E+00  0.00000000E+00  0.00000000E+00
  0.00000000E+00  0.00000000E+00  0.00000000E+00
  0.00000000E+00  0.00000000E+00  0.00000000E+00
  0.00000000E+00  0.00000000E+00  0.00000000E+00
  0.00000000E+00  0.00000000E+00  0.00000000E+00
  0.00000000E+00  0.00000000E+00  0.00000000E+00
  0.00000000E+00  0.00000000E+00  0.00000000E+00
  0.00000000E+00  0.00000000E+00  0.00000000E+00
  0.00000000E+00  0.00000000E+00  0.00000000E+00
  0.00000000E+00  0.00000000E+00  0.00000000E+00
  0.00000000E+00  0.00000000E+00  0.00000000E+00
  0.00000000E+00  0.00000000E+00  0.00000000E+00
  0.00000000E+00  0.00000000E+00  0.00000000E+00
  0.00000000E+00  0.00000000E+00  0.00000000E+00
  0.00000000E+00  0.00000000E+00  0.00000000E+00
  0.00000000E+00  0.00000000E+00  0.00000000E+00
  0.00000000E+00  0.00000000E+00  0.00000000E+00
  0.00000000E+00  0.00000000E+00  0.00000000E+00
  0.00000000E+00  0.00000000E+00  0.00000000E+00
  0.00000000E+00  0.00000000E+00  0.00000000E+00
  0.00000000E+00  0.00000000E+00  0.00000000E+00
  0.00000000E+00  0.00000000E+00  0.00000000E+00
  0.00000000E+00  0.00000000E+00  0.00000000E+00
  0.00000000E+00  0.00000000E+00  0.00000000E+00
  0.00000000E+00  0.00000000E+00  0.00000000E+00
  0.00000000E+00  0.00000000E+00  0.00000000E+00
  0.00000000E+00  0.00000000E+00  0.00000000E+00
  0.00000000E+00  0.00000000E+00  0.00000000E+00
  0.00000000E+00  0.00000000E+00  0.00000000E+00
  0.00000000E+00  0.00000000E+00  0.00000000E+00
  0.00000000E+00  0.00000000E+00  0.00000000E+00
  0.00000000E+00  0.00000000E+00  0.00000000E+00
  0.00000000E+00  0.00000000E+00  0.00000000E+00
  0.00000000E+00  0.00000000E+00  0.00000000E+00
  0.00000000E+00  0.00000000E+00  0.00000000E+00
  0.00000000E+00  0.00000000E+00  0.00000000E+00
  0.00000000E+00  0.00000000E+00  0.00000000E+00
  0.00000000E+00  0.00000000E+00  0.00000000E+00
  0.00000000E+00  0.00000000E+00  0.00000000E+00
  0.00000000E+00  0.00000000E+00  0.00000000E+00
  0.00000000E+00  0.00000000E+00  0.00000000E+00
  0.00000000E+00  0.00000000E+00  0.00000000E+00
  0.00000000E+00  0.00000000E+00  0.00000000E+00
  0.00000000E+00  0.00000000E+00  0.00000000E+00
  0.00000000E+00  0.00000000E+00  0.00000000E+00
  0.00000000E+00  0.00000000E+00  0.00000000E+00
  0.00000000E+00  0.00000000E+00  0.00000000E+00
  0.00000000E+00  0.00000000E+00  0.00000000E+00
  0.00000000E+00  0.00000000E+00  0.00000000E+00
  0.00000000E+00  0.00000000E+00  0.00000000E+00
  0.00000000E+00  0.00000000E+00  0.00000000E+00
  0.00000000E+00  0.00000000E+00  0.00000000E+00
  0.00000000E+00  0.00000000E+00  0.00000000E+00
  0.00000000E+00  0.00000000E+00  0.00000000E+00
  0.00000000E+00  0.00000000E+00  0.00000000E+00
  0.00000000E+00  0.00000000E+00  0.00000000E+00
  0.00000000E+00  0.00000000E+00  0.00000000E+00
  0.00000000E+00  0.00000000E+00  0.00000000E+00
  0.00000000E+00  0.00000000E+00  0.00000000E+00
  0.00000000E+00  0.00000000E+00  0.00000000E+00
  0.00000000E+00  0.00000000E+00  0.00000000E+00
  0.00000000E+00  0.00000000E+00  0.00000000E+00
  0.00000000E+00  0.00000000E+00  0.00000000E+00
  0.00000000E+00  0.00000000E+00  0.00000000E+00
  0.00000000E+00  0.00000000E+00  0.00000000E+00
  0.00000000E+00  0.00000000E+00  0.00000000E+00
  0.00000000E+00  0.00000000E+00  0.00000000E+00
  0.00000000E+00  0.00000000E+00  0.00000000E+00
  0.00000000E+00  0.00000000E+00  0.00000000E+00
  0.00000000E+00  0.00000000E+00  0.00000000E+00
  0.00000000E+00  0.00000000E+00  0.00000000E+00
  0.00000000E+00  0.00000000E+00  0.00000000E+00
  0.00000000E+00  0.00000000E+00  0.00000000E+00
  0.00000000E+00  0.00000000E+00  0.00000000E+00
  0.00000000E+00  0.00000000E+00  0.00000000E+00
  0.00000000E+00  0.00000000E+00  0.00000000E+00
  0.00000000E+00  0.00000000E+00  0.00000000E+00
  0.00000000E+00  0.00000000E+00  0.00000000E+00
  0.00000000E+00  0.00000000E+00  0.00000000E+00
  0.00000000E+00  0.00000000E+00  0.00000000E+00
  0.00000000E+00  0.00000000E+00  0.00000000E+00
  0.00000000E+00  0.00000000E+00  0.00000000E+00
  0.00000000E+00  0.00000000E+00  0.00000000E+00
  0.00000000E+00  0.00000000E+00  0.00000000E+00
  0.00000000E+00  0.00000000E+00  0.00000000E+00
  0.00000000E+00  0.00000000E+00  0.00000000E+00
  0.00000000E+00  0.00000000E+00  0.00000000E+00
  0.00000000E+00  0.00000000E+00  0.00000000E+00
  0.00000000E+00  0.00000000E+00  0.00000000E+00
  0.00000000E+00  0.00000000E+00  0.00000000E+00
  0.00000000E+00  0.00000000E+00  0.00000000E+00
  0.00000000E+00  0.00000000E+00  0.00000000E+00
  0.00000000E+00  0.00000000E+00  0.00000000E+00
  0.00000000E+00  0.00000000E+00  0.00000000E+00
  0.00000000E+00  0.00000000E+00  0.00000000E+00
  0.00000000E+00  0.00000000E+00  0.00000000E+00
  0.00000000E+00  0.00000000E+00  0.00000000E+00
  0.00000000E+00  0.00000000E+00  0.00000000E+00
  0.00000000E+00  0.00000000E+00  0.00000000E+00
  0.00000000E+00  0.00000000E+00  0.00000000E+00
  0.00000000E+00  0.00000000E+00  0.00000000E+00
  0.00000000E+00  0.00000000E+00  0.00000000E+00
  0.00000000E+00  0.00000000E+00  0.00000000E+00
  0.00000000E+00  0.00000000E+00  0.00000000E+00
  0.00000000E+00  0.00000000E+00  0.00000000E+00
  0.00000000E+00  0.00000000E+00  0.00000000E+00
  0.00000000E+00  0.00000000E+00  0.00000000E+00
  0.00000000E+00  0.00000000E+00  0.00000000E+00
  0.00000000E+00  0.00000000E+00  0.00000000E+00
  0.00000000E+00  0.00000000E+00  0.00000000E+00
  0.00000000E+00  0.00000000E+00  0.00000000E+00
  0.00000000E+00  0.00000000E+00  0.00000000E+00
  0.00000000E+00  0.00000000E+00  0.00000000E+00
  0.00000000E+00  0.00000000E+00  0.00000000E+00
  0.00000000E+00  0.00000000E+00  0.00000000E+00
  0.00000000E+00  0.00000000E+00  0.00000000E+00
  0.00000000E+00  0.00000000E+00  0.00000000E+00
  0.00000000E+00  0.00000000E+00  0.00000000E+00
  0.00000000E+00  0.00000000E+00  0.00000000E+00
  0.00000000E+00  0.00000000E+00  0.00000000E+00
  0.00000000E+00  0.00000000E+00  0.00000000E+00
  0.00000000E+00  0.00000000E+00  0.00000000E+00
  0.00000000E+00  0.00000000E+00  0.00000000E+00
