Sr   Ti   Fe   O                        
   1.00000000000000     
    11.1989999999999998    0.0000000000000000    0.0000000000000000
     0.0000000000000000   11.1989999999999998    0.0000000000000000
     0.0000000000000000    0.0000000000000000   15.9830000000000005
   Sr   Ti   Fe   O 
    32    31     1    95
Direct
  0.9993736976383583  0.2506093844448036  0.1243925398425168
  0.0063160002586969  0.2511560758583648  0.6267847092476256
  0.9984724687299675  0.7500507910301528  0.1252910083358371
  0.9986212939194014  0.7473862417293912  0.6257906458017445
  0.5000747774071422  0.2507405311825681  0.1238731728643921
  0.4929773804613520  0.2426982701892038  0.6299906510397620
  0.5001032963065815  0.7492062096539808  0.1241372082895822
  0.5019682234256206  0.7555602752580666  0.6291808597066606
  0.0063160002586969  0.2511560758583648  0.3732152907523744
  0.9993736976383583  0.2506093844448036  0.8756074601574824
  0.9986212939194014  0.7473862417293912  0.3742093541982504
  0.9984724687299675  0.7500507910301528  0.8747089916641622
  0.4929773804613520  0.2426982701892038  0.3700093489602380
  0.5000747774071422  0.2507405311825681  0.8761268271356084
  0.5019682234256206  0.7555602752580666  0.3708191402933390
  0.5001032963065815  0.7492062096539808  0.8758627917104173
  0.2494366054290446  0.9992646428377154  0.1248096582682906
  0.2502317456758857  0.9997014117850099  0.6260692521828118
  0.2507102698098195  0.5003814585628122  0.1243850277245331
  0.2476209842770763  0.4970719187138197  0.6277324266997155
  0.7497370369009120  0.9994780459244434  0.1251272179560841
  0.7479613709958908  0.9941038704903228  0.6253980690645247
  0.7492584433624758  0.5011479299142600  0.1238428703091747
  0.7564863587667644  0.4995775545554719  0.6293768780907021
  0.2502317456758857  0.9997014117850099  0.3739307478171888
  0.2494366054290446  0.9992646428377154  0.8751903417317093
  0.2476209842770763  0.4970719187138197  0.3722675733002843
  0.2507102698098195  0.5003814585628122  0.8756149722754669
  0.7479613709958908  0.9941038704903228  0.3746019309354752
  0.7497370369009120  0.9994780459244434  0.8748727820439165
  0.7564863587667644  0.4995775545554719  0.3706231219092981
  0.7492584433624758  0.5011479299142600  0.8761571296908254
  0.9992959220814732 -0.0000191456838203 -0.0000000000000000
  0.0033540434449552  0.9939345465426709  0.5000000000000000
  0.0002546322424488  0.4999579245224732 -0.0000000000000000
  1.0011930999384644  0.5015324387231392  0.5000000000000000
  0.4996419641721025 -0.0000153212317787 -0.0000000000000000
  0.4999026652708577  0.9975097874906872  0.5000000000000000
  0.4992525581130677  0.5001643551255045 -0.0000000000000000
  0.2497279509300838  0.2494617182171815 -0.0000000000000000
  0.2504740158233930  0.2467878713896255  0.5000000000000000
  0.2495330834394073  0.7500596789596189 -0.0000000000000000
  0.2496699873866124  0.7512769293337994  0.5000000000000000
  0.7504294766235751  0.2496946508996473 -0.0000000000000000
  0.7498979487131875  0.7505593495302781 -0.0000000000000000
  0.2495674933313271  0.2492496343846529  0.2482550442997615
  0.2495674933313271  0.2492496343846529  0.7517449557002380
  0.2494439314530032  0.7493589938847117  0.2498731306386834
  0.2494439314530032  0.7493589938847117  0.7501268693613167
  0.7485670835538818  0.2504284458870021  0.2500088059912450
  0.7485670835538818  0.2504284458870021  0.7499911940087548
  0.7494582629375115  0.7486244487943075  0.2510935819618914
  0.7494582629375115  0.7486244487943075  0.7489064180381079
  0.9992533386928620  0.9998223995248530  0.2506634815021501
  0.9992533386928620  0.9998223995248530  0.7493365184978508
  0.0004904754717848  0.4995831757554633  0.2490486020513013
  0.0004904754717848  0.4995831757554633  0.7509513979486984
  0.4998164765682340  0.9992954260972338  0.2487888977745543
  0.4998164765682340  0.9992954260972338  0.7512111022254461
  0.4994805232209185  0.4991926014469777  0.2500181979301729
  0.4994805232209185  0.4991926014469777  0.7499818020698262
  0.7641355569601818  0.2415145858901154  0.5000000000000000
  0.4900645194011571  0.5094030248377474  0.5000000000000000
  0.7563428153741145  0.7525237539868276  0.5000000000000000
  0.1086652971409067  0.1402361360633779  0.2488518890110257
  0.1086652971409067  0.1402361360633779  0.7511481109889765
  0.1098703333869446  0.6399428761783499  0.2499883045684702
  0.1098703333869446  0.6399428761783499  0.7500116954315303
  0.6093355742334690  0.1403008375827429  0.2496947348506061
  0.6093355742334690  0.1403008375827429  0.7503052651493933
  0.6085267588035602  0.6390046272616658  0.2484929102914994
  0.6085267588035602  0.6390046272616658  0.7515070897084934
  0.3894441024764723  0.3581630704695914  0.2479089261470234
  0.3894441024764723  0.3581630704695914  0.7520910738529767
  0.3895560729328504  0.8598298967839432  0.2493791025277365
  0.3895560729328504  0.8598298967839432  0.7506208974722638
  0.8895069111614688  0.3594663210153349  0.2522435877993907
  0.8895069111614688  0.3594663210153349  0.7477564122006097
  0.8885535157509084  0.8604041276949715  0.2532172583342666
  0.8885535157509084  0.8604041276949715  0.7467827416657337
  0.3597433953912602  0.1095952783776039  0.2510662719424691
  0.3597433953912602  0.1095952783776039  0.7489337280575311
  0.3589340173059280  0.6091332250430928  0.2505550943827343
  0.3589340173059280  0.6091332250430928  0.7494449056172658
  0.8578048103627349  0.1110407506798878  0.2559614954966963
  0.8578048103627349  0.1110407506798878  0.7440385045033034
  0.8613513476002599  0.6105612165040145  0.2479949635816324
  0.8613513476002599  0.6105612165040145  0.7520050364183679
  0.1401253871777428  0.3895306400975961  0.2491648281340535
  0.1401253871777428  0.3895306400975961  0.7508351718659463
  0.1392964489726758  0.8901377467846808  0.2498767319710084
  0.1392964489726758  0.8901377467846808  0.7501232680289913
  0.6395090416267162  0.3904590351884811  0.2467555850997155
  0.6395090416267162  0.3904590351884811  0.7532444149002867
  0.6393513691521819  0.8895240616427252  0.2505142312990374
  0.6393513691521819  0.8895240616427252  0.7494857687009630
  0.3589499123203204  0.3900589976480887 -0.0000000000000000
  0.3587691325264619  0.8908048428243193 -0.0000000000000000
  0.3561242876326011  0.8932785128350532  0.5000000000000000
  0.8591416334052066  0.3903942453441751 -0.0000000000000000
  0.8588598255241616  0.8911319794879639 -0.0000000000000000
  0.8598580980786636  0.8937827637309703  0.5000000000000000
  0.1399573750545774  0.1083777729770516 -0.0000000000000000
  0.1410665767858264  0.1077454215129845  0.5000000000000000
  0.1403944399569002  0.6092814128183605 -0.0000000000000000
  0.1488429507192993  0.6060208241193090  0.5000000000000000
  0.6408207673555520  0.1096295788460452 -0.0000000000000000
  0.6353979398119266  0.1205908122722488  0.5000000000000000
  0.6398764933268782  0.6098605395503621 -0.0000000000000000
  0.1093285357620943  0.3588732859308014 -0.0000000000000000
  0.1155565393476292  0.3604806965533776  0.5000000000000000
  0.1084557363923646  0.8597404058315420 -0.0000000000000000
  0.1077151529034317  0.8548077568536492  0.5000000000000000
  0.6100973754023518  0.3596148119573928 -0.0000000000000000
  0.6089276960803298  0.8597616785040708 -0.0000000000000000
  0.6079364953222904  0.8580929962949865  0.5000000000000000
  0.3906947221152789  0.1406262605001373 -0.0000000000000000
  0.3885250063341870  0.1371167805158994  0.5000000000000000
  0.3899869334649839  0.6409520836336146 -0.0000000000000000
  0.8909931831999320  0.1410453570750863 -0.0000000000000000
  0.8932118151534389  0.1396627394314480  0.5000000000000000
  0.8904142736645891  0.6405085689127031 -0.0000000000000000
  0.9962749520235544  0.0001748238610925  0.1259162855119613
  0.0030034732046207  0.0003004827901376  0.6241419390758722
  0.0000250273477040  0.4986070705151448  0.1248615128812677
  0.0025643852895158  0.4999153269402916  0.6254295887271965
  0.4995226864715835  0.0002430932147304  0.1249193933250563
  0.5006484525405405 -0.0002841846376134  0.6253194813810864
  0.4975120844524891  0.5000603610552666  0.1244073988035372
  0.4954245850784146  0.4933489428107212  0.6250322198398969
  0.0030034732046207  0.0003004827901376  0.3758580609241277
  0.9962749520235544  0.0001748238610925  0.8740837144880385
  0.0025643852895158  0.4999153269402916  0.3745704112728039
  0.0000250273477040  0.4986070705151448  0.8751384871187333
  0.5006484525405405 -0.0002841846376134  0.3746805186189130
  0.4995226864715835  0.0002430932147304  0.8750806066749441
  0.4975120844524891  0.5000603610552666  0.8755926011964629
  0.2489842008836702  0.2496280810471981  0.3743370096789450
  0.2495985238712728  0.2482622765853756  0.8755019886413494
  0.2507179227496457  0.7499522401691161  0.3755331691853754
  0.2495048420557987  0.7497954510721185  0.8749439646180557
  0.7520217940903424  0.2483577415802245  0.8742019901346213
  0.7502314284078871  0.7512447112291103  0.8749388895712533
  0.2495985238712728  0.2482622765853756  0.1244980113586504
  0.2489842008836702  0.2496280810471981  0.6256629903210552
  0.2495048420557987  0.7497954510721185  0.1250560353819435
  0.2507179227496457  0.7499522401691161  0.6244668308146241
  0.7520217940903424  0.2483577415802245  0.1257980098653856
  0.7357514692124643  0.2623442450437911  0.6204610028255239
  0.7502314284078871  0.7512447112291103  0.1250611104287471
  0.7447481924908299  0.7428831458790349  0.6246195105855306
  0.7357514692124643  0.2623442450437911  0.3795389971744758
  0.8645322727127016  0.3855815644154031  0.5000000000000000
  0.4035814015059209  0.6523477888470210  0.5000000000000000
  0.4954245850784146  0.4933489428107212  0.3749677801601013
  0.3742105105932214  0.3791303203327521  0.5000000000000000
  0.8954611608911178  0.6392688251235916  0.5000000000000000
  0.7447481924908299  0.7428831458790349  0.3753804894144694
  0.6515385138138639  0.5450405750760967  0.5000000000000000
 
  0.00000000E+00  0.00000000E+00  0.00000000E+00
  0.00000000E+00  0.00000000E+00  0.00000000E+00
  0.00000000E+00  0.00000000E+00  0.00000000E+00
  0.00000000E+00  0.00000000E+00  0.00000000E+00
  0.00000000E+00  0.00000000E+00  0.00000000E+00
  0.00000000E+00  0.00000000E+00  0.00000000E+00
  0.00000000E+00  0.00000000E+00  0.00000000E+00
  0.00000000E+00  0.00000000E+00  0.00000000E+00
  0.00000000E+00  0.00000000E+00  0.00000000E+00
  0.00000000E+00  0.00000000E+00  0.00000000E+00
  0.00000000E+00  0.00000000E+00  0.00000000E+00
  0.00000000E+00  0.00000000E+00  0.00000000E+00
  0.00000000E+00  0.00000000E+00  0.00000000E+00
  0.00000000E+00  0.00000000E+00  0.00000000E+00
  0.00000000E+00  0.00000000E+00  0.00000000E+00
  0.00000000E+00  0.00000000E+00  0.00000000E+00
  0.00000000E+00  0.00000000E+00  0.00000000E+00
  0.00000000E+00  0.00000000E+00  0.00000000E+00
  0.00000000E+00  0.00000000E+00  0.00000000E+00
  0.00000000E+00  0.00000000E+00  0.00000000E+00
  0.00000000E+00  0.00000000E+00  0.00000000E+00
  0.00000000E+00  0.00000000E+00  0.00000000E+00
  0.00000000E+00  0.00000000E+00  0.00000000E+00
  0.00000000E+00  0.00000000E+00  0.00000000E+00
  0.00000000E+00  0.00000000E+00  0.00000000E+00
  0.00000000E+00  0.00000000E+00  0.00000000E+00
  0.00000000E+00  0.00000000E+00  0.00000000E+00
  0.00000000E+00  0.00000000E+00  0.00000000E+00
  0.00000000E+00  0.00000000E+00  0.00000000E+00
  0.00000000E+00  0.00000000E+00  0.00000000E+00
  0.00000000E+00  0.00000000E+00  0.00000000E+00
  0.00000000E+00  0.00000000E+00  0.00000000E+00
  0.00000000E+00  0.00000000E+00  0.00000000E+00
  0.00000000E+00  0.00000000E+00  0.00000000E+00
  0.00000000E+00  0.00000000E+00  0.00000000E+00
  0.00000000E+00  0.00000000E+00  0.00000000E+00
  0.00000000E+00  0.00000000E+00  0.00000000E+00
  0.00000000E+00  0.00000000E+00  0.00000000E+00
  0.00000000E+00  0.00000000E+00  0.00000000E+00
  0.00000000E+00  0.00000000E+00  0.00000000E+00
  0.00000000E+00  0.00000000E+00  0.00000000E+00
  0.00000000E+00  0.00000000E+00  0.00000000E+00
  0.00000000E+00  0.00000000E+00  0.00000000E+00
  0.00000000E+00  0.00000000E+00  0.00000000E+00
  0.00000000E+00  0.00000000E+00  0.00000000E+00
  0.00000000E+00  0.00000000E+00  0.00000000E+00
  0.00000000E+00  0.00000000E+00  0.00000000E+00
  0.00000000E+00  0.00000000E+00  0.00000000E+00
  0.00000000E+00  0.00000000E+00  0.00000000E+00
  0.00000000E+00  0.00000000E+00  0.00000000E+00
  0.00000000E+00  0.00000000E+00  0.00000000E+00
  0.00000000E+00  0.00000000E+00  0.00000000E+00
  0.00000000E+00  0.00000000E+00  0.00000000E+00
  0.00000000E+00  0.00000000E+00  0.00000000E+00
  0.00000000E+00  0.00000000E+00  0.00000000E+00
  0.00000000E+00  0.00000000E+00  0.00000000E+00
  0.00000000E+00  0.00000000E+00  0.00000000E+00
  0.00000000E+00  0.00000000E+00  0.00000000E+00
  0.00000000E+00  0.00000000E+00  0.00000000E+00
  0.00000000E+00  0.00000000E+00  0.00000000E+00
  0.00000000E+00  0.00000000E+00  0.00000000E+00
  0.00000000E+00  0.00000000E+00  0.00000000E+00
  0.00000000E+00  0.00000000E+00  0.00000000E+00
  0.00000000E+00  0.00000000E+00  0.00000000E+00
  0.00000000E+00  0.00000000E+00  0.00000000E+00
  0.00000000E+00  0.00000000E+00  0.00000000E+00
  0.00000000E+00  0.00000000E+00  0.00000000E+00
  0.00000000E+00  0.00000000E+00  0.00000000E+00
  0.00000000E+00  0.00000000E+00  0.00000000E+00
  0.00000000E+00  0.00000000E+00  0.00000000E+00
  0.00000000E+00  0.00000000E+00  0.00000000E+00
  0.00000000E+00  0.00000000E+00  0.00000000E+00
  0.00000000E+00  0.00000000E+00  0.00000000E+00
  0.00000000E+00  0.00000000E+00  0.00000000E+00
  0.00000000E+00  0.00000000E+00  0.00000000E+00
  0.00000000E+00  0.00000000E+00  0.00000000E+00
  0.00000000E+00  0.00000000E+00  0.00000000E+00
  0.00000000E+00  0.00000000E+00  0.00000000E+00
  0.00000000E+00  0.00000000E+00  0.00000000E+00
  0.00000000E+00  0.00000000E+00  0.00000000E+00
  0.00000000E+00  0.00000000E+00  0.00000000E+00
  0.00000000E+00  0.00000000E+00  0.00000000E+00
  0.00000000E+00  0.00000000E+00  0.00000000E+00
  0.00000000E+00  0.00000000E+00  0.00000000E+00
  0.00000000E+00  0.00000000E+00  0.00000000E+00
  0.00000000E+00  0.00000000E+00  0.00000000E+00
  0.00000000E+00  0.00000000E+00  0.00000000E+00
  0.00000000E+00  0.00000000E+00  0.00000000E+00
  0.00000000E+00  0.00000000E+00  0.00000000E+00
  0.00000000E+00  0.00000000E+00  0.00000000E+00
  0.00000000E+00  0.00000000E+00  0.00000000E+00
  0.00000000E+00  0.00000000E+00  0.00000000E+00
  0.00000000E+00  0.00000000E+00  0.00000000E+00
  0.00000000E+00  0.00000000E+00  0.00000000E+00
  0.00000000E+00  0.00000000E+00  0.00000000E+00
  0.00000000E+00  0.00000000E+00  0.00000000E+00
  0.00000000E+00  0.00000000E+00  0.00000000E+00
  0.00000000E+00  0.00000000E+00  0.00000000E+00
  0.00000000E+00  0.00000000E+00  0.00000000E+00
  0.00000000E+00  0.00000000E+00  0.00000000E+00
  0.00000000E+00  0.00000000E+00  0.00000000E+00
  0.00000000E+00  0.00000000E+00  0.00000000E+00
  0.00000000E+00  0.00000000E+00  0.00000000E+00
  0.00000000E+00  0.00000000E+00  0.00000000E+00
  0.00000000E+00  0.00000000E+00  0.00000000E+00
  0.00000000E+00  0.00000000E+00  0.00000000E+00
  0.00000000E+00  0.00000000E+00  0.00000000E+00
  0.00000000E+00  0.00000000E+00  0.00000000E+00
  0.00000000E+00  0.00000000E+00  0.00000000E+00
  0.00000000E+00  0.00000000E+00  0.00000000E+00
  0.00000000E+00  0.00000000E+00  0.00000000E+00
  0.00000000E+00  0.00000000E+00  0.00000000E+00
  0.00000000E+00  0.00000000E+00  0.00000000E+00
  0.00000000E+00  0.00000000E+00  0.00000000E+00
  0.00000000E+00  0.00000000E+00  0.00000000E+00
  0.00000000E+00  0.00000000E+00  0.00000000E+00
  0.00000000E+00  0.00000000E+00  0.00000000E+00
  0.00000000E+00  0.00000000E+00  0.00000000E+00
  0.00000000E+00  0.00000000E+00  0.00000000E+00
  0.00000000E+00  0.00000000E+00  0.00000000E+00
  0.00000000E+00  0.00000000E+00  0.00000000E+00
  0.00000000E+00  0.00000000E+00  0.00000000E+00
  0.00000000E+00  0.00000000E+00  0.00000000E+00
  0.00000000E+00  0.00000000E+00  0.00000000E+00
  0.00000000E+00  0.00000000E+00  0.00000000E+00
  0.00000000E+00  0.00000000E+00  0.00000000E+00
  0.00000000E+00  0.00000000E+00  0.00000000E+00
  0.00000000E+00  0.00000000E+00  0.00000000E+00
  0.00000000E+00  0.00000000E+00  0.00000000E+00
  0.00000000E+00  0.00000000E+00  0.00000000E+00
  0.00000000E+00  0.00000000E+00  0.00000000E+00
  0.00000000E+00  0.00000000E+00  0.00000000E+00
  0.00000000E+00  0.00000000E+00  0.00000000E+00
  0.00000000E+00  0.00000000E+00  0.00000000E+00
  0.00000000E+00  0.00000000E+00  0.00000000E+00
  0.00000000E+00  0.00000000E+00  0.00000000E+00
  0.00000000E+00  0.00000000E+00  0.00000000E+00
  0.00000000E+00  0.00000000E+00  0.00000000E+00
  0.00000000E+00  0.00000000E+00  0.00000000E+00
  0.00000000E+00  0.00000000E+00  0.00000000E+00
  0.00000000E+00  0.00000000E+00  0.00000000E+00
  0.00000000E+00  0.00000000E+00  0.00000000E+00
  0.00000000E+00  0.00000000E+00  0.00000000E+00
  0.00000000E+00  0.00000000E+00  0.00000000E+00
  0.00000000E+00  0.00000000E+00  0.00000000E+00
  0.00000000E+00  0.00000000E+00  0.00000000E+00
  0.00000000E+00  0.00000000E+00  0.00000000E+00
  0.00000000E+00  0.00000000E+00  0.00000000E+00
  0.00000000E+00  0.00000000E+00  0.00000000E+00
  0.00000000E+00  0.00000000E+00  0.00000000E+00
  0.00000000E+00  0.00000000E+00  0.00000000E+00
  0.00000000E+00  0.00000000E+00  0.00000000E+00
  0.00000000E+00  0.00000000E+00  0.00000000E+00
  0.00000000E+00  0.00000000E+00  0.00000000E+00
  0.00000000E+00  0.00000000E+00  0.00000000E+00
  0.00000000E+00  0.00000000E+00  0.00000000E+00
  0.00000000E+00  0.00000000E+00  0.00000000E+00
  0.00000000E+00  0.00000000E+00  0.00000000E+00
  0.00000000E+00  0.00000000E+00  0.00000000E+00
