SrTiFeO                                 
   1.00000000000000     
    11.1989999999999998    0.0000000000000000    0.0000000000000000
     0.0000000000000000   11.1989999999999998    0.0000000000000000
     0.0000000000000000    0.0000000000000000   15.9830000000000005
   Sr   Ti   Fe   O 
    32    31     1    95
Direct
  0.9995831547422118  0.2505754625335050  0.1247829499109661
  0.0033518622336164  0.2502360060564615  0.6259530645460137
  0.9994088221032315  0.7498267751857759  0.1251752734962146
  0.9974943966983836  0.7499999329758194  0.6247853542568095
  0.5005305834350916  0.2504480197215900  0.1245996506772754
  0.4960128421902926  0.2461175914504340  0.6271125435986453
  0.5007722033960560  0.7499098825638694  0.1248779327233468
  0.5024625181381807  0.7529566123997713  0.6255022713479376
  0.0033518622336164  0.2502360060564615  0.3740469354539862
  0.9995831547422118  0.2505754625335050  0.8752170500890338
  0.9974943966983836  0.7499999329758194  0.3752146457431834
  0.9994088221032315  0.7498267751857759  0.8748247265037853
  0.4960128421902926  0.2461175914504340  0.3728874564013547
  0.5005305834350916  0.2504480197215900  0.8754003493227246
  0.5024625181381807  0.7529566123997713  0.3744977286520625
  0.5007722033960560  0.7499098825638694  0.8751220672766532
  0.2497085622884469  0.9998523017966717  0.1249384957942233
  0.2495535966396787  0.9998694996184504  0.6248644948064547
  0.2506942486530434  0.5002428365692121  0.1251982741990541
  0.2483328595408162  0.4981916733910501  0.6246264237927248
  0.7504154340777767  0.0002222873506018  0.1253421869046849
  0.7482957352964640  0.9951920090622071  0.6243040458655710
  0.7503840653379672  0.5010633032802809  0.1239644275355258
  0.7517963263924046  0.5038317727865302  0.6269923928628108
  0.2495535966396787  0.9998694996184504  0.3751355051935454
  0.2497085622884469  0.9998523017966717  0.8750615042057767
  0.2483328595408162  0.4981916733910501  0.3753735762072752
  0.2506942486530434  0.5002428365692121  0.8748017258009460
  0.7482957352964640  0.9951920090622071  0.3756959541344290
  0.7504154340777767  0.0002222873506018  0.8746578130953151
  0.7517963263924046  0.5038317727865302  0.3730076071371891
  0.7503840653379672  0.5010633032802809  0.8760355724644742
  0.9997290669323686  0.0002852796603599 -0.0000000000000000
  0.9997239947502830  0.9969993480671357  0.5000000000000000
  0.0003934911815901  0.4999699414667125 -0.0000000000000000
  0.9980806319773659  0.5019909325104202  0.5000000000000000
  0.4997260466429713  0.0000670025761286 -0.0000000000000000
  0.4998119110324137  0.9983885825352938  0.5000000000000000
  0.4994878367598883  0.5004946830450251 -0.0000000000000000
  0.2499979261029952  0.2497338703139349 -0.0000000000000000
  0.2498237679186931  0.2489802020494970  0.5000000000000000
  0.2501474420185099  0.7497518070529370 -0.0000000000000000
  0.2479165810975333  0.7509961896511207  0.5000000000000000
  0.7504483526999302  0.2495923592838180 -0.0000000000000000
  0.7499018446514710  0.7503812872372938 -0.0000000000000000
  0.2497811733242917  0.2498910038897545  0.2493820397029359
  0.2497811733242917  0.2498910038897545  0.7506179602970642
  0.2500242813787504  0.7496306715367235  0.2504822588191019
  0.2500242813787504  0.7496306715367235  0.7495177411808981
  0.7491907890276173  0.2506609014935068  0.2503404193453030
  0.7491907890276173  0.2506609014935068  0.7496595806546970
  0.7498304515283174  0.7501309218497182  0.2507577008727853
  0.7498304515283174  0.7501309218497182  0.7492422991272147
  0.9996967313257507  0.0001419734454912  0.2502350050646896
  0.9996967313257507  0.0001419734454912  0.7497649949353105
  0.0001035308253294  0.4999672975084884  0.2499138197979971
  0.0001035308253294  0.4999672975084884  0.7500861802020029
  0.4997203218780667  0.9998238894618060  0.2494740713441920
  0.4997203218780667  0.9998238894618060  0.7505259286558080
  0.5006516165088065  0.4991836734912710  0.2500580316657276
  0.5006516165088065  0.4991836734912710  0.7499419683342724
  0.7564857563121695  0.2463137729270385  0.5000000000000000
  0.4980935585538470  0.5076507874905339  0.5000000000000000
  0.7510809415155010  0.7490856840375627  0.5000000000000000
  0.1088290758483761  0.1412170800137210  0.2493066139057310
  0.1088290758483761  0.1412170800137210  0.7506933860942691
  0.1095031978794479  0.6406077335223995  0.2502258414339736
  0.1095031978794479  0.6406077335223995  0.7497741585660265
  0.6085593721807891  0.1411690633970297  0.2495467906206387
  0.6085593721807891  0.1411690633970297  0.7504532093793613
  0.6086307958630479  0.6403438659799722  0.2504442088692728
  0.6086307958630479  0.6403438659799722  0.7495557911307201
  0.3910176183525929  0.3584778218083051  0.2493395130031411
  0.3910176183525929  0.3584778218083051  0.7506604869968588
  0.3910198593009051  0.8586876004429248  0.2499139977399865
  0.3910198593009051  0.8586876004429248  0.7500860022600135
  0.8908334976961646  0.3589581398976058  0.2512076986194532
  0.8908334976961646  0.3589581398976058  0.7487923013805468
  0.8905368425288432  0.8602429019627977  0.2492060855953288
  0.8905368425288432  0.8602429019627977  0.7507939144046712
  0.3588090973621855  0.1090235888851947  0.2506476556901488
  0.3588090973621855  0.1090235888851947  0.7493523443098512
  0.3599106246661802  0.6081263999108592  0.2539609761584317
  0.3599106246661802  0.6081263999108592  0.7460390238415683
  0.8582597765482182  0.1101944170954835  0.2543368932090215
  0.8582597765482182  0.1101944170954835  0.7456631067909785
  0.8601342470026527  0.6095575552401190  0.2486685451805797
  0.8601342470026527  0.6095575552401190  0.7513314548194202
  0.1411810516735371  0.3908456244744290  0.2496966993392652
  0.1411810516735371  0.3908456244744290  0.7503033006607348
  0.1408025489414547  0.8907801199615837  0.2491836098055073
  0.1408025489414547  0.8907801199615837  0.7508163901944928
  0.6413047481945944  0.3913151981508829  0.2452217302245019
  0.6413047481945944  0.3913151981508829  0.7547782697754981
  0.6401813811515228  0.8911136686141945  0.2490615540302092
  0.6401813811515228  0.8911136686141945  0.7509384459697908
  0.3591853095064447  0.3907065478872321 -0.0000000000000000
  0.3587578822188949  0.8907729871150754 -0.0000000000000000
  0.3589257583023673  0.8903930452728763  0.5000000000000000
  0.8593986828642725  0.3905021615146176 -0.0000000000000000
  0.8593407339466161  0.8909189376652790 -0.0000000000000000
  0.8605218982870019  0.8937130809865929  0.5000000000000000
  0.1409290132648019  0.1087786869662101 -0.0000000000000000
  0.1406637759393702  0.1095138270598374  0.5000000000000000
  0.1409012005941351  0.6090147073150403 -0.0000000000000000
  0.1430958615833813  0.6082224150665156  0.5000000000000000
  0.6406680837513190  0.1093777697968905 -0.0000000000000000
  0.6356240521832962  0.1184424121678651  0.5000000000000000
  0.6402470643664318  0.6093096582439470 -0.0000000000000000
  0.1092715480784955  0.3588550210351796 -0.0000000000000000
  0.1105280397178716  0.3600457389405350  0.5000000000000000
  0.1092535779086020  0.8592233016717327 -0.0000000000000000
  0.1090796310080786  0.8584734081974634  0.5000000000000000
  0.6097487553882835  0.3597036937798901 -0.0000000000000000
  0.6088766830013629  0.8596880195156723 -0.0000000000000000
  0.6092572439092455  0.8622646839140599  0.5000000000000000
  0.3908173993683037  0.1409535204717338 -0.0000000000000000
  0.3885362001028695  0.1384908145358358  0.5000000000000000
  0.3907317755788786  0.6411958177439095 -0.0000000000000000
  0.8911933859129664  0.1408789913479320 -0.0000000000000000
  0.8929301286423492  0.1432572322435134  0.5000000000000000
  0.8908102499214211  0.6403868645796447 -0.0000000000000000
  0.9983533548903200  0.0015853152771577  0.1252184650278972
  0.0018602000022076  0.9999329444961982  0.6249952592042570
  0.0003297784431465  0.4991466380947017  0.1249334608606473
  0.0009234946200751  0.4994132814465882  0.6252288210676554
  0.4988935231605104  0.0004718444031237  0.1248319217956096
  0.5002586498721485  0.9999179218772896  0.6254177174911422
  0.4976267614814122  0.5017129571520764  0.1249795274867277
  0.5079324506685481  0.4895580550169625  0.6235358713178643
  0.0018602000022076  0.9999329444961982  0.3750047407957430
  0.9983533548903200  0.0015853152771577  0.8747815349721028
  0.0009234946200751  0.4994132814465882  0.3747711789323445
  0.0003297784431465  0.4991466380947017  0.8750665391393526
  0.5002586498721485  0.9999179218772896  0.3745822825088578
  0.4988935231605104  0.0004718444031237  0.8751680782043904
  0.4976267614814122  0.5017129571520764  0.8750204725132723
  0.2492878095605894  0.2505323891397346  0.3745544892617267
  0.2501560643779368  0.2494608685512228  0.8752087602092049
  0.2496193330105021  0.7511067076679731  0.3754392195605195
  0.2510944281344915  0.7481073510878530  0.8746157674222000
  0.7521443327717096  0.2478099831986035  0.8748405936298999
  0.7494286190006761  0.7498205720198770  0.8754679567791979
  0.2501560643779368  0.2494608685512228  0.1247912397907950
  0.2492878095605894  0.2505323891397346  0.6254455107382731
  0.2510944281344915  0.7481073510878530  0.1253842325778000
  0.2496193330105021  0.7511067076679731  0.6245607804394805
  0.7521443327717096  0.2478099831986035  0.1251594063701073
  0.7396452137547153  0.2589527466974107  0.6231171148540707
  0.7494286190006761  0.7498205720198770  0.1245320432208022
  0.7499533353142924  0.7505552943632601  0.6267769654687825
  0.7396452137547153  0.2589527466974107  0.3768828851459292
  0.8542100296514838  0.3939054324762722  0.5000000000000000
  0.3918054766224983  0.6418202842209172  0.5000000000000000
  0.5079324506685481  0.4895580550169625  0.3764641286821358
  0.3675365241670027  0.3852264346669079  0.5000000000000000
  0.8945860843571410  0.6413882597990155  0.5000000000000000
  0.7499533353142924  0.7505552943632601  0.3732230345312174
  0.6430844172785570  0.6014706153639406  0.5000000000000000
 
  0.00000000E+00  0.00000000E+00  0.00000000E+00
  0.00000000E+00  0.00000000E+00  0.00000000E+00
  0.00000000E+00  0.00000000E+00  0.00000000E+00
  0.00000000E+00  0.00000000E+00  0.00000000E+00
  0.00000000E+00  0.00000000E+00  0.00000000E+00
  0.00000000E+00  0.00000000E+00  0.00000000E+00
  0.00000000E+00  0.00000000E+00  0.00000000E+00
  0.00000000E+00  0.00000000E+00  0.00000000E+00
  0.00000000E+00  0.00000000E+00  0.00000000E+00
  0.00000000E+00  0.00000000E+00  0.00000000E+00
  0.00000000E+00  0.00000000E+00  0.00000000E+00
  0.00000000E+00  0.00000000E+00  0.00000000E+00
  0.00000000E+00  0.00000000E+00  0.00000000E+00
  0.00000000E+00  0.00000000E+00  0.00000000E+00
  0.00000000E+00  0.00000000E+00  0.00000000E+00
  0.00000000E+00  0.00000000E+00  0.00000000E+00
  0.00000000E+00  0.00000000E+00  0.00000000E+00
  0.00000000E+00  0.00000000E+00  0.00000000E+00
  0.00000000E+00  0.00000000E+00  0.00000000E+00
  0.00000000E+00  0.00000000E+00  0.00000000E+00
  0.00000000E+00  0.00000000E+00  0.00000000E+00
  0.00000000E+00  0.00000000E+00  0.00000000E+00
  0.00000000E+00  0.00000000E+00  0.00000000E+00
  0.00000000E+00  0.00000000E+00  0.00000000E+00
  0.00000000E+00  0.00000000E+00  0.00000000E+00
  0.00000000E+00  0.00000000E+00  0.00000000E+00
  0.00000000E+00  0.00000000E+00  0.00000000E+00
  0.00000000E+00  0.00000000E+00  0.00000000E+00
  0.00000000E+00  0.00000000E+00  0.00000000E+00
  0.00000000E+00  0.00000000E+00  0.00000000E+00
  0.00000000E+00  0.00000000E+00  0.00000000E+00
  0.00000000E+00  0.00000000E+00  0.00000000E+00
  0.00000000E+00  0.00000000E+00  0.00000000E+00
  0.00000000E+00  0.00000000E+00  0.00000000E+00
  0.00000000E+00  0.00000000E+00  0.00000000E+00
  0.00000000E+00  0.00000000E+00  0.00000000E+00
  0.00000000E+00  0.00000000E+00  0.00000000E+00
  0.00000000E+00  0.00000000E+00  0.00000000E+00
  0.00000000E+00  0.00000000E+00  0.00000000E+00
  0.00000000E+00  0.00000000E+00  0.00000000E+00
  0.00000000E+00  0.00000000E+00  0.00000000E+00
  0.00000000E+00  0.00000000E+00  0.00000000E+00
  0.00000000E+00  0.00000000E+00  0.00000000E+00
  0.00000000E+00  0.00000000E+00  0.00000000E+00
  0.00000000E+00  0.00000000E+00  0.00000000E+00
  0.00000000E+00  0.00000000E+00  0.00000000E+00
  0.00000000E+00  0.00000000E+00  0.00000000E+00
  0.00000000E+00  0.00000000E+00  0.00000000E+00
  0.00000000E+00  0.00000000E+00  0.00000000E+00
  0.00000000E+00  0.00000000E+00  0.00000000E+00
  0.00000000E+00  0.00000000E+00  0.00000000E+00
  0.00000000E+00  0.00000000E+00  0.00000000E+00
  0.00000000E+00  0.00000000E+00  0.00000000E+00
  0.00000000E+00  0.00000000E+00  0.00000000E+00
  0.00000000E+00  0.00000000E+00  0.00000000E+00
  0.00000000E+00  0.00000000E+00  0.00000000E+00
  0.00000000E+00  0.00000000E+00  0.00000000E+00
  0.00000000E+00  0.00000000E+00  0.00000000E+00
  0.00000000E+00  0.00000000E+00  0.00000000E+00
  0.00000000E+00  0.00000000E+00  0.00000000E+00
  0.00000000E+00  0.00000000E+00  0.00000000E+00
  0.00000000E+00  0.00000000E+00  0.00000000E+00
  0.00000000E+00  0.00000000E+00  0.00000000E+00
  0.00000000E+00  0.00000000E+00  0.00000000E+00
  0.00000000E+00  0.00000000E+00  0.00000000E+00
  0.00000000E+00  0.00000000E+00  0.00000000E+00
  0.00000000E+00  0.00000000E+00  0.00000000E+00
  0.00000000E+00  0.00000000E+00  0.00000000E+00
  0.00000000E+00  0.00000000E+00  0.00000000E+00
  0.00000000E+00  0.00000000E+00  0.00000000E+00
  0.00000000E+00  0.00000000E+00  0.00000000E+00
  0.00000000E+00  0.00000000E+00  0.00000000E+00
  0.00000000E+00  0.00000000E+00  0.00000000E+00
  0.00000000E+00  0.00000000E+00  0.00000000E+00
  0.00000000E+00  0.00000000E+00  0.00000000E+00
  0.00000000E+00  0.00000000E+00  0.00000000E+00
  0.00000000E+00  0.00000000E+00  0.00000000E+00
  0.00000000E+00  0.00000000E+00  0.00000000E+00
  0.00000000E+00  0.00000000E+00  0.00000000E+00
  0.00000000E+00  0.00000000E+00  0.00000000E+00
  0.00000000E+00  0.00000000E+00  0.00000000E+00
  0.00000000E+00  0.00000000E+00  0.00000000E+00
  0.00000000E+00  0.00000000E+00  0.00000000E+00
  0.00000000E+00  0.00000000E+00  0.00000000E+00
  0.00000000E+00  0.00000000E+00  0.00000000E+00
  0.00000000E+00  0.00000000E+00  0.00000000E+00
  0.00000000E+00  0.00000000E+00  0.00000000E+00
  0.00000000E+00  0.00000000E+00  0.00000000E+00
  0.00000000E+00  0.00000000E+00  0.00000000E+00
  0.00000000E+00  0.00000000E+00  0.00000000E+00
  0.00000000E+00  0.00000000E+00  0.00000000E+00
  0.00000000E+00  0.00000000E+00  0.00000000E+00
  0.00000000E+00  0.00000000E+00  0.00000000E+00
  0.00000000E+00  0.00000000E+00  0.00000000E+00
  0.00000000E+00  0.00000000E+00  0.00000000E+00
  0.00000000E+00  0.00000000E+00  0.00000000E+00
  0.00000000E+00  0.00000000E+00  0.00000000E+00
  0.00000000E+00  0.00000000E+00  0.00000000E+00
  0.00000000E+00  0.00000000E+00  0.00000000E+00
  0.00000000E+00  0.00000000E+00  0.00000000E+00
  0.00000000E+00  0.00000000E+00  0.00000000E+00
  0.00000000E+00  0.00000000E+00  0.00000000E+00
  0.00000000E+00  0.00000000E+00  0.00000000E+00
  0.00000000E+00  0.00000000E+00  0.00000000E+00
  0.00000000E+00  0.00000000E+00  0.00000000E+00
  0.00000000E+00  0.00000000E+00  0.00000000E+00
  0.00000000E+00  0.00000000E+00  0.00000000E+00
  0.00000000E+00  0.00000000E+00  0.00000000E+00
  0.00000000E+00  0.00000000E+00  0.00000000E+00
  0.00000000E+00  0.00000000E+00  0.00000000E+00
  0.00000000E+00  0.00000000E+00  0.00000000E+00
  0.00000000E+00  0.00000000E+00  0.00000000E+00
  0.00000000E+00  0.00000000E+00  0.00000000E+00
  0.00000000E+00  0.00000000E+00  0.00000000E+00
  0.00000000E+00  0.00000000E+00  0.00000000E+00
  0.00000000E+00  0.00000000E+00  0.00000000E+00
  0.00000000E+00  0.00000000E+00  0.00000000E+00
  0.00000000E+00  0.00000000E+00  0.00000000E+00
  0.00000000E+00  0.00000000E+00  0.00000000E+00
  0.00000000E+00  0.00000000E+00  0.00000000E+00
  0.00000000E+00  0.00000000E+00  0.00000000E+00
  0.00000000E+00  0.00000000E+00  0.00000000E+00
  0.00000000E+00  0.00000000E+00  0.00000000E+00
  0.00000000E+00  0.00000000E+00  0.00000000E+00
  0.00000000E+00  0.00000000E+00  0.00000000E+00
  0.00000000E+00  0.00000000E+00  0.00000000E+00
  0.00000000E+00  0.00000000E+00  0.00000000E+00
  0.00000000E+00  0.00000000E+00  0.00000000E+00
  0.00000000E+00  0.00000000E+00  0.00000000E+00
  0.00000000E+00  0.00000000E+00  0.00000000E+00
  0.00000000E+00  0.00000000E+00  0.00000000E+00
  0.00000000E+00  0.00000000E+00  0.00000000E+00
  0.00000000E+00  0.00000000E+00  0.00000000E+00
  0.00000000E+00  0.00000000E+00  0.00000000E+00
  0.00000000E+00  0.00000000E+00  0.00000000E+00
  0.00000000E+00  0.00000000E+00  0.00000000E+00
  0.00000000E+00  0.00000000E+00  0.00000000E+00
  0.00000000E+00  0.00000000E+00  0.00000000E+00
  0.00000000E+00  0.00000000E+00  0.00000000E+00
  0.00000000E+00  0.00000000E+00  0.00000000E+00
  0.00000000E+00  0.00000000E+00  0.00000000E+00
  0.00000000E+00  0.00000000E+00  0.00000000E+00
  0.00000000E+00  0.00000000E+00  0.00000000E+00
  0.00000000E+00  0.00000000E+00  0.00000000E+00
  0.00000000E+00  0.00000000E+00  0.00000000E+00
  0.00000000E+00  0.00000000E+00  0.00000000E+00
  0.00000000E+00  0.00000000E+00  0.00000000E+00
  0.00000000E+00  0.00000000E+00  0.00000000E+00
  0.00000000E+00  0.00000000E+00  0.00000000E+00
  0.00000000E+00  0.00000000E+00  0.00000000E+00
  0.00000000E+00  0.00000000E+00  0.00000000E+00
  0.00000000E+00  0.00000000E+00  0.00000000E+00
  0.00000000E+00  0.00000000E+00  0.00000000E+00
  0.00000000E+00  0.00000000E+00  0.00000000E+00
  0.00000000E+00  0.00000000E+00  0.00000000E+00
  0.00000000E+00  0.00000000E+00  0.00000000E+00
  0.00000000E+00  0.00000000E+00  0.00000000E+00
  0.00000000E+00  0.00000000E+00  0.00000000E+00
  0.00000000E+00  0.00000000E+00  0.00000000E+00
