SrTiFeO                                 
   1.00000000000000     
    11.1989999999999998    0.0000000000000000    0.0000000000000000
     0.0000000000000000   11.1989999999999998    0.0000000000000000
     0.0000000000000000    0.0000000000000000   15.9830000000000005
   Sr   Ti   Fe   O 
    32    31     1    94
Direct
  0.0001263693919326  0.2505511857335445  0.1249442848220781
  0.0009935478446872  0.2477851046522258  0.6243071803327427
  0.0016705955245579  0.7511476921402737  0.1240804524198287
  0.0047232472397964  0.7489090904217199  0.6255532837074141
  0.4996049800516559  0.2518759677072804  0.1259490843158761
  0.5012251274618579  0.2524942549240546  0.6226858359618540
  0.4980985133962751  0.7490644013161454  0.1240809968048522
  0.4949084849554171  0.7507661817323893  0.6289575104189646
  0.0019923624181982  0.2485899220821084  0.3756209031279839
  0.0003052256136566  0.2498097194923331  0.8750623875815124
  0.0073336850059065  0.7488872450547036  0.3753798687563937
  0.9996484798221260  0.7504580109864812  0.8743683450812985
  0.5005820480970956  0.2521183795587252  0.3772744105927678
  0.4996282977840106  0.2517598744489842  0.8744345284458561
  0.4885574263313293  0.7493933852960110  0.3718565604856276
  0.4983014546058944  0.7504170397760640  0.8765736148795736
  0.2500170202276453  0.0010111056281536  0.1251225707535680
  0.2487134465039424  0.0011236472858427  0.6248097618051742
  0.2519300279992656  0.5004469728989791  0.1253152834331700
  0.2508109647128183  0.5000036033134804  0.6231575819812932
  0.7496789968642662  0.0017230464833166  0.1238404265855814
  0.7518070975534683  0.0045996932734843  0.6263830982843551
  0.7495437335926138  0.4988984198596920  0.1239998836698495
  0.7543985275819634  0.4912561662446306  0.6295243241717570
  0.2488621316333159  0.0018380796548887  0.3753116408494349
  0.2498280338933196  0.0007166299723483  0.8749203206006519
  0.2519725010809876  0.4991611669245342  0.3767195747970368
  0.2512483261831112  0.4998849783858119  0.8748904795049216
  0.7514791349482935  0.0090333862780407  0.3733452963262559
  0.7496141361621315  0.9997042689121255  0.8751787141601713
  0.7540900362576042  0.4866480366926956  0.3721103740981007
  0.7485486504995504  0.4997583045835874  0.8754449169586743
  0.9994619784404650  0.9996711518831919  0.0000325215554464
  0.0010997648380548  0.0006933615476397  0.4994402604096984
  0.9999003035210263  0.5002274613304154  0.9999519705406184
  0.9995084284519898  0.4974945079692610  0.4992278182446684
  0.5001290218357337  0.0003245338324034  0.0001751350846683
  0.4986142177705063  0.9989139049697486  0.4994893479089488
  0.4997072436524927  0.4999669753278738  0.0000802577755604
  0.2503926091969220  0.2506542105715920  0.0002901565250107
  0.2504846590129421  0.2503343147794408  0.5003298895244001
  0.2496761958098999  0.7500537814812520  0.9998779044752791
  0.2516811274961699  0.7503840426228923  0.5006204626210886
  0.7501869406222587  0.2499525992773961  0.9997654803061639
  0.7503922919638197  0.7505337602305886  0.9975354267361434
  0.2506489246768087  0.2503667555674867  0.2499575086048753
  0.2505778493001696  0.2501874920266156  0.7492282138844526
  0.2493528634983465  0.7504020235481621  0.2493072673275027
  0.2495933371082922  0.7500279547774110  0.7505460160776878
  0.7502372965738149  0.2494198026188049  0.2487132259375643
  0.7500664353538495  0.2489465679832844  0.7507461194517878
  0.7505417828496492  0.7505350113368963  0.2449479541455571
  0.7488380223497978  0.7485470686657116  0.7500924708595187
  0.0008170756151726  0.0005472642249819  0.2503350434407294
  0.9996812654936552  0.9991375530192258  0.7498900424295565
  0.0012187209038027  0.5000857517127555  0.2501708633415027
  0.0005114687062503  0.5001342475791392  0.7502639555654664
  0.5001331107680448  0.0004876113571944  0.2505463236962369
  0.5003582725626032  1.0001506618957707  0.7499526422234113
  0.5018739605443013  0.5011998093627809  0.2528667396032858
  0.5011947423957744  0.5014188145202058  0.7482674638979476
  0.7496086068136643  0.2498911807807848  0.5003367981047289
  0.7527096155125639  0.7570317674652626  0.5029724122530673
  0.4952930353724480  0.4965219330857076  0.5008670569243722
  0.1099091130485249  0.1408452775603490  0.2455608111904795
  0.1092882512392739  0.1402618543375697  0.7516140137476657
  0.1094233185828073  0.6409008594059259  0.2487629882573901
  0.1084748177206064  0.6412149661292160  0.7507919500054060
  0.6101606622081089  0.1401904718388646  0.2500790317958007
  0.6089829090207928  0.1406623136556698  0.7496194896516232
  0.6120911505550639  0.6435637597974060  0.2514322079651559
  0.6089936765381276  0.6420816170643170  0.7585749703948730
  0.3908526706124456  0.3608038550375772  0.2532102701377145
  0.3911394715033540  0.3603802077922181  0.7459562799117102
  0.3897432009634921  0.8605576170775993  0.2487059286349015
  0.3900338889736689  0.8598295046432113  0.7511958912036883
  0.8895954600861352  0.3610040568701767  0.2512307043512580
  0.8905847107412106  0.3594450316197741  0.7482646756088409
  0.8886839585044848  0.8589818042311049  0.2585083277031510
  0.8897010985459969  0.8576958489711295  0.7457996716507456
  0.3602519335734840  0.1101822953360249  0.2485510883654153
  0.3600704211088231  0.1093625700750586  0.7499615739619105
  0.3603741007301930  0.6112090207561716  0.2513738652252893
  0.3586960149515605  0.6100057280968095  0.7491743281517859
  0.8601579760295626  0.1099286907159383  0.2481596843619106
  0.8588498884018304  0.1084563955289952  0.7515307881826691
  0.8589782228392194  0.6120297453716728  0.2580437208694121
  0.8585976907955176  0.6083334090414616  0.7525558299823120
  0.1410683455216503  0.3911917665276398  0.2478665965709808
  0.1405983095549172  0.3915630620813438  0.7481529063351497
  0.1399039601355509  0.8901042031131732  0.2487116755224354
  0.1398318850370626  0.8904551816034102  0.7510889446136477
  0.6414834825818400  0.3896190797160564  0.2470157393100348
  0.6415533226431478  0.3897733895923972  0.7518856677786940
  0.6417551621798185  0.8893556109085651  0.2566645700898116
  0.6413607145294945  0.8907789786515052  0.7488405681325285
  0.3591614921667924  0.3908370372003633  0.0009642374214378
  0.3594637125065943  0.8908945924364085  0.0002900361450731
  0.3555471453607419  0.8945287452980346  0.5000078283603648
  0.8592506029435216  0.3908713935018119  0.9999067276655292
  0.8587164593449951  0.8914165138924039  0.0003989153162587
  0.8604747076712377  0.8936617570244068  0.4912652745804406
  0.1404383138875930  0.1095609468328220  0.0003555454418306
  0.1404032611801517  0.1088695263347238  0.5012113059865857
  0.1404375904728152  0.6091208444272019  0.0007043932221263
  0.1333944975743794  0.6132962516117180  0.4999655963836951
  0.6411922849588565  0.1092085537817973  0.9999096467187413
  0.6408186354339758  0.1062128777357659  0.5001285151436120
  0.6411553555382326  0.6102659007654356  0.9994006120826713
  0.1090980532296830  0.3595270587728321  0.0011376161134804
  0.1076152811140880  0.3594495483318396  0.5022157413855959
  0.1093232662403345  0.8590935977332205  0.9998432050689101
  0.1070906269681831  0.8598147628443878  0.5004044063612177
  0.6098269159153318  0.3593172739109448  0.0006852711588323
  0.6094034742018131  0.8590127211078601  0.0002376771718813
  0.6024932601746892  0.8471242197131643  0.4934660112747205
  0.3910761278653762  0.1404867459472875  0.0003389594212917
  0.3921013112338106  0.1403499749951009  0.5007239295464841
  0.3902587579446455  0.6410415943470393  0.0000717770290206
  0.8912212052445236  0.1407712461583913  0.0003211295523808
  0.8906741005417907  0.1389922580028986  0.4997491645694476
  0.8908396111289382  0.6410628861399814  0.9991507129157486
  0.9972627726896749  0.9954190114789365  0.1251271299269557
  0.9983572173662709  0.0002329220783316  0.6255269787910916
  0.9953923594991643  0.5023384746562564  0.1256722950325781
  0.9957732495331318  0.5066694036331474  0.6243186030798406
  0.5035486793736018  0.9982832537630711  0.1255227464659329
  0.5019508367883300  0.9964569673412601  0.6243485594406367
  0.5003092750956064  0.5022306011000279  0.1251707177341892
  0.5137729311935314  0.5118954110865712  0.6273441048757712
  0.0063656219028421  0.0063910249415107  0.3731936516547740
  0.9982466526453873  0.9976612907722646  0.8751816399887153
  0.0058593735590993  0.4960245946169989  0.3745923218912243
  0.0011446224837692  0.4982098657409117  0.8750784170086735
  0.4970360162344437  0.0024080555787473  0.3749834570324461
  0.5009729981509414  0.9997084594858288  0.8750593100135726
  0.4972486725377433  0.4972930591555327  0.8760382971931155
  0.2458398123490729  0.2466775576487095  0.3740599432148903
  0.2515143059383771  0.2522152671472812  0.8748367700768536
  0.2479456721322429  0.7515203500207985  0.3743120961669574
  0.2498720511067004  0.7495495618592896  0.8754350004643967
  0.7510525359988941  0.2495713775240520  0.8753347825237421
  0.7534607979606829  0.7544877877970095  0.8752649316958024
  0.2527880034548741  0.2514576970572499  0.1246781035101502
  0.2481799898824913  0.2471191085242396  0.6258134990876665
  0.2502605089046727  0.7496599025194535  0.1246806439867642
  0.2468384852014052  0.7520263083173875  0.6262062516857356
  0.7513472645483411  0.2493893512768211  0.1244293978572836
  0.7505779136714748  0.2468034940599774  0.6260424556223000
  0.7531036996082506  0.7514966510449953  0.1244709518258290
  0.7398021748087958  0.7350466981215384  0.6250322077308273
  0.7505311937821099  0.2480602734523912  0.3738869406246269
  0.8640365149578083  0.3851261322834707  0.5005292788375912
  0.3872818093192146  0.6474018608319120  0.5015834359008927
  0.5118325222228765  0.5054422143998490  0.3735602460885123
  0.3514462620703269  0.3860505676430341  0.4995830240358305
  0.8702894540513654  0.6289757875990400  0.4885081474231359
  0.6203581284252455  0.3620638143793176  0.4998264206170957
 
  0.00000000E+00  0.00000000E+00  0.00000000E+00
  0.00000000E+00  0.00000000E+00  0.00000000E+00
  0.00000000E+00  0.00000000E+00  0.00000000E+00
  0.00000000E+00  0.00000000E+00  0.00000000E+00
  0.00000000E+00  0.00000000E+00  0.00000000E+00
  0.00000000E+00  0.00000000E+00  0.00000000E+00
  0.00000000E+00  0.00000000E+00  0.00000000E+00
  0.00000000E+00  0.00000000E+00  0.00000000E+00
  0.00000000E+00  0.00000000E+00  0.00000000E+00
  0.00000000E+00  0.00000000E+00  0.00000000E+00
  0.00000000E+00  0.00000000E+00  0.00000000E+00
  0.00000000E+00  0.00000000E+00  0.00000000E+00
  0.00000000E+00  0.00000000E+00  0.00000000E+00
  0.00000000E+00  0.00000000E+00  0.00000000E+00
  0.00000000E+00  0.00000000E+00  0.00000000E+00
  0.00000000E+00  0.00000000E+00  0.00000000E+00
  0.00000000E+00  0.00000000E+00  0.00000000E+00
  0.00000000E+00  0.00000000E+00  0.00000000E+00
  0.00000000E+00  0.00000000E+00  0.00000000E+00
  0.00000000E+00  0.00000000E+00  0.00000000E+00
  0.00000000E+00  0.00000000E+00  0.00000000E+00
  0.00000000E+00  0.00000000E+00  0.00000000E+00
  0.00000000E+00  0.00000000E+00  0.00000000E+00
  0.00000000E+00  0.00000000E+00  0.00000000E+00
  0.00000000E+00  0.00000000E+00  0.00000000E+00
  0.00000000E+00  0.00000000E+00  0.00000000E+00
  0.00000000E+00  0.00000000E+00  0.00000000E+00
  0.00000000E+00  0.00000000E+00  0.00000000E+00
  0.00000000E+00  0.00000000E+00  0.00000000E+00
  0.00000000E+00  0.00000000E+00  0.00000000E+00
  0.00000000E+00  0.00000000E+00  0.00000000E+00
  0.00000000E+00  0.00000000E+00  0.00000000E+00
  0.00000000E+00  0.00000000E+00  0.00000000E+00
  0.00000000E+00  0.00000000E+00  0.00000000E+00
  0.00000000E+00  0.00000000E+00  0.00000000E+00
  0.00000000E+00  0.00000000E+00  0.00000000E+00
  0.00000000E+00  0.00000000E+00  0.00000000E+00
  0.00000000E+00  0.00000000E+00  0.00000000E+00
  0.00000000E+00  0.00000000E+00  0.00000000E+00
  0.00000000E+00  0.00000000E+00  0.00000000E+00
  0.00000000E+00  0.00000000E+00  0.00000000E+00
  0.00000000E+00  0.00000000E+00  0.00000000E+00
  0.00000000E+00  0.00000000E+00  0.00000000E+00
  0.00000000E+00  0.00000000E+00  0.00000000E+00
  0.00000000E+00  0.00000000E+00  0.00000000E+00
  0.00000000E+00  0.00000000E+00  0.00000000E+00
  0.00000000E+00  0.00000000E+00  0.00000000E+00
  0.00000000E+00  0.00000000E+00  0.00000000E+00
  0.00000000E+00  0.00000000E+00  0.00000000E+00
  0.00000000E+00  0.00000000E+00  0.00000000E+00
  0.00000000E+00  0.00000000E+00  0.00000000E+00
  0.00000000E+00  0.00000000E+00  0.00000000E+00
  0.00000000E+00  0.00000000E+00  0.00000000E+00
  0.00000000E+00  0.00000000E+00  0.00000000E+00
  0.00000000E+00  0.00000000E+00  0.00000000E+00
  0.00000000E+00  0.00000000E+00  0.00000000E+00
  0.00000000E+00  0.00000000E+00  0.00000000E+00
  0.00000000E+00  0.00000000E+00  0.00000000E+00
  0.00000000E+00  0.00000000E+00  0.00000000E+00
  0.00000000E+00  0.00000000E+00  0.00000000E+00
  0.00000000E+00  0.00000000E+00  0.00000000E+00
  0.00000000E+00  0.00000000E+00  0.00000000E+00
  0.00000000E+00  0.00000000E+00  0.00000000E+00
  0.00000000E+00  0.00000000E+00  0.00000000E+00
  0.00000000E+00  0.00000000E+00  0.00000000E+00
  0.00000000E+00  0.00000000E+00  0.00000000E+00
  0.00000000E+00  0.00000000E+00  0.00000000E+00
  0.00000000E+00  0.00000000E+00  0.00000000E+00
  0.00000000E+00  0.00000000E+00  0.00000000E+00
  0.00000000E+00  0.00000000E+00  0.00000000E+00
  0.00000000E+00  0.00000000E+00  0.00000000E+00
  0.00000000E+00  0.00000000E+00  0.00000000E+00
  0.00000000E+00  0.00000000E+00  0.00000000E+00
  0.00000000E+00  0.00000000E+00  0.00000000E+00
  0.00000000E+00  0.00000000E+00  0.00000000E+00
  0.00000000E+00  0.00000000E+00  0.00000000E+00
  0.00000000E+00  0.00000000E+00  0.00000000E+00
  0.00000000E+00  0.00000000E+00  0.00000000E+00
  0.00000000E+00  0.00000000E+00  0.00000000E+00
  0.00000000E+00  0.00000000E+00  0.00000000E+00
  0.00000000E+00  0.00000000E+00  0.00000000E+00
  0.00000000E+00  0.00000000E+00  0.00000000E+00
  0.00000000E+00  0.00000000E+00  0.00000000E+00
  0.00000000E+00  0.00000000E+00  0.00000000E+00
  0.00000000E+00  0.00000000E+00  0.00000000E+00
  0.00000000E+00  0.00000000E+00  0.00000000E+00
  0.00000000E+00  0.00000000E+00  0.00000000E+00
  0.00000000E+00  0.00000000E+00  0.00000000E+00
  0.00000000E+00  0.00000000E+00  0.00000000E+00
  0.00000000E+00  0.00000000E+00  0.00000000E+00
  0.00000000E+00  0.00000000E+00  0.00000000E+00
  0.00000000E+00  0.00000000E+00  0.00000000E+00
  0.00000000E+00  0.00000000E+00  0.00000000E+00
  0.00000000E+00  0.00000000E+00  0.00000000E+00
  0.00000000E+00  0.00000000E+00  0.00000000E+00
  0.00000000E+00  0.00000000E+00  0.00000000E+00
  0.00000000E+00  0.00000000E+00  0.00000000E+00
  0.00000000E+00  0.00000000E+00  0.00000000E+00
  0.00000000E+00  0.00000000E+00  0.00000000E+00
  0.00000000E+00  0.00000000E+00  0.00000000E+00
  0.00000000E+00  0.00000000E+00  0.00000000E+00
  0.00000000E+00  0.00000000E+00  0.00000000E+00
  0.00000000E+00  0.00000000E+00  0.00000000E+00
  0.00000000E+00  0.00000000E+00  0.00000000E+00
  0.00000000E+00  0.00000000E+00  0.00000000E+00
  0.00000000E+00  0.00000000E+00  0.00000000E+00
  0.00000000E+00  0.00000000E+00  0.00000000E+00
  0.00000000E+00  0.00000000E+00  0.00000000E+00
  0.00000000E+00  0.00000000E+00  0.00000000E+00
  0.00000000E+00  0.00000000E+00  0.00000000E+00
  0.00000000E+00  0.00000000E+00  0.00000000E+00
  0.00000000E+00  0.00000000E+00  0.00000000E+00
  0.00000000E+00  0.00000000E+00  0.00000000E+00
  0.00000000E+00  0.00000000E+00  0.00000000E+00
  0.00000000E+00  0.00000000E+00  0.00000000E+00
  0.00000000E+00  0.00000000E+00  0.00000000E+00
  0.00000000E+00  0.00000000E+00  0.00000000E+00
  0.00000000E+00  0.00000000E+00  0.00000000E+00
  0.00000000E+00  0.00000000E+00  0.00000000E+00
  0.00000000E+00  0.00000000E+00  0.00000000E+00
  0.00000000E+00  0.00000000E+00  0.00000000E+00
  0.00000000E+00  0.00000000E+00  0.00000000E+00
  0.00000000E+00  0.00000000E+00  0.00000000E+00
  0.00000000E+00  0.00000000E+00  0.00000000E+00
  0.00000000E+00  0.00000000E+00  0.00000000E+00
  0.00000000E+00  0.00000000E+00  0.00000000E+00
  0.00000000E+00  0.00000000E+00  0.00000000E+00
  0.00000000E+00  0.00000000E+00  0.00000000E+00
  0.00000000E+00  0.00000000E+00  0.00000000E+00
  0.00000000E+00  0.00000000E+00  0.00000000E+00
  0.00000000E+00  0.00000000E+00  0.00000000E+00
  0.00000000E+00  0.00000000E+00  0.00000000E+00
  0.00000000E+00  0.00000000E+00  0.00000000E+00
  0.00000000E+00  0.00000000E+00  0.00000000E+00
  0.00000000E+00  0.00000000E+00  0.00000000E+00
  0.00000000E+00  0.00000000E+00  0.00000000E+00
  0.00000000E+00  0.00000000E+00  0.00000000E+00
  0.00000000E+00  0.00000000E+00  0.00000000E+00
  0.00000000E+00  0.00000000E+00  0.00000000E+00
  0.00000000E+00  0.00000000E+00  0.00000000E+00
  0.00000000E+00  0.00000000E+00  0.00000000E+00
  0.00000000E+00  0.00000000E+00  0.00000000E+00
  0.00000000E+00  0.00000000E+00  0.00000000E+00
  0.00000000E+00  0.00000000E+00  0.00000000E+00
  0.00000000E+00  0.00000000E+00  0.00000000E+00
  0.00000000E+00  0.00000000E+00  0.00000000E+00
  0.00000000E+00  0.00000000E+00  0.00000000E+00
  0.00000000E+00  0.00000000E+00  0.00000000E+00
  0.00000000E+00  0.00000000E+00  0.00000000E+00
  0.00000000E+00  0.00000000E+00  0.00000000E+00
  0.00000000E+00  0.00000000E+00  0.00000000E+00
  0.00000000E+00  0.00000000E+00  0.00000000E+00
  0.00000000E+00  0.00000000E+00  0.00000000E+00
  0.00000000E+00  0.00000000E+00  0.00000000E+00
  0.00000000E+00  0.00000000E+00  0.00000000E+00
  0.00000000E+00  0.00000000E+00  0.00000000E+00
  0.00000000E+00  0.00000000E+00  0.00000000E+00
  0.00000000E+00  0.00000000E+00  0.00000000E+00
