Sr   Ti   Fe   O                        
   1.00000000000000     
    11.1989999999999998    0.0000000000000000    0.0000000000000000
     0.0000000000000000   11.1989999999999998    0.0000000000000000
     0.0000000000000000    0.0000000000000000   15.9830000000000005
   Sr   Ti   Fe   O 
    32    31     1    94
Direct
  0.0008562024672233  0.2492034074970093  0.1251932321823949
  0.9993625659648075  0.2485471950653998  0.6241548688468899
  0.9981959310208389  0.7509655300617295  0.1258467038803756
  0.9958198195746605  0.7504093509762955  0.6239096117312694
  0.5001700239265791  0.2495425243212811  0.1248010717364488
  0.5027245244628576  0.2403162167298501  0.6259430462832491
  0.4997834963228820  0.7516161488308661  0.1243081676579040
  0.4981157004321395  0.7560723397251667  0.6275552785836208
  0.9985675077017562  0.2498599438204255  0.3757613393006813
  0.0013990741288525  0.2494914276533052  0.8743703576611841
  0.9923517694297739  0.7491635201732959  0.3790851324230480
  0.9993129236201601  0.7501619531738176  0.8750737150325811
  0.5016598991032748  0.2444037359577430  0.3718007350666535
  0.4995908365660414  0.2480873399434573  0.8758912475810630
  0.4972319412375736  0.7525659403606048  0.3705338459384099
  0.5017840696713016  0.7541602689077495  0.8770988102133326
  0.2498557986053987  0.0008580120020761  0.1249315904855720
  0.2484843778508170  0.9982531318854403  0.6253431603369199
  0.2496570799019222  0.4998237577861953  0.1250214117305109
  0.2384222936558723  0.5021967326696206  0.6262765463488695
  0.7499435763498985  0.9987061553917883  0.1251241729623731
  0.7517547781472022  0.9949515501092283  0.6240581261950855
  0.7497668704371783  0.5011643785181155  0.1247769135786885
  0.7658810290199971  0.4963245043253202  0.6296017120665411
  0.2479011681264644  0.9973825045310726  0.3742126165345005
  0.2504897364490719  0.0014252296691432  0.8747548207581023
  0.2420216395167620  0.5050478085291007  0.3732419420496320
  0.2487602125098127  0.5004009510182412  0.8765295634242681
  0.7497110178138333  0.9966884378930964  0.3747310254431355
  0.7515581165314688  0.9990846963791878  0.8751579384800716
  0.7565085138662362  0.4970018127559699  0.3712300259815176
  0.7524754267812043  0.5013215909446638  0.8763318697996889
  0.0004408887050684  0.0005845823949778  0.9998192711380101
  0.9954667883892653  0.9972844258861917  0.4992702373092409
  0.0002443988523566  0.4999202480378576  0.0005053288402051
  0.9969809585729664  0.5009163305221629  0.4999330338035262
  0.5000289533378274  1.0005191989297344  0.0001833277888791
  0.5011919840631768  0.9956713440920694  0.4994076225354354
  0.4997476055644892  0.4999038536343320  0.0031809821397108
  0.2504058858093445  0.2504127929477700  0.9999752871195161
  0.2477196286390514  0.2435898600532110  0.4997737518898496
  0.2499033467457624  0.7497633589929590  1.0000763086953204
  0.2480810687112693  0.7505458104110220  0.4998543903633274
  0.7504042756042314  0.2502832661599749  0.9999919165536281
  0.7483445210554446  0.2477684492627625  0.4998155681065889
  0.7506412878689299  0.7504837447630884  0.0003629176045637
  0.2506545375461461  0.2514844602416178  0.2501593564043911
  0.2522572185558243  0.2517820227829657  0.7484326389883523
  0.2483287561718070  0.7500574871814355  0.2497432379292744
  0.2504452368289728  0.7503007509500940  0.7497573315864260
  0.7500737678447792  0.2489200458220831  0.2494285049596486
  0.7501364578885513  0.2489112795009719  0.7499822047071977
  0.7477935169328230  0.7483025187387403  0.2520375045444200
  0.7505895511985563  0.7506362437065293  0.7499352685648554
  0.9998593195221017 -0.0001726683327944  0.2506756858364393
  0.0009467839673247  0.0001145114165068  0.7501432612895492
  0.9995768365438303  0.4999336418693902  0.2492972432215921
  0.0011737139687863  0.4997893726348669  0.7518461631159483
  0.4990705958810718 -0.0000984386905830  0.2493823275872609
  0.5006051134033219  1.0000513534849738  0.7507010922721163
  0.4996672015477407  0.4996927142226121  0.2499094277884251
  0.5030467316240380  0.5024246098364786  0.7569764462009805
  0.4999323402176889  0.4985544506862621  0.4971236646795288
  0.7471401925586232  0.7512832622358016  0.5024148145596384
  0.1108206144363405  0.1422478663992698  0.2522112089493174
  0.1119007355572868  0.1414691473502779  0.7480875633650123
  0.1081283579059372  0.6409014734404568  0.2515327006908432
  0.1119922229084122  0.6392705686309939  0.7490868881062520
  0.6095310470483045  0.1397752627259704  0.2482312340355064
  0.6101386888652099  0.1406793921074878  0.7516431459714018
  0.6064316210672145  0.6393463753521439  0.2437161749565017
  0.3918667448539560  0.3593755571790565  0.2477353228696709
  0.3938023299348919  0.3644151810500056  0.7418567199334937
  0.3891095872564967  0.8599428755933476  0.2487607842792988
  0.3891909699582111  0.8614307942397175  0.7520300745964063
  0.8905268689746685  0.3588888851790285  0.2508819806879461
  0.8901152957730670  0.3602750220740286  0.7495320310087460
  0.8894160839047889  0.8596692500117589  0.2533147286575996
  0.8923499141575760  0.8620022421294564  0.7546159045171251
  0.3592048825309336  0.1102849905206314  0.2507808838621294
  0.3613741565019020  0.1120057935375505  0.7490958262560975
  0.3579631307416963  0.6092605132310226  0.2500753706699924
  0.3647486068130065  0.6093648042116948  0.7400622936526229
  0.8594509378880211  0.1091975156656134  0.2494593559302171
  0.8602267720760092  0.1107895444629594  0.7504639003011840
  0.8592552226766763  0.6075849467045269  0.2478604594503961
  0.8631615942447388  0.6100980253563473  0.7536129557648608
  0.1410149578411965  0.3915507797286304  0.2494360917885804
  0.1417143485825066  0.3907213177461135  0.7523277078753656
  0.1402453082875905  0.8911078257316335  0.2480933451951650
  0.1415392744134032  0.8903194987785884  0.7516445487029174
  0.6413458107763947  0.3903702684482654  0.2488441851205312
  0.6384832969141678  0.8901857961829676  0.2494495059360023
  0.6391651894888021  0.8915912860278725  0.7526547583009144
  0.3587760552666007  0.3912209518474509  0.0001435921450768
  0.3591899345972878  0.8902944547135094  0.9993226254454689
  0.3565060625416110  0.8908660380169156  0.4999473042131961
  0.8593017058761638  0.3911890638631203  0.0001152679333467
  0.8631242896973880  0.3831719711939177  0.4992049812559868
  0.8606904591536495  0.8916930726986128  0.9998879384174739
  0.8633216178086113  0.8942446329436009  0.4956746491082876
  0.1415660241344028  0.1099346212916354  1.0001003839268074
  0.1419151775417217  0.1108618747192889  0.4997720388900345
  0.1410335114980054  0.6088296094716533  1.0000549187290051
  0.1308256146683794  0.6161754732944429  0.4994201106104059
  0.6408996075382132  0.1098274160767324  0.9996356889989912
  0.6430091017200625  0.1041335488131743  0.5000008882171593
  0.6397246047397285  0.6088252252250653  0.9995526793258750
  0.1096012732191715  0.3589289345242543  0.9996463190174724
  0.1212503913358911  0.3670213986297418  0.4996291454043182
  0.1098935141588020  0.8590944794219950  0.9988890374324227
  0.1092164154202305  0.8610032313062855  0.4993016250229248
  0.6088461944900611  0.3596202360744266 -0.0003438532974658
  0.6092280320329916  0.8605632238782184  0.0005421186188322
  0.5988316905969109  0.8537346787201605  0.4986705282702140
  0.3908962453175668  0.1411664127274505  0.0004954218300677
  0.3931546777901324  0.1447646696233516  0.4997765432495492
  0.3912255394833873  0.6404989622465647  0.0000577177406777
  0.3772794545249632  0.6279679677123218  0.4973388920568130
  0.8908891486035416  0.1416250497925964  0.9990550436485229
  0.8915785273223241  0.1409482909165302  0.4998166835222316
  0.8912616177815617  0.6400029907683176  1.0001064443077303
  0.0003304159558596  0.0011058265023552  0.1250470383109807
  0.0003145468876953 -0.0007943129287214  0.6256059824966544
  0.0011571147707121  0.4991131326643437  0.1249237926901751
  0.0032542187125691  0.4968017234204686  0.6261390098982229
  0.4984893364544308  0.0005012467495028  0.1246723078066448
  0.4997041326435121  0.0007525685634428  0.6255490151891899
  0.4981947227186848  0.4980272557537502  0.1240044647607480
  0.0035946935897081  0.0033386553825600  0.3739818426317618
  0.0027165683253643  0.0039274026808812  0.8753982921139265
 -0.0011116539358625  0.4986454525444809  0.3744718352091182
  0.0015596948155359  0.4990626911063188  0.8757845881110892
  0.4984390226673230  0.0004639301477375  0.3741768137972764
  0.4985139233131473  0.0017105441135070  0.8757101664559739
  0.4956408093607383  0.4968643597108049  0.8745332065503519
  0.2588339218825849  0.2606393748782009  0.3766289638076998
  0.2543124346239937  0.2515846556536882  0.8741753535255253
  0.2492639743809271  0.7523284462680969  0.3741784348914545
  0.2528218412779674  0.7442849408686500  0.8739933199045230
  0.7488887948877176  0.2479196796708019  0.3742804584285511
  0.7484941525468676  0.2536102978936504  0.8743100206864447
  0.7388314098688474  0.7366420916299010  0.3709522276126258
  0.7507701334461064  0.7512625797020202  0.8774992157328677
  0.2499226354140160  0.2500604044942212  0.1250974607299583
  0.2532977637593211  0.2555167502535208  0.6236104857815797
  0.2490670627787648  0.7489646621953852  0.1244870855461055
  0.2480565925402448  0.7531882334394727  0.6247004399779443
  0.7508476855948217  0.2500326281218897  0.1243670689681341
  0.7497956228609469  0.2477302901241783  0.6247892522967520
  0.7516694922648161  0.7513722028808825  0.1240717654700615
  0.6387740031714582  0.3923560698551666  0.7445970611058490
  0.6098962854718880  0.6406576605310834  0.7564544502208354
  0.5013654488954897  0.5001009441015061  0.3733086442881670
  0.6045610414617552  0.3541899932389500  0.4977103778916475
  0.7552600183648441  0.7548552339051549  0.6322053907418007
  0.8793778149760080  0.6268357951218270  0.5023751372846498
  0.5753250481000658  0.5644250901776851  0.5886889576372052
 
  0.00000000E+00  0.00000000E+00  0.00000000E+00
  0.00000000E+00  0.00000000E+00  0.00000000E+00
  0.00000000E+00  0.00000000E+00  0.00000000E+00
  0.00000000E+00  0.00000000E+00  0.00000000E+00
  0.00000000E+00  0.00000000E+00  0.00000000E+00
  0.00000000E+00  0.00000000E+00  0.00000000E+00
  0.00000000E+00  0.00000000E+00  0.00000000E+00
  0.00000000E+00  0.00000000E+00  0.00000000E+00
  0.00000000E+00  0.00000000E+00  0.00000000E+00
  0.00000000E+00  0.00000000E+00  0.00000000E+00
  0.00000000E+00  0.00000000E+00  0.00000000E+00
  0.00000000E+00  0.00000000E+00  0.00000000E+00
  0.00000000E+00  0.00000000E+00  0.00000000E+00
  0.00000000E+00  0.00000000E+00  0.00000000E+00
  0.00000000E+00  0.00000000E+00  0.00000000E+00
  0.00000000E+00  0.00000000E+00  0.00000000E+00
  0.00000000E+00  0.00000000E+00  0.00000000E+00
  0.00000000E+00  0.00000000E+00  0.00000000E+00
  0.00000000E+00  0.00000000E+00  0.00000000E+00
  0.00000000E+00  0.00000000E+00  0.00000000E+00
  0.00000000E+00  0.00000000E+00  0.00000000E+00
  0.00000000E+00  0.00000000E+00  0.00000000E+00
  0.00000000E+00  0.00000000E+00  0.00000000E+00
  0.00000000E+00  0.00000000E+00  0.00000000E+00
  0.00000000E+00  0.00000000E+00  0.00000000E+00
  0.00000000E+00  0.00000000E+00  0.00000000E+00
  0.00000000E+00  0.00000000E+00  0.00000000E+00
  0.00000000E+00  0.00000000E+00  0.00000000E+00
  0.00000000E+00  0.00000000E+00  0.00000000E+00
  0.00000000E+00  0.00000000E+00  0.00000000E+00
  0.00000000E+00  0.00000000E+00  0.00000000E+00
  0.00000000E+00  0.00000000E+00  0.00000000E+00
  0.00000000E+00  0.00000000E+00  0.00000000E+00
  0.00000000E+00  0.00000000E+00  0.00000000E+00
  0.00000000E+00  0.00000000E+00  0.00000000E+00
  0.00000000E+00  0.00000000E+00  0.00000000E+00
  0.00000000E+00  0.00000000E+00  0.00000000E+00
  0.00000000E+00  0.00000000E+00  0.00000000E+00
  0.00000000E+00  0.00000000E+00  0.00000000E+00
  0.00000000E+00  0.00000000E+00  0.00000000E+00
  0.00000000E+00  0.00000000E+00  0.00000000E+00
  0.00000000E+00  0.00000000E+00  0.00000000E+00
  0.00000000E+00  0.00000000E+00  0.00000000E+00
  0.00000000E+00  0.00000000E+00  0.00000000E+00
  0.00000000E+00  0.00000000E+00  0.00000000E+00
  0.00000000E+00  0.00000000E+00  0.00000000E+00
  0.00000000E+00  0.00000000E+00  0.00000000E+00
  0.00000000E+00  0.00000000E+00  0.00000000E+00
  0.00000000E+00  0.00000000E+00  0.00000000E+00
  0.00000000E+00  0.00000000E+00  0.00000000E+00
  0.00000000E+00  0.00000000E+00  0.00000000E+00
  0.00000000E+00  0.00000000E+00  0.00000000E+00
  0.00000000E+00  0.00000000E+00  0.00000000E+00
  0.00000000E+00  0.00000000E+00  0.00000000E+00
  0.00000000E+00  0.00000000E+00  0.00000000E+00
  0.00000000E+00  0.00000000E+00  0.00000000E+00
  0.00000000E+00  0.00000000E+00  0.00000000E+00
  0.00000000E+00  0.00000000E+00  0.00000000E+00
  0.00000000E+00  0.00000000E+00  0.00000000E+00
  0.00000000E+00  0.00000000E+00  0.00000000E+00
  0.00000000E+00  0.00000000E+00  0.00000000E+00
  0.00000000E+00  0.00000000E+00  0.00000000E+00
  0.00000000E+00  0.00000000E+00  0.00000000E+00
  0.00000000E+00  0.00000000E+00  0.00000000E+00
  0.00000000E+00  0.00000000E+00  0.00000000E+00
  0.00000000E+00  0.00000000E+00  0.00000000E+00
  0.00000000E+00  0.00000000E+00  0.00000000E+00
  0.00000000E+00  0.00000000E+00  0.00000000E+00
  0.00000000E+00  0.00000000E+00  0.00000000E+00
  0.00000000E+00  0.00000000E+00  0.00000000E+00
  0.00000000E+00  0.00000000E+00  0.00000000E+00
  0.00000000E+00  0.00000000E+00  0.00000000E+00
  0.00000000E+00  0.00000000E+00  0.00000000E+00
  0.00000000E+00  0.00000000E+00  0.00000000E+00
  0.00000000E+00  0.00000000E+00  0.00000000E+00
  0.00000000E+00  0.00000000E+00  0.00000000E+00
  0.00000000E+00  0.00000000E+00  0.00000000E+00
  0.00000000E+00  0.00000000E+00  0.00000000E+00
  0.00000000E+00  0.00000000E+00  0.00000000E+00
  0.00000000E+00  0.00000000E+00  0.00000000E+00
  0.00000000E+00  0.00000000E+00  0.00000000E+00
  0.00000000E+00  0.00000000E+00  0.00000000E+00
  0.00000000E+00  0.00000000E+00  0.00000000E+00
  0.00000000E+00  0.00000000E+00  0.00000000E+00
  0.00000000E+00  0.00000000E+00  0.00000000E+00
  0.00000000E+00  0.00000000E+00  0.00000000E+00
  0.00000000E+00  0.00000000E+00  0.00000000E+00
  0.00000000E+00  0.00000000E+00  0.00000000E+00
  0.00000000E+00  0.00000000E+00  0.00000000E+00
  0.00000000E+00  0.00000000E+00  0.00000000E+00
  0.00000000E+00  0.00000000E+00  0.00000000E+00
  0.00000000E+00  0.00000000E+00  0.00000000E+00
  0.00000000E+00  0.00000000E+00  0.00000000E+00
  0.00000000E+00  0.00000000E+00  0.00000000E+00
  0.00000000E+00  0.00000000E+00  0.00000000E+00
  0.00000000E+00  0.00000000E+00  0.00000000E+00
  0.00000000E+00  0.00000000E+00  0.00000000E+00
  0.00000000E+00  0.00000000E+00  0.00000000E+00
  0.00000000E+00  0.00000000E+00  0.00000000E+00
  0.00000000E+00  0.00000000E+00  0.00000000E+00
  0.00000000E+00  0.00000000E+00  0.00000000E+00
  0.00000000E+00  0.00000000E+00  0.00000000E+00
  0.00000000E+00  0.00000000E+00  0.00000000E+00
  0.00000000E+00  0.00000000E+00  0.00000000E+00
  0.00000000E+00  0.00000000E+00  0.00000000E+00
  0.00000000E+00  0.00000000E+00  0.00000000E+00
  0.00000000E+00  0.00000000E+00  0.00000000E+00
  0.00000000E+00  0.00000000E+00  0.00000000E+00
  0.00000000E+00  0.00000000E+00  0.00000000E+00
  0.00000000E+00  0.00000000E+00  0.00000000E+00
  0.00000000E+00  0.00000000E+00  0.00000000E+00
  0.00000000E+00  0.00000000E+00  0.00000000E+00
  0.00000000E+00  0.00000000E+00  0.00000000E+00
  0.00000000E+00  0.00000000E+00  0.00000000E+00
  0.00000000E+00  0.00000000E+00  0.00000000E+00
  0.00000000E+00  0.00000000E+00  0.00000000E+00
  0.00000000E+00  0.00000000E+00  0.00000000E+00
  0.00000000E+00  0.00000000E+00  0.00000000E+00
  0.00000000E+00  0.00000000E+00  0.00000000E+00
  0.00000000E+00  0.00000000E+00  0.00000000E+00
  0.00000000E+00  0.00000000E+00  0.00000000E+00
  0.00000000E+00  0.00000000E+00  0.00000000E+00
  0.00000000E+00  0.00000000E+00  0.00000000E+00
  0.00000000E+00  0.00000000E+00  0.00000000E+00
  0.00000000E+00  0.00000000E+00  0.00000000E+00
  0.00000000E+00  0.00000000E+00  0.00000000E+00
  0.00000000E+00  0.00000000E+00  0.00000000E+00
  0.00000000E+00  0.00000000E+00  0.00000000E+00
  0.00000000E+00  0.00000000E+00  0.00000000E+00
  0.00000000E+00  0.00000000E+00  0.00000000E+00
  0.00000000E+00  0.00000000E+00  0.00000000E+00
  0.00000000E+00  0.00000000E+00  0.00000000E+00
  0.00000000E+00  0.00000000E+00  0.00000000E+00
  0.00000000E+00  0.00000000E+00  0.00000000E+00
  0.00000000E+00  0.00000000E+00  0.00000000E+00
  0.00000000E+00  0.00000000E+00  0.00000000E+00
  0.00000000E+00  0.00000000E+00  0.00000000E+00
  0.00000000E+00  0.00000000E+00  0.00000000E+00
  0.00000000E+00  0.00000000E+00  0.00000000E+00
  0.00000000E+00  0.00000000E+00  0.00000000E+00
  0.00000000E+00  0.00000000E+00  0.00000000E+00
  0.00000000E+00  0.00000000E+00  0.00000000E+00
  0.00000000E+00  0.00000000E+00  0.00000000E+00
  0.00000000E+00  0.00000000E+00  0.00000000E+00
  0.00000000E+00  0.00000000E+00  0.00000000E+00
  0.00000000E+00  0.00000000E+00  0.00000000E+00
  0.00000000E+00  0.00000000E+00  0.00000000E+00
  0.00000000E+00  0.00000000E+00  0.00000000E+00
  0.00000000E+00  0.00000000E+00  0.00000000E+00
  0.00000000E+00  0.00000000E+00  0.00000000E+00
  0.00000000E+00  0.00000000E+00  0.00000000E+00
  0.00000000E+00  0.00000000E+00  0.00000000E+00
  0.00000000E+00  0.00000000E+00  0.00000000E+00
  0.00000000E+00  0.00000000E+00  0.00000000E+00
  0.00000000E+00  0.00000000E+00  0.00000000E+00
  0.00000000E+00  0.00000000E+00  0.00000000E+00
  0.00000000E+00  0.00000000E+00  0.00000000E+00
  0.00000000E+00  0.00000000E+00  0.00000000E+00
