SrTiFeO                                 
   1.00000000000000     
    11.1989999999999998    0.0000000000000000    0.0000000000000000
     0.0000000000000000   11.1989999999999998    0.0000000000000000
     0.0000000000000000    0.0000000000000000   15.9830000000000005
   Sr   Ti   Fe   O 
    32    31     1    94
Direct
  0.0009510659471699  0.2497698590142535  0.1251345981853778
 -0.0007535056081826  0.2509945560195153  0.6246356918666709
  0.9982484911310233  0.7503724219151695  0.1256447507606705
  0.9953811444596073  0.7482644203858302  0.6222845400248781
  0.5003870819686724  0.2502003564582219  0.1242443147219955
  0.5035875146237796  0.2474511608869570  0.6275387002074866
  0.5000906356449800  0.7504367917966759  0.1241995644323987
  0.4983580998354606  0.7523566827607974  0.6275350178027430
 -0.0007535056081826  0.2509945560195153  0.3753643081333290
  0.0009510659471699  0.2497698590142535  0.8748654018146212
  0.9953811444596073  0.7482644203858302  0.3777154599751223
  0.9982484911310233  0.7503724219151695  0.8743552492393299
  0.5035875146237796  0.2474511608869570  0.3724612997925124
  0.5003870819686724  0.2502003564582219  0.8757556852780048
  0.4983580998354606  0.7523566827607974  0.3724649821972580
  0.5000906356449800  0.7504367917966759  0.8758004355676010
  0.2502315198046872  0.0002633646682359  0.1248437335000148
  0.2488958205073934  0.9972657291109350  0.6271768828203561
  0.2507960054838815  0.4999101826088035  0.1242233300285136
  0.2442837127453913  0.5036618628101305  0.6279008505513278
  0.7495813298381919  0.9987907067175029  0.1251726204844788
  0.7492597241808133  0.9973202480302672  0.6242466059619526
  0.7490984227488235  0.5009346536253206  0.1244878261891153
  0.7556862643543226  0.4965297986834047  0.6272956644726788
  0.2488958205073934  0.9972657291109350  0.3728231171796503
  0.2502315198046872  0.0002633646682359  0.8751562664999857
  0.2442837127453913  0.5036618628101305  0.3720991494486728
  0.2507960054838815  0.4999101826088035  0.8757766699714856
  0.7492597241808133  0.9973202480302672  0.3757533940380474
  0.7495813298381919  0.9987907067175029  0.8748273795155210
  0.7556862643543226  0.4965297986834047  0.3727043355273222
  0.7490984227488235  0.5009346536253206  0.8755121738108849
 -0.0003285116108335  0.0000572505197134  0.0000000000000000
  0.9951258455186890  0.9964588887067938  0.5000000000000000
  0.0000540279053567  0.5002507892393736  0.0000000000000000
  0.9994792821852283  0.5012817817428746  0.5000000000000000
  0.4999623848008000  0.0002760519803579  0.0000000000000000
  0.4999639930596609  0.9980611196492947  0.5000000000000000
  0.4997461951540031  0.4999828810118550  0.0000000000000000
  0.2497974328370343  0.2497924267653824  0.0000000000000000
  0.2468508548197664  0.2409494250426590  0.5000000000000000
  0.2492390692228202  0.7500491873431335  0.0000000000000000
  0.2491510474654062  0.7517235508917183  0.5000000000000000
  0.7506713216172333  0.2501476719360373  0.0000000000000000
  0.7510845961697188  0.2482100277761507  0.5000000000000000
  0.7500770503320070  0.7503478103512404  0.0000000000000000
  0.2511245714467071  0.2507815896575046  0.2500730100730463
  0.2511245714467071  0.2507815896575046  0.7499269899269533
  0.2489032995895565  0.7500244509253533  0.2495559155555755
  0.2489032995895565  0.7500244509253533  0.7504440844444247
  0.7504669463815873  0.2491469876861009  0.2494891900104882
  0.7504669463815873  0.2491469876861009  0.7505108099895109
  0.7485547423682355  0.7484625190505870  0.2521858992615807
  0.7485547423682355  0.7484625190505870  0.7478141007384194
  0.9996318836822401  0.9997530126465622  0.2507420790682259
  0.9996318836822401  0.9997530126465622  0.7492579209317738
  1.0001401746055063  0.4997161744981174  0.2492711946468911
  1.0001401746055063  0.4997161744981174  0.7507288053531154
  0.4997743597661046  1.0000589158423727  0.2497613947639205
  0.4997743597661046  1.0000589158423727  0.7502386052360871
  0.5000210161726110  0.5000304940855196  0.2497429090388021
  0.5000210161726110  0.5000304940855196  0.7502570909611981
  0.4995192984699105  0.5002351239577592  0.5000000000000000
  0.7471930634706536  0.7505039569102319  0.5000000000000000
  0.1107036998021158  0.1417909255503830  0.2528478041609691
  0.1107036998021158  0.1417909255503830  0.7471521958390313
  0.1087082400629178  0.6409621444057699  0.2514482118078170
  0.1087082400629178  0.6409621444057699  0.7485517881921830
  0.6098895286067316  0.1403395634321822  0.2486404524773565
  0.6098895286067316  0.1403395634321822  0.7513595475226442
  0.6073090536689055  0.6396524105974356  0.2462269738659095
  0.3921479122981530  0.3596637332345192  0.2485862093199929
  0.3921479122981530  0.3596637332345192  0.7514137906800066
  0.3894770238724973  0.8600744705610871  0.2492265512582303
  0.3894770238724973  0.8600744705610871  0.7507734487417694
  0.8912461882032336  0.3587230938634504  0.2507647490444852
  0.8912461882032336  0.3587230938634504  0.7492352509555144
  0.8897158167390216  0.8591325593603271  0.2536176833952155
  0.8897158167390216  0.8591325593603271  0.7463823166047843
  0.3592951153085586  0.1102245267604592  0.2499612131260678
  0.3592951153085586  0.1102245267604592  0.7500387868739323
  0.3584687424376397  0.6091684306650349  0.2501771009045122
  0.3584687424376397  0.6091684306650349  0.7498228990954885
  0.8593818032414566  0.1087828779721567  0.2502409075695791
  0.8593818032414566  0.1087828779721567  0.7497590924304210
  0.8593403845637493  0.6078322031890573  0.2487706880219544
  0.8593403845637493  0.6078322031890573  0.7512293119780450
  0.1417833883531282  0.3912129036184328  0.2487508595153249
  0.1417833883531282  0.3912129036184328  0.7512491404846753
  0.1403112843979310  0.8908472509541454  0.2487888114635738
  0.1403112843979310  0.8908472509541454  0.7512111885364261
  0.6414904158484241  0.3906681103889539  0.2504483737305870
  0.6393759390640711  0.8903588623513929  0.2505216053175682
  0.6393759390640711  0.8903588623513929  0.7494783946824325
  0.3590265326690906  0.3900960854827965  0.0000000000000000
  0.3589379161943363  0.8904677526460899  0.0000000000000000
  0.3532204117923229  0.8966267325005229  0.5000000000000000
  0.8594109875440851  0.3911582124323063  0.0000000000000000
  0.8662451109069783  0.3838070492791353  0.5000000000000000
  0.8595802716641797  0.8916553911034797  0.0000000000000000
  0.8618218727061246  0.8954535028872995  0.5000000000000000
  0.1407463142271105  0.1088424597885768  0.0000000000000000
  0.1444590207890986  0.1096927039275798  0.5000000000000000
  0.1408524603296994  0.6088927444179159  0.0000000000000000
  0.1399482046179444  0.6128027964982838  0.5000000000000000
  0.6409357003367455  0.1096008032831876  0.0000000000000000
  0.6421762558223244  0.1099578279816808  0.5000000000000000
  0.6401992442947921  0.6098090990777109  0.0000000000000000
  0.1093379293253950  0.3588714376714119  0.0000000000000000
  0.1251054998080774  0.3667880817616944  0.5000000000000000
  0.1086517722129009  0.8590910873748975  0.0000000000000000
  0.1084875468632762  0.8590118849408130  0.5000000000000000
  0.6098408654915551  0.3594625523820365  0.0000000000000000
  0.6091340259564954  0.8598951903057110  0.0000000000000000
  0.5974774366387118  0.8603059899134197  0.5000000000000000
  0.3906972845838018  0.1407484469391406  0.0000000000000000
  0.3963557607911387  0.1524401156133098  0.5000000000000000
  0.3902607448615966  0.6404870849839557  0.0000000000000000
  0.3914299603221310  0.6397807596787711  0.5000000000000000
  0.8913946627461082  0.1412899516393883  0.0000000000000000
  0.8932644847339684  0.1420179842293029  0.5000000000000000
  0.8910590984063919  0.6407237930537735  0.0000000000000000
 -0.0003582882598034  0.0005465591383466  0.1256262104330373
  0.0024921916993750  0.0017946632869757  0.6249390320410175
  0.0008303688843836  0.4997334008537971  0.1248372044232955
  0.0019984307296241  0.4975919914613211  0.6258584350476706
  0.4993848232811435  0.0002413919989014  0.1247556009148451
  0.4978874954779127  0.0027117383555834  0.6257511401419003
  0.4992792749803305  0.4988460918967964  0.1244752603454768
  0.0024921916993750  0.0017946632869757  0.3750609679589830
 -0.0003582882598034  0.0005465591383466  0.8743737895669558
  0.0019984307296241  0.4975919914613211  0.3741415649523297
  0.0008303688843836  0.4997334008537971  0.8751627955767045
  0.4978874954779127  0.0027117383555834  0.3742488598580999
  0.4993848232811435  0.0002413919989014  0.8752443990851546
  0.4992792749803305  0.4988460918967964  0.8755247396545235
  0.2585618379330054  0.2595287779867845  0.3765645775060385
  0.2497005072176728  0.2490676152015343  0.8749064861473452
  0.2503765473685038  0.7515494788353458  0.3747975643127308
  0.2491218445796129  0.7491688192558736  0.8750831878996775
  0.7502696143975089  0.2489958284709581  0.3747831779283433
  0.7511454940217391  0.2503328488154064  0.8750429236924478
  0.7409947628925921  0.7389737068815214  0.3732680874939036
  0.7511972632736529  0.7514411118067876  0.8753071491970160
  0.2497005072176728  0.2490676152015343  0.1250935138526552
  0.2585618379330054  0.2595287779867845  0.6234354224939616
  0.2491218445796129  0.7491688192558736  0.1249168121003233
  0.2503765473685038  0.7515494788353458  0.6252024356872685
  0.7511454940217391  0.2503328488154064  0.1249570763075518
  0.7502696143975089  0.2489958284709581  0.6252168220716573
  0.7511972632736529  0.7514411118067876  0.1246928508029839
  0.6414904158484241  0.3906681103889539  0.7495516262694131
  0.6073090536689055  0.6396524105974356  0.7537730261340909
  0.5007620322350655  0.5010310599757181  0.3764224438243523
  0.6137631309075980  0.3659248021748787  0.5000000000000000
  0.7409947628925921  0.7389737068815214  0.6267319125060956
  0.8886144233197230  0.6289975501852604  0.5000000000000000
  0.5007620322350655  0.5010310599757181  0.6235775561756471
 
  0.00000000E+00  0.00000000E+00  0.00000000E+00
  0.00000000E+00  0.00000000E+00  0.00000000E+00
  0.00000000E+00  0.00000000E+00  0.00000000E+00
  0.00000000E+00  0.00000000E+00  0.00000000E+00
  0.00000000E+00  0.00000000E+00  0.00000000E+00
  0.00000000E+00  0.00000000E+00  0.00000000E+00
  0.00000000E+00  0.00000000E+00  0.00000000E+00
  0.00000000E+00  0.00000000E+00  0.00000000E+00
  0.00000000E+00  0.00000000E+00  0.00000000E+00
  0.00000000E+00  0.00000000E+00  0.00000000E+00
  0.00000000E+00  0.00000000E+00  0.00000000E+00
  0.00000000E+00  0.00000000E+00  0.00000000E+00
  0.00000000E+00  0.00000000E+00  0.00000000E+00
  0.00000000E+00  0.00000000E+00  0.00000000E+00
  0.00000000E+00  0.00000000E+00  0.00000000E+00
  0.00000000E+00  0.00000000E+00  0.00000000E+00
  0.00000000E+00  0.00000000E+00  0.00000000E+00
  0.00000000E+00  0.00000000E+00  0.00000000E+00
  0.00000000E+00  0.00000000E+00  0.00000000E+00
  0.00000000E+00  0.00000000E+00  0.00000000E+00
  0.00000000E+00  0.00000000E+00  0.00000000E+00
  0.00000000E+00  0.00000000E+00  0.00000000E+00
  0.00000000E+00  0.00000000E+00  0.00000000E+00
  0.00000000E+00  0.00000000E+00  0.00000000E+00
  0.00000000E+00  0.00000000E+00  0.00000000E+00
  0.00000000E+00  0.00000000E+00  0.00000000E+00
  0.00000000E+00  0.00000000E+00  0.00000000E+00
  0.00000000E+00  0.00000000E+00  0.00000000E+00
  0.00000000E+00  0.00000000E+00  0.00000000E+00
  0.00000000E+00  0.00000000E+00  0.00000000E+00
  0.00000000E+00  0.00000000E+00  0.00000000E+00
  0.00000000E+00  0.00000000E+00  0.00000000E+00
  0.00000000E+00  0.00000000E+00  0.00000000E+00
  0.00000000E+00  0.00000000E+00  0.00000000E+00
  0.00000000E+00  0.00000000E+00  0.00000000E+00
  0.00000000E+00  0.00000000E+00  0.00000000E+00
  0.00000000E+00  0.00000000E+00  0.00000000E+00
  0.00000000E+00  0.00000000E+00  0.00000000E+00
  0.00000000E+00  0.00000000E+00  0.00000000E+00
  0.00000000E+00  0.00000000E+00  0.00000000E+00
  0.00000000E+00  0.00000000E+00  0.00000000E+00
  0.00000000E+00  0.00000000E+00  0.00000000E+00
  0.00000000E+00  0.00000000E+00  0.00000000E+00
  0.00000000E+00  0.00000000E+00  0.00000000E+00
  0.00000000E+00  0.00000000E+00  0.00000000E+00
  0.00000000E+00  0.00000000E+00  0.00000000E+00
  0.00000000E+00  0.00000000E+00  0.00000000E+00
  0.00000000E+00  0.00000000E+00  0.00000000E+00
  0.00000000E+00  0.00000000E+00  0.00000000E+00
  0.00000000E+00  0.00000000E+00  0.00000000E+00
  0.00000000E+00  0.00000000E+00  0.00000000E+00
  0.00000000E+00  0.00000000E+00  0.00000000E+00
  0.00000000E+00  0.00000000E+00  0.00000000E+00
  0.00000000E+00  0.00000000E+00  0.00000000E+00
  0.00000000E+00  0.00000000E+00  0.00000000E+00
  0.00000000E+00  0.00000000E+00  0.00000000E+00
  0.00000000E+00  0.00000000E+00  0.00000000E+00
  0.00000000E+00  0.00000000E+00  0.00000000E+00
  0.00000000E+00  0.00000000E+00  0.00000000E+00
  0.00000000E+00  0.00000000E+00  0.00000000E+00
  0.00000000E+00  0.00000000E+00  0.00000000E+00
  0.00000000E+00  0.00000000E+00  0.00000000E+00
  0.00000000E+00  0.00000000E+00  0.00000000E+00
  0.00000000E+00  0.00000000E+00  0.00000000E+00
  0.00000000E+00  0.00000000E+00  0.00000000E+00
  0.00000000E+00  0.00000000E+00  0.00000000E+00
  0.00000000E+00  0.00000000E+00  0.00000000E+00
  0.00000000E+00  0.00000000E+00  0.00000000E+00
  0.00000000E+00  0.00000000E+00  0.00000000E+00
  0.00000000E+00  0.00000000E+00  0.00000000E+00
  0.00000000E+00  0.00000000E+00  0.00000000E+00
  0.00000000E+00  0.00000000E+00  0.00000000E+00
  0.00000000E+00  0.00000000E+00  0.00000000E+00
  0.00000000E+00  0.00000000E+00  0.00000000E+00
  0.00000000E+00  0.00000000E+00  0.00000000E+00
  0.00000000E+00  0.00000000E+00  0.00000000E+00
  0.00000000E+00  0.00000000E+00  0.00000000E+00
  0.00000000E+00  0.00000000E+00  0.00000000E+00
  0.00000000E+00  0.00000000E+00  0.00000000E+00
  0.00000000E+00  0.00000000E+00  0.00000000E+00
  0.00000000E+00  0.00000000E+00  0.00000000E+00
  0.00000000E+00  0.00000000E+00  0.00000000E+00
  0.00000000E+00  0.00000000E+00  0.00000000E+00
  0.00000000E+00  0.00000000E+00  0.00000000E+00
  0.00000000E+00  0.00000000E+00  0.00000000E+00
  0.00000000E+00  0.00000000E+00  0.00000000E+00
  0.00000000E+00  0.00000000E+00  0.00000000E+00
  0.00000000E+00  0.00000000E+00  0.00000000E+00
  0.00000000E+00  0.00000000E+00  0.00000000E+00
  0.00000000E+00  0.00000000E+00  0.00000000E+00
  0.00000000E+00  0.00000000E+00  0.00000000E+00
  0.00000000E+00  0.00000000E+00  0.00000000E+00
  0.00000000E+00  0.00000000E+00  0.00000000E+00
  0.00000000E+00  0.00000000E+00  0.00000000E+00
  0.00000000E+00  0.00000000E+00  0.00000000E+00
  0.00000000E+00  0.00000000E+00  0.00000000E+00
  0.00000000E+00  0.00000000E+00  0.00000000E+00
  0.00000000E+00  0.00000000E+00  0.00000000E+00
  0.00000000E+00  0.00000000E+00  0.00000000E+00
  0.00000000E+00  0.00000000E+00  0.00000000E+00
  0.00000000E+00  0.00000000E+00  0.00000000E+00
  0.00000000E+00  0.00000000E+00  0.00000000E+00
  0.00000000E+00  0.00000000E+00  0.00000000E+00
  0.00000000E+00  0.00000000E+00  0.00000000E+00
  0.00000000E+00  0.00000000E+00  0.00000000E+00
  0.00000000E+00  0.00000000E+00  0.00000000E+00
  0.00000000E+00  0.00000000E+00  0.00000000E+00
  0.00000000E+00  0.00000000E+00  0.00000000E+00
  0.00000000E+00  0.00000000E+00  0.00000000E+00
  0.00000000E+00  0.00000000E+00  0.00000000E+00
  0.00000000E+00  0.00000000E+00  0.00000000E+00
  0.00000000E+00  0.00000000E+00  0.00000000E+00
  0.00000000E+00  0.00000000E+00  0.00000000E+00
  0.00000000E+00  0.00000000E+00  0.00000000E+00
  0.00000000E+00  0.00000000E+00  0.00000000E+00
  0.00000000E+00  0.00000000E+00  0.00000000E+00
  0.00000000E+00  0.00000000E+00  0.00000000E+00
  0.00000000E+00  0.00000000E+00  0.00000000E+00
  0.00000000E+00  0.00000000E+00  0.00000000E+00
  0.00000000E+00  0.00000000E+00  0.00000000E+00
  0.00000000E+00  0.00000000E+00  0.00000000E+00
  0.00000000E+00  0.00000000E+00  0.00000000E+00
  0.00000000E+00  0.00000000E+00  0.00000000E+00
  0.00000000E+00  0.00000000E+00  0.00000000E+00
  0.00000000E+00  0.00000000E+00  0.00000000E+00
  0.00000000E+00  0.00000000E+00  0.00000000E+00
  0.00000000E+00  0.00000000E+00  0.00000000E+00
  0.00000000E+00  0.00000000E+00  0.00000000E+00
  0.00000000E+00  0.00000000E+00  0.00000000E+00
  0.00000000E+00  0.00000000E+00  0.00000000E+00
  0.00000000E+00  0.00000000E+00  0.00000000E+00
  0.00000000E+00  0.00000000E+00  0.00000000E+00
  0.00000000E+00  0.00000000E+00  0.00000000E+00
  0.00000000E+00  0.00000000E+00  0.00000000E+00
  0.00000000E+00  0.00000000E+00  0.00000000E+00
  0.00000000E+00  0.00000000E+00  0.00000000E+00
  0.00000000E+00  0.00000000E+00  0.00000000E+00
  0.00000000E+00  0.00000000E+00  0.00000000E+00
  0.00000000E+00  0.00000000E+00  0.00000000E+00
  0.00000000E+00  0.00000000E+00  0.00000000E+00
  0.00000000E+00  0.00000000E+00  0.00000000E+00
  0.00000000E+00  0.00000000E+00  0.00000000E+00
  0.00000000E+00  0.00000000E+00  0.00000000E+00
  0.00000000E+00  0.00000000E+00  0.00000000E+00
  0.00000000E+00  0.00000000E+00  0.00000000E+00
  0.00000000E+00  0.00000000E+00  0.00000000E+00
  0.00000000E+00  0.00000000E+00  0.00000000E+00
  0.00000000E+00  0.00000000E+00  0.00000000E+00
  0.00000000E+00  0.00000000E+00  0.00000000E+00
  0.00000000E+00  0.00000000E+00  0.00000000E+00
  0.00000000E+00  0.00000000E+00  0.00000000E+00
  0.00000000E+00  0.00000000E+00  0.00000000E+00
  0.00000000E+00  0.00000000E+00  0.00000000E+00
  0.00000000E+00  0.00000000E+00  0.00000000E+00
  0.00000000E+00  0.00000000E+00  0.00000000E+00
  0.00000000E+00  0.00000000E+00  0.00000000E+00
  0.00000000E+00  0.00000000E+00  0.00000000E+00
  0.00000000E+00  0.00000000E+00  0.00000000E+00
