SrTiFeO                                 
   1.00000000000000     
    11.1989999999999998    0.0000000000000000    0.0000000000000000
     0.0000000000000000   11.1989999999999998    0.0000000000000000
     0.0000000000000000    0.0000000000000000   15.9830000000000005
   Sr   Ti   Fe   O 
    32    31     1    94
Direct
  0.0011210193311255  0.2495507885253565  0.1250749358131863
  0.9986959351537938  0.2505501657172016  0.6252845633418649
  0.9993522028125590  0.7502750172269591  0.1250406712030007
  0.9960410658507184  0.7519765187924969  0.6237196834350234
  0.5003449175425273  0.2483840959433396  0.1235635464582292
  0.5015932364524188  0.2418460911052316  0.6272599894647056
  0.5009853264643422  0.7507824022466721  0.1252092889233604
  0.5027287866866399  0.7557320125956359  0.6235286207175822
  0.9980741183590015  0.2513462121387401  0.3748299880033439
  0.0011477022197236  0.2496749491481713  0.8746065013287901
  0.9949078266972884  0.7512815878430126  0.3766645018224183
  0.9997666676020708  0.7500706760559368  0.8749654039003804
  0.5020707644593436  0.2455137580744076  0.3716419897056811
  0.4993803390521754  0.2477428969100803  0.8760077904665527
  0.5010709750168301  0.7554619405576928  0.3741834954737365
  0.5016314558191928  0.7521262764763909  0.8754022774602878
  0.2497223646278558  0.0006798099912666  0.1246680000720832
  0.2489724411930798  0.9969210391124337  0.6262085241204322
  0.2494074434443688  0.4990632535470657  0.1244621375867892
  0.2399045991032260  0.5027417364703778  0.6268204453949378
  0.7506775813919799  0.9994910071269534  0.1251499340233543
  0.7506084980144235  0.9959735338801978  0.6242280081001668
  0.7503195644719161  0.5002324180769159  0.1248435821527998
  0.7604426232221589  0.5027116280015244  0.6267347718400313
  0.2495461449519941  0.9960134602289336  0.3738961604428987
  0.2500720120518326  0.0010361744092186  0.8750357789375488
  0.2419590483021221  0.5041005896424089  0.3711587711664994
  0.2484941232769822  0.4999750363146083  0.8759441075446226
  0.7494720054745760  0.9955802497735324  0.3757431797548147
  0.7510284057319948  0.9992593998530748  0.8748509820143519
  0.7562641117778172  0.5043498114292758  0.3747798166618729
  0.7520576678504248  0.5000601424433945  0.8758920091686014
  0.0004409807825048  0.0005350857419799  0.9996790411110821
  0.9952292248057856  0.9978658246666917  0.4994390858216411
  0.0003245561558476  0.5000109676185995  0.0002090416109752
  0.9984636260033976  0.5024504868082580  0.4997823876518382
  0.4999645222801092  0.9996729242291168  1.0000026180850625
  0.5016671214273793  0.9986539004508052  0.4997340682867355
  0.5003502275860036  0.5002152719675901  0.0021148976779054
  0.2501657878459068  0.2499381246209114  0.9997820687359720
  0.2457525278559792  0.2414727612366037  0.4999260719502140
  0.2502437165966864  0.7498294697827127  0.9999316622228787
  0.2486159716118448  0.7499419557577653  0.5005266639523049
  0.7499965457019024  0.2503341869242207  0.9999230683398552
  0.7492603394444172  0.2492599629742500  0.5003361827376648
  0.7499155712881267  0.7496480605731801  0.0000105664760014
  0.2510520352001868  0.2507375179911682  0.2499670838922574
  0.2514316585294968  0.2508210645542212  0.7490139930114810
  0.2499423864504127  0.7498296847249326  0.2496546860340381
  0.2502764272364251  0.7501893938423461  0.7496630886158833
  0.7498383337656972  0.2504339026866944  0.2500718086955465
  0.7500122093861304  0.2496766457531203  0.7495752559805617
  0.7493598763229649  0.7495916862787283  0.2510410531221126
  0.7506747888644903  0.7505195003022029  0.7489908489604398
  0.0000419311698755  0.0004953672551121  0.2505360352445301
  0.0005869294513736  0.0005977465363723  0.7502913487915917
  0.9994510129821756  0.4999849895067604  0.2491502005618990
  0.0003506544456192  0.5001810438632966  0.7512286511321812
  0.4998188005846952  0.0001162328624642  0.2493344093869389
  0.5001861712191292  0.9994266297721922  0.7506049786891286
  0.4989522167709537  0.4992395778084697  0.2485843669053286
  0.4999709796214752  0.4997572879497504  0.7553068305004751
  0.5061061606858106  0.5026584212179255  0.4948625286050987
  0.7490724393206436  0.7500392851209843  0.5010379318090374
  0.1107003293957218  0.1420793406175583  0.2534725663382318
  0.1106290561360622  0.1414068690098630  0.7487319290399500
  0.1091547507954635  0.6406680243345909  0.2518522730738516
  0.1105062745977623  0.6399047406414029  0.7490140462676304
  0.6093522637459695  0.1406826034600940  0.2486517013425122
  0.6100183511635969  0.1400221925281601  0.7515584888255173
  0.6056981274631583  0.6386388955017777  0.2513818512251321
  0.3915838735898239  0.3580295007722652  0.2445620030011789
  0.3917822132960951  0.3607635117278750  0.7463415274726583
  0.3907338377053556  0.8588068377864787  0.2496209849728976
  0.3904606269454637  0.8593341548477280  0.7501806935509325
  0.8908045301419301  0.3589824554928226  0.2494720766395595
  0.8897806228848913  0.3602775419398699  0.7504380584922622
  0.8906747246441425  0.8605131323439930  0.2481700476160240
  0.8916717683935718  0.8614766282077840  0.7548701524794763
  0.3586154948240625  0.1091990325675107  0.2510660102887046
  0.3598961084606661  0.1099688926752125  0.7494011274166281
  0.3579392072953851  0.6078079449469772  0.2484350173092197
  0.3612303856538699  0.6079966107421536  0.7428809054317052
  0.8593177573670352  0.1101472395268169  0.2508161097014995
  0.8599057541251586  0.1105443525369201  0.7510312116808956
  0.8596647778274409  0.6079445162850464  0.2472783133681207
  0.8611358215525949  0.6092297455858451  0.7534036732289259
  0.1409741579566959  0.3909671469887941  0.2488866325308650
  0.1405537135741941  0.3905192084042839  0.7512638896668734
  0.1413340550139261  0.8903827929694018  0.2499301317985201
  0.1412782526532672  0.8906743552175785  0.7523860855819240
  0.6407899367611392  0.3919133273554888  0.2516933185807166
  0.6389933480567436  0.8907778358173289  0.2483487250794133
  0.6387192042530443  0.8905208758315148  0.7524365363231401
  0.3593887319392529  0.3909744977244181  0.0007414118921206
  0.3589528820250976  0.8904019443464014  0.9995989254338107
  0.3587569742934748  0.8904610030302690  0.5001829529272747
  0.8593390667561868  0.3909890223315373  0.0000408403886288
  0.8596639736621841  0.3894611484986913  0.4998632687939962
  0.8599513724827578  0.8905703436831977  0.9998961383730967
  0.8629461288141070  0.8977678260230070  0.4982462047376591
  0.1410042241837372  0.1096037370537601  0.9991672877660825
  0.1439666241429639  0.1084652788517808  0.4985877187774913
  0.1411567022026034  0.6091381420011516  0.9999235422348460
  0.1390178994681357  0.6113081471629156  0.4992099770644690
  0.6405711683105856  0.1095888437563474  0.9996577168171963
  0.6433365389463700  0.1078861320958203  0.4997955831649670
  0.6403104238189300  0.6079016651482231  0.9996570822024756
  0.1096090629614601  0.3592019882051583  0.9996566751760082
  0.1203723496855121  0.3649112670285888  0.5000397432666130
  0.1096781650594183  0.8591658483274571  0.9990647104414754
  0.1101790474253325  0.8595967843292134  0.4985452762473417
  0.6086669065782137  0.3592059512315549  0.0000633748013203
  0.6086142672733290  0.8598887407846858  0.0001722300705331
  0.6036010796117225  0.8622278026564522  0.4989884921835388
  0.3906135126688930  0.1408047694941683  0.0000065985903715
  0.3943556079579984  0.1479698236740440  0.4994757703103435
  0.3915033025884475  0.6406110085377714  0.0003626208689156
  0.3841824220140054  0.6282869395567736  0.5076870455613042
  0.8900085207553531  0.1412396055253759  0.9993946969280786
  0.8939793695273200  0.1446038481326475  0.4990574301011627
  0.8910979468633438  0.6402685914605226  0.9997816911170868
  0.0019706472006298  0.0028336242678564  0.1249519238054390
  0.0017587529135479  0.0003092590495858  0.6256443158242329
  0.0015524404130159  0.4998059419486441  0.1245709150506606
  0.0003370232489521  0.4980582156125256  0.6258100727683120
  0.4981640263300256  0.0009792936003958  0.1246120599506721
  0.4995195315333181  0.0008766465471151  0.6255712868726878
  0.5013695273764754  0.5001062934093065  0.1248110370066555
  0.0020734433121707  0.0007530237828919  0.3739887827831960
  0.0015788886113897  0.0033386974544281  0.8756463001361581
  0.9992046312944477  0.4974655288706360  0.3740116437126341
  0.0015937746069420  0.4995680384652070  0.8756112206946370
  0.4989039753165979  0.0008934415295307  0.3740368834499955
  0.4981762714283455  0.0007266870954431  0.8754695764835101
  0.4992154782036958  0.4989604454115217  0.8751591471636222
  0.2602778480676512  0.2626168954728919  0.3768540271378815
  0.2525177712086780  0.2511808457966860  0.8747078573708599
  0.2551755850691669  0.7481016797777305  0.3753313011688033
  0.2527471666611609  0.7455951040931778  0.8743142393855475
  0.7478207124389503  0.2520832982242508  0.3753140258735089
  0.7472265788071137  0.2541480683078149  0.8743700047725804
  0.7481755685285134  0.7458126403283921  0.3691702336053393
  0.7458349946151095  0.7475623358249868  0.8762864406758820
  0.2479572473922380  0.2476822323651874  0.1248538791536629
  0.2537159555346293  0.2548499628074165  0.6235547814528293
  0.2490568067192797  0.7497260730559444  0.1247794364113038
  0.2466397442659988  0.7545013424167309  0.6252126491303273
  0.7495718511678338  0.2508832268968878  0.1249322094734834
  0.7528442119158989  0.2471570562764832  0.6249357320764638
  0.7477724332321307  0.7484820407457559  0.1237576490776984
  0.6382053865853666  0.3915428143973599  0.7421247585744536
  0.6073330585592343  0.6370736388943868  0.7436369381558076
  0.4856960075358057  0.4891795862528259  0.3762319429573366
  0.6009928184811808  0.3552610120595258  0.5046180577391709
  0.7561652356370883  0.7554064918134575  0.6319360678143106
  0.8933042680230292  0.6359260028333912  0.4997971373541575
  0.6324500336734101  0.6022418659606301  0.5162323892743743
 
  0.00000000E+00  0.00000000E+00  0.00000000E+00
  0.00000000E+00  0.00000000E+00  0.00000000E+00
  0.00000000E+00  0.00000000E+00  0.00000000E+00
  0.00000000E+00  0.00000000E+00  0.00000000E+00
  0.00000000E+00  0.00000000E+00  0.00000000E+00
  0.00000000E+00  0.00000000E+00  0.00000000E+00
  0.00000000E+00  0.00000000E+00  0.00000000E+00
  0.00000000E+00  0.00000000E+00  0.00000000E+00
  0.00000000E+00  0.00000000E+00  0.00000000E+00
  0.00000000E+00  0.00000000E+00  0.00000000E+00
  0.00000000E+00  0.00000000E+00  0.00000000E+00
  0.00000000E+00  0.00000000E+00  0.00000000E+00
  0.00000000E+00  0.00000000E+00  0.00000000E+00
  0.00000000E+00  0.00000000E+00  0.00000000E+00
  0.00000000E+00  0.00000000E+00  0.00000000E+00
  0.00000000E+00  0.00000000E+00  0.00000000E+00
  0.00000000E+00  0.00000000E+00  0.00000000E+00
  0.00000000E+00  0.00000000E+00  0.00000000E+00
  0.00000000E+00  0.00000000E+00  0.00000000E+00
  0.00000000E+00  0.00000000E+00  0.00000000E+00
  0.00000000E+00  0.00000000E+00  0.00000000E+00
  0.00000000E+00  0.00000000E+00  0.00000000E+00
  0.00000000E+00  0.00000000E+00  0.00000000E+00
  0.00000000E+00  0.00000000E+00  0.00000000E+00
  0.00000000E+00  0.00000000E+00  0.00000000E+00
  0.00000000E+00  0.00000000E+00  0.00000000E+00
  0.00000000E+00  0.00000000E+00  0.00000000E+00
  0.00000000E+00  0.00000000E+00  0.00000000E+00
  0.00000000E+00  0.00000000E+00  0.00000000E+00
  0.00000000E+00  0.00000000E+00  0.00000000E+00
  0.00000000E+00  0.00000000E+00  0.00000000E+00
  0.00000000E+00  0.00000000E+00  0.00000000E+00
  0.00000000E+00  0.00000000E+00  0.00000000E+00
  0.00000000E+00  0.00000000E+00  0.00000000E+00
  0.00000000E+00  0.00000000E+00  0.00000000E+00
  0.00000000E+00  0.00000000E+00  0.00000000E+00
  0.00000000E+00  0.00000000E+00  0.00000000E+00
  0.00000000E+00  0.00000000E+00  0.00000000E+00
  0.00000000E+00  0.00000000E+00  0.00000000E+00
  0.00000000E+00  0.00000000E+00  0.00000000E+00
  0.00000000E+00  0.00000000E+00  0.00000000E+00
  0.00000000E+00  0.00000000E+00  0.00000000E+00
  0.00000000E+00  0.00000000E+00  0.00000000E+00
  0.00000000E+00  0.00000000E+00  0.00000000E+00
  0.00000000E+00  0.00000000E+00  0.00000000E+00
  0.00000000E+00  0.00000000E+00  0.00000000E+00
  0.00000000E+00  0.00000000E+00  0.00000000E+00
  0.00000000E+00  0.00000000E+00  0.00000000E+00
  0.00000000E+00  0.00000000E+00  0.00000000E+00
  0.00000000E+00  0.00000000E+00  0.00000000E+00
  0.00000000E+00  0.00000000E+00  0.00000000E+00
  0.00000000E+00  0.00000000E+00  0.00000000E+00
  0.00000000E+00  0.00000000E+00  0.00000000E+00
  0.00000000E+00  0.00000000E+00  0.00000000E+00
  0.00000000E+00  0.00000000E+00  0.00000000E+00
  0.00000000E+00  0.00000000E+00  0.00000000E+00
  0.00000000E+00  0.00000000E+00  0.00000000E+00
  0.00000000E+00  0.00000000E+00  0.00000000E+00
  0.00000000E+00  0.00000000E+00  0.00000000E+00
  0.00000000E+00  0.00000000E+00  0.00000000E+00
  0.00000000E+00  0.00000000E+00  0.00000000E+00
  0.00000000E+00  0.00000000E+00  0.00000000E+00
  0.00000000E+00  0.00000000E+00  0.00000000E+00
  0.00000000E+00  0.00000000E+00  0.00000000E+00
  0.00000000E+00  0.00000000E+00  0.00000000E+00
  0.00000000E+00  0.00000000E+00  0.00000000E+00
  0.00000000E+00  0.00000000E+00  0.00000000E+00
  0.00000000E+00  0.00000000E+00  0.00000000E+00
  0.00000000E+00  0.00000000E+00  0.00000000E+00
  0.00000000E+00  0.00000000E+00  0.00000000E+00
  0.00000000E+00  0.00000000E+00  0.00000000E+00
  0.00000000E+00  0.00000000E+00  0.00000000E+00
  0.00000000E+00  0.00000000E+00  0.00000000E+00
  0.00000000E+00  0.00000000E+00  0.00000000E+00
  0.00000000E+00  0.00000000E+00  0.00000000E+00
  0.00000000E+00  0.00000000E+00  0.00000000E+00
  0.00000000E+00  0.00000000E+00  0.00000000E+00
  0.00000000E+00  0.00000000E+00  0.00000000E+00
  0.00000000E+00  0.00000000E+00  0.00000000E+00
  0.00000000E+00  0.00000000E+00  0.00000000E+00
  0.00000000E+00  0.00000000E+00  0.00000000E+00
  0.00000000E+00  0.00000000E+00  0.00000000E+00
  0.00000000E+00  0.00000000E+00  0.00000000E+00
  0.00000000E+00  0.00000000E+00  0.00000000E+00
  0.00000000E+00  0.00000000E+00  0.00000000E+00
  0.00000000E+00  0.00000000E+00  0.00000000E+00
  0.00000000E+00  0.00000000E+00  0.00000000E+00
  0.00000000E+00  0.00000000E+00  0.00000000E+00
  0.00000000E+00  0.00000000E+00  0.00000000E+00
  0.00000000E+00  0.00000000E+00  0.00000000E+00
  0.00000000E+00  0.00000000E+00  0.00000000E+00
  0.00000000E+00  0.00000000E+00  0.00000000E+00
  0.00000000E+00  0.00000000E+00  0.00000000E+00
  0.00000000E+00  0.00000000E+00  0.00000000E+00
  0.00000000E+00  0.00000000E+00  0.00000000E+00
  0.00000000E+00  0.00000000E+00  0.00000000E+00
  0.00000000E+00  0.00000000E+00  0.00000000E+00
  0.00000000E+00  0.00000000E+00  0.00000000E+00
  0.00000000E+00  0.00000000E+00  0.00000000E+00
  0.00000000E+00  0.00000000E+00  0.00000000E+00
  0.00000000E+00  0.00000000E+00  0.00000000E+00
  0.00000000E+00  0.00000000E+00  0.00000000E+00
  0.00000000E+00  0.00000000E+00  0.00000000E+00
  0.00000000E+00  0.00000000E+00  0.00000000E+00
  0.00000000E+00  0.00000000E+00  0.00000000E+00
  0.00000000E+00  0.00000000E+00  0.00000000E+00
  0.00000000E+00  0.00000000E+00  0.00000000E+00
  0.00000000E+00  0.00000000E+00  0.00000000E+00
  0.00000000E+00  0.00000000E+00  0.00000000E+00
  0.00000000E+00  0.00000000E+00  0.00000000E+00
  0.00000000E+00  0.00000000E+00  0.00000000E+00
  0.00000000E+00  0.00000000E+00  0.00000000E+00
  0.00000000E+00  0.00000000E+00  0.00000000E+00
  0.00000000E+00  0.00000000E+00  0.00000000E+00
  0.00000000E+00  0.00000000E+00  0.00000000E+00
  0.00000000E+00  0.00000000E+00  0.00000000E+00
  0.00000000E+00  0.00000000E+00  0.00000000E+00
  0.00000000E+00  0.00000000E+00  0.00000000E+00
  0.00000000E+00  0.00000000E+00  0.00000000E+00
  0.00000000E+00  0.00000000E+00  0.00000000E+00
  0.00000000E+00  0.00000000E+00  0.00000000E+00
  0.00000000E+00  0.00000000E+00  0.00000000E+00
  0.00000000E+00  0.00000000E+00  0.00000000E+00
  0.00000000E+00  0.00000000E+00  0.00000000E+00
  0.00000000E+00  0.00000000E+00  0.00000000E+00
  0.00000000E+00  0.00000000E+00  0.00000000E+00
  0.00000000E+00  0.00000000E+00  0.00000000E+00
  0.00000000E+00  0.00000000E+00  0.00000000E+00
  0.00000000E+00  0.00000000E+00  0.00000000E+00
  0.00000000E+00  0.00000000E+00  0.00000000E+00
  0.00000000E+00  0.00000000E+00  0.00000000E+00
  0.00000000E+00  0.00000000E+00  0.00000000E+00
  0.00000000E+00  0.00000000E+00  0.00000000E+00
  0.00000000E+00  0.00000000E+00  0.00000000E+00
  0.00000000E+00  0.00000000E+00  0.00000000E+00
  0.00000000E+00  0.00000000E+00  0.00000000E+00
  0.00000000E+00  0.00000000E+00  0.00000000E+00
  0.00000000E+00  0.00000000E+00  0.00000000E+00
  0.00000000E+00  0.00000000E+00  0.00000000E+00
  0.00000000E+00  0.00000000E+00  0.00000000E+00
  0.00000000E+00  0.00000000E+00  0.00000000E+00
  0.00000000E+00  0.00000000E+00  0.00000000E+00
  0.00000000E+00  0.00000000E+00  0.00000000E+00
  0.00000000E+00  0.00000000E+00  0.00000000E+00
  0.00000000E+00  0.00000000E+00  0.00000000E+00
  0.00000000E+00  0.00000000E+00  0.00000000E+00
  0.00000000E+00  0.00000000E+00  0.00000000E+00
  0.00000000E+00  0.00000000E+00  0.00000000E+00
  0.00000000E+00  0.00000000E+00  0.00000000E+00
  0.00000000E+00  0.00000000E+00  0.00000000E+00
  0.00000000E+00  0.00000000E+00  0.00000000E+00
  0.00000000E+00  0.00000000E+00  0.00000000E+00
  0.00000000E+00  0.00000000E+00  0.00000000E+00
  0.00000000E+00  0.00000000E+00  0.00000000E+00
  0.00000000E+00  0.00000000E+00  0.00000000E+00
  0.00000000E+00  0.00000000E+00  0.00000000E+00
  0.00000000E+00  0.00000000E+00  0.00000000E+00
  0.00000000E+00  0.00000000E+00  0.00000000E+00
