SrTiFeO                                 
   1.00000000000000     
    11.1989999999999998    0.0000000000000000    0.0000000000000000
     0.0000000000000000   11.1989999999999998    0.0000000000000000
     0.0000000000000000    0.0000000000000000   15.9830000000000005
   Sr   Ti   Fe   O 
    32    31     1    94
Direct
  0.9990381501995441  0.2497066473838606  0.1248040913191552
  0.0064389600540782  0.2501673468502191  0.6267649550548845
  0.0006871209763467  0.7509713513046067  0.1249551266621482
  0.0006822034866260  0.7487828350581921  0.6253673607511701
  0.5005916783623308  0.2485943022336461  0.1244255865879067
  0.4960721195345686  0.2466604767759316  0.6288208781512487
  0.4993384944143829  0.7497909275136624  0.1245785766444043
  0.4985602946604134  0.7455403880309843  0.6237633649568758
  0.0044597340751107  0.2477636361438053  0.3731793690893027
  0.9994925121211974  0.2501204163390134  0.8754719566949013
  0.0009297968135912  0.7513640054679870  0.3745278151939976
  0.0001899096264771  0.7501826551831698  0.8749000247120637
  0.4964080273491190  0.2368664048506940  0.3729903049008533
  0.5013505219886176  0.2508039740317442  0.8756547981403355
  0.4987486570954627  0.7565091479338583  0.3754039041631390
  0.4996073691086513  0.7487643730284194  0.8747970587816060
  0.2495287905109782  0.9994403091932228  0.1252860829405180
  0.2498502578132470  0.9986150549490538  0.6249779178114381
  0.2502812767188344  0.5018472396988762  0.1243317969349750
  0.2553830774008810  0.4990858675112602  0.6225890472971439
  0.7506787389669086  0.0010636526252411  0.1259190329427740
  0.7485988668442292  0.9955617229604992  0.6255859502041929
  0.7515163234983913  0.4989953674033980  0.1235366895880808
  0.7496171133955938  0.5017292805467694  0.6279493901862954
  0.2481387222217984  0.9989210968534726  0.3746110848875659
  0.2492690017779700  0.9997475104095692  0.8750183752347510
  0.2452681491239901  0.4994824555657578  0.3752882730147049
  0.2517189487333844  0.5005154256769134  0.8745005245003582
  0.7502796789526549  0.9968361351934955  0.3744075433290980
  0.7506819847063567  0.0007199811516211  0.8749309635054159
  0.7607071499925557  0.5022313066140305  0.3721004795298077
  0.7498675401645022  0.5009476899621904  0.8761986078040725
  0.9996180072818410  0.0002322954215602  0.0003564401688450
  0.0033698708829499  0.9948579635168232  0.5009309246452318
  0.0004576645811710  0.4999585753529796  0.9997269048732065
  0.0001117816970117  0.5006535559503942  0.5006138236786455
  0.4997734619093945  0.9998223898688505  0.9996658899778749
  0.4986635454543489  0.9991561763031086  0.5008055090140492
  0.4995799222331326  0.5004168013099070  0.9990805624846553
  0.2504486768602116  0.2502950560793070  0.0000561859681646
  0.2522651125430217  0.2502364177793749  0.4989303383481776
  0.2504603482354359  0.7499751981569174  0.9999237084436486
  0.2520994346828187  0.7481293223524079  0.4992526637111248
  0.7501743045367283  0.2497127629081459  0.0006133662456320
  0.7495370747024056  0.7499692382436749  0.0000595796034693
  0.2502497526153197  0.2500655536366576  0.2500563255077309
  0.2506969817618679  0.2503159349614110  0.7507095171647553
  0.2501583296207801  0.7486752623228118  0.2505467137636198
  0.2502207372078674  0.7491029744626289  0.7496410097939380
  0.7494605419776442  0.2513253719085193  0.2516318055889889
  0.7493365946003300  0.2508755892169168  0.7504258427867059
  0.7501285658546275  0.7494096544522860  0.2501620267476972
  0.7494689938145851  0.7492335951281440  0.7501177494625759
  0.9999156978300690  0.9999202603734453  0.2495843775901516
  0.9998371355607429  0.9998843913958225  0.7493500047651411
  0.0010726199564393  0.4999326446882738  0.2492496120969258
  0.0008968281076361  0.4996753489697996  0.7499766068466827
  0.5000558724699814  0.9988965161781377  0.2490149458161375
  0.5000726521486822  0.9987652181529877  0.7502059631474897
  0.5017332231997660  0.4985272500101527  0.2466378222306610
  0.5007924809637916  0.4988400195701435  0.7490348371604046
  0.7608739705941810  0.2438068905315896  0.5005925207009579
  0.7492982347584601  0.7466332279373319  0.4989191706513333
  0.5011156599011442  0.5009603239192907  0.4978182118671799
  0.1098199900229321  0.1410222998686743  0.2473124365666867
  0.1096830455097401  0.1411978344216999  0.7492496305974148
  0.1079857058866348  0.6407510028106409  0.2497006615649309
  0.1086034030484010  0.6408316789805794  0.7500002657899438
  0.6102772509870591  0.1390407436702946  0.2493009122191092
  0.6088931810309322  0.1406751110346325  0.7499288581409354
  0.6099300917916972  0.6382849697288251  0.2606520179759412
  0.6096477494527569  0.6413417916105497  0.7509169131269442
  0.3916764233605481  0.3602803870928864  0.2598535790462915
  0.3906052968818502  0.3576852263960151  0.7534932086118693
  0.3896986590218405  0.8609156853239166  0.2495281212266482
  0.3913523379486349  0.8587861037972592  0.7494123092516048
  0.8917839145952080  0.3593489352540644  0.2517357586848866
  0.8912760021770729  0.3585408409258188  0.7482178843065661
  0.8894989161635574  0.8600367875217192  0.2481723242244422
  0.8899345843224816  0.8594780128511892  0.7485395664069233
  0.3610795094818351  0.1107795425591095  0.2512988565035982
  0.3593868119286052  0.1091494706432172  0.7484072429072705
  0.3569747380834178  0.6121138674085017  0.2567069296278526
  0.3587472725157108  0.6089457850243198  0.7484589624271781
  0.8600402659781303  0.1100254521335113  0.2530742648868909
  0.8581641213267948  0.1105879322648968  0.7446436866800400
  0.8599165231490662  0.6094611519349897  0.2487196148490524
  0.8595419124724857  0.6092315156121194  0.7503260727550095
  0.1416486593929035  0.3913173712316916  0.2499622182833922
  0.1414221338685003  0.3911033524747576  0.7491312164338457
  0.1387756271011837  0.8917374023249155  0.2474031822522003
  0.1401285800706722  0.8911415397177785  0.7498345394057451
  0.6421263303238963  0.3897541438692745  0.2529140339000922
  0.6421614915694814  0.3904398522570330  0.7564544048439497
  0.6394659128661810  0.8892080953056773  0.2497668577848492
  0.6414079487618697  0.8910417380713377  0.7503483653996296
  0.3588398071405028  0.3905716630169669  0.9990579331806683
  0.3587449219629424  0.8915431639010576  0.0000994223403691
  0.3588185631744624  0.8926756378764545  0.4998504688436829
  0.8595475079440226  0.3906525767361935  0.9995317041520404
  0.8585177101773119  0.8902797824785463  0.0012908779039497
  0.8582998558708047  0.8926514818262629  0.5015907436768310
  0.1408808186456409  0.1095609918573471  0.0013684933690614
  0.1400468506404052  0.1097326989747501  0.5018249315954366
  0.1402678147498539  0.6091805553756340  0.9995298274884890
  0.1397204486115577  0.6087156250608218  0.5003143318355089
  0.6404860364009328  0.1091801709867046  0.0004087521225019
  0.6343909402441977  0.1207599691143757  0.5000745936680145
  0.6409219779685438  0.6094406736572308  0.9997762147756128
  0.1094220231503373  0.3590049023044196  0.0007510495268954
  0.1102601777843327  0.3605420388111775  0.4996997825852655
  0.1086617079893771  0.8600720612255093  0.9996123442705445
  0.1072805315008192  0.8591932438369149  0.5020603046125495
  0.6099170453177283  0.3591514228441634  0.9997603612099816
  0.6085394881998006  0.8590549933960324  0.9999872901245458
  0.6102778757102080  0.8611371144692461  0.4999659634398798
  0.3911063117043923  0.1411368990967146  1.0000017641160162
  0.3884943684002146  0.1376632795982391  0.5004915524686870
  0.3897229625005203  0.6425041628411017  0.9986748076563134
  0.8909105468194733  0.1406225722861542  0.0002916419769230
  0.8925845586522689  0.1428609031244576  0.5019071276425850
  0.8905769244817165  0.6405526139338107  0.0006333448290505
  0.9974760008059084  0.0013845304572974  0.1245586438775470
  0.0006621568419528  0.0005648186052956  0.6251528151336783
  0.9998219838744102  0.4988334046225930  0.1248748991901139
  0.9995842736377148  0.4998310061280960  0.6247450410368074
  0.4992872458560512  0.0003237132586070  0.1248008506352771
  0.5014695255822358  0.9994415391768765  0.6249884401344287
  0.4948230698229155  0.5044582510780466  0.1231127224375168
  0.5052273771946805  0.4914126838856744  0.6292708708035792
  0.0009744271663832  1.0000166305986307  0.3756542657633972
  0.9974211813335069  0.0016885784953930  0.8743339156131734
  0.0001270346387092  0.4998806757120671  0.3751719817349738
  0.9999905818171666  0.4988745610807907  0.8748036650912847
  0.5013047026691960  0.9996296910533595  0.3750903765308014
  0.4992904815155523  0.0002035891634077  0.8748655010517742
  0.4982184711797155  0.5023936137984953  0.8758464274123128
  0.2432816371404636  0.2442547239592037  0.3745439746570594
  0.2481783812601076  0.2481765927331312  0.8752959578779090
  0.2420999111474350  0.7577322552888208  0.3749793594151265
  0.2493093623007550  0.7507175332366848  0.8742937083360572
  0.7531857726692111  0.2461774068369733  0.8745772551686992
  0.7510677242814719  0.7505912841420002  0.8752770524980809
  0.2553806148650447  0.2531894696090782  0.1259790500165515
  0.2530911004431030  0.2553232215351574  0.6243233669245281
  0.2504159457043694  0.7485120753675976  0.1246240207199875
  0.2502569455036474  0.7503029967181575  0.6249245665080051
  0.7510899687519578  0.2505854712346210  0.1251774496396906
  0.7355562305117145  0.2627945057722464  0.6218965848535117
  0.7450807887473271  0.7464793261494117  0.1259331768134747
  0.7468233638638063  0.7467577788824171  0.6242412792381403
  0.7439116961830182  0.2548565317218510  0.3783984182763049
  0.8525795473372997  0.3945400711672962  0.5004853164712229
  0.3865097550886739  0.6462058167190252  0.4947410768810460
  0.3708538036550563  0.3828902056811936  0.4890284076186482
  0.8924301621993702  0.6423516742303379  0.4997175837082529
  0.7558082163019897  0.7557717127678448  0.3747965574530134
  0.6435931420404263  0.6045644708751964  0.4911470020179555
 
  0.00000000E+00  0.00000000E+00  0.00000000E+00
  0.00000000E+00  0.00000000E+00  0.00000000E+00
  0.00000000E+00  0.00000000E+00  0.00000000E+00
  0.00000000E+00  0.00000000E+00  0.00000000E+00
  0.00000000E+00  0.00000000E+00  0.00000000E+00
  0.00000000E+00  0.00000000E+00  0.00000000E+00
  0.00000000E+00  0.00000000E+00  0.00000000E+00
  0.00000000E+00  0.00000000E+00  0.00000000E+00
  0.00000000E+00  0.00000000E+00  0.00000000E+00
  0.00000000E+00  0.00000000E+00  0.00000000E+00
  0.00000000E+00  0.00000000E+00  0.00000000E+00
  0.00000000E+00  0.00000000E+00  0.00000000E+00
  0.00000000E+00  0.00000000E+00  0.00000000E+00
  0.00000000E+00  0.00000000E+00  0.00000000E+00
  0.00000000E+00  0.00000000E+00  0.00000000E+00
  0.00000000E+00  0.00000000E+00  0.00000000E+00
  0.00000000E+00  0.00000000E+00  0.00000000E+00
  0.00000000E+00  0.00000000E+00  0.00000000E+00
  0.00000000E+00  0.00000000E+00  0.00000000E+00
  0.00000000E+00  0.00000000E+00  0.00000000E+00
  0.00000000E+00  0.00000000E+00  0.00000000E+00
  0.00000000E+00  0.00000000E+00  0.00000000E+00
  0.00000000E+00  0.00000000E+00  0.00000000E+00
  0.00000000E+00  0.00000000E+00  0.00000000E+00
  0.00000000E+00  0.00000000E+00  0.00000000E+00
  0.00000000E+00  0.00000000E+00  0.00000000E+00
  0.00000000E+00  0.00000000E+00  0.00000000E+00
  0.00000000E+00  0.00000000E+00  0.00000000E+00
  0.00000000E+00  0.00000000E+00  0.00000000E+00
  0.00000000E+00  0.00000000E+00  0.00000000E+00
  0.00000000E+00  0.00000000E+00  0.00000000E+00
  0.00000000E+00  0.00000000E+00  0.00000000E+00
  0.00000000E+00  0.00000000E+00  0.00000000E+00
  0.00000000E+00  0.00000000E+00  0.00000000E+00
  0.00000000E+00  0.00000000E+00  0.00000000E+00
  0.00000000E+00  0.00000000E+00  0.00000000E+00
  0.00000000E+00  0.00000000E+00  0.00000000E+00
  0.00000000E+00  0.00000000E+00  0.00000000E+00
  0.00000000E+00  0.00000000E+00  0.00000000E+00
  0.00000000E+00  0.00000000E+00  0.00000000E+00
  0.00000000E+00  0.00000000E+00  0.00000000E+00
  0.00000000E+00  0.00000000E+00  0.00000000E+00
  0.00000000E+00  0.00000000E+00  0.00000000E+00
  0.00000000E+00  0.00000000E+00  0.00000000E+00
  0.00000000E+00  0.00000000E+00  0.00000000E+00
  0.00000000E+00  0.00000000E+00  0.00000000E+00
  0.00000000E+00  0.00000000E+00  0.00000000E+00
  0.00000000E+00  0.00000000E+00  0.00000000E+00
  0.00000000E+00  0.00000000E+00  0.00000000E+00
  0.00000000E+00  0.00000000E+00  0.00000000E+00
  0.00000000E+00  0.00000000E+00  0.00000000E+00
  0.00000000E+00  0.00000000E+00  0.00000000E+00
  0.00000000E+00  0.00000000E+00  0.00000000E+00
  0.00000000E+00  0.00000000E+00  0.00000000E+00
  0.00000000E+00  0.00000000E+00  0.00000000E+00
  0.00000000E+00  0.00000000E+00  0.00000000E+00
  0.00000000E+00  0.00000000E+00  0.00000000E+00
  0.00000000E+00  0.00000000E+00  0.00000000E+00
  0.00000000E+00  0.00000000E+00  0.00000000E+00
  0.00000000E+00  0.00000000E+00  0.00000000E+00
  0.00000000E+00  0.00000000E+00  0.00000000E+00
  0.00000000E+00  0.00000000E+00  0.00000000E+00
  0.00000000E+00  0.00000000E+00  0.00000000E+00
  0.00000000E+00  0.00000000E+00  0.00000000E+00
  0.00000000E+00  0.00000000E+00  0.00000000E+00
  0.00000000E+00  0.00000000E+00  0.00000000E+00
  0.00000000E+00  0.00000000E+00  0.00000000E+00
  0.00000000E+00  0.00000000E+00  0.00000000E+00
  0.00000000E+00  0.00000000E+00  0.00000000E+00
  0.00000000E+00  0.00000000E+00  0.00000000E+00
  0.00000000E+00  0.00000000E+00  0.00000000E+00
  0.00000000E+00  0.00000000E+00  0.00000000E+00
  0.00000000E+00  0.00000000E+00  0.00000000E+00
  0.00000000E+00  0.00000000E+00  0.00000000E+00
  0.00000000E+00  0.00000000E+00  0.00000000E+00
  0.00000000E+00  0.00000000E+00  0.00000000E+00
  0.00000000E+00  0.00000000E+00  0.00000000E+00
  0.00000000E+00  0.00000000E+00  0.00000000E+00
  0.00000000E+00  0.00000000E+00  0.00000000E+00
  0.00000000E+00  0.00000000E+00  0.00000000E+00
  0.00000000E+00  0.00000000E+00  0.00000000E+00
  0.00000000E+00  0.00000000E+00  0.00000000E+00
  0.00000000E+00  0.00000000E+00  0.00000000E+00
  0.00000000E+00  0.00000000E+00  0.00000000E+00
  0.00000000E+00  0.00000000E+00  0.00000000E+00
  0.00000000E+00  0.00000000E+00  0.00000000E+00
  0.00000000E+00  0.00000000E+00  0.00000000E+00
  0.00000000E+00  0.00000000E+00  0.00000000E+00
  0.00000000E+00  0.00000000E+00  0.00000000E+00
  0.00000000E+00  0.00000000E+00  0.00000000E+00
  0.00000000E+00  0.00000000E+00  0.00000000E+00
  0.00000000E+00  0.00000000E+00  0.00000000E+00
  0.00000000E+00  0.00000000E+00  0.00000000E+00
  0.00000000E+00  0.00000000E+00  0.00000000E+00
  0.00000000E+00  0.00000000E+00  0.00000000E+00
  0.00000000E+00  0.00000000E+00  0.00000000E+00
  0.00000000E+00  0.00000000E+00  0.00000000E+00
  0.00000000E+00  0.00000000E+00  0.00000000E+00
  0.00000000E+00  0.00000000E+00  0.00000000E+00
  0.00000000E+00  0.00000000E+00  0.00000000E+00
  0.00000000E+00  0.00000000E+00  0.00000000E+00
  0.00000000E+00  0.00000000E+00  0.00000000E+00
  0.00000000E+00  0.00000000E+00  0.00000000E+00
  0.00000000E+00  0.00000000E+00  0.00000000E+00
  0.00000000E+00  0.00000000E+00  0.00000000E+00
  0.00000000E+00  0.00000000E+00  0.00000000E+00
  0.00000000E+00  0.00000000E+00  0.00000000E+00
  0.00000000E+00  0.00000000E+00  0.00000000E+00
  0.00000000E+00  0.00000000E+00  0.00000000E+00
  0.00000000E+00  0.00000000E+00  0.00000000E+00
  0.00000000E+00  0.00000000E+00  0.00000000E+00
  0.00000000E+00  0.00000000E+00  0.00000000E+00
  0.00000000E+00  0.00000000E+00  0.00000000E+00
  0.00000000E+00  0.00000000E+00  0.00000000E+00
  0.00000000E+00  0.00000000E+00  0.00000000E+00
  0.00000000E+00  0.00000000E+00  0.00000000E+00
  0.00000000E+00  0.00000000E+00  0.00000000E+00
  0.00000000E+00  0.00000000E+00  0.00000000E+00
  0.00000000E+00  0.00000000E+00  0.00000000E+00
  0.00000000E+00  0.00000000E+00  0.00000000E+00
  0.00000000E+00  0.00000000E+00  0.00000000E+00
  0.00000000E+00  0.00000000E+00  0.00000000E+00
  0.00000000E+00  0.00000000E+00  0.00000000E+00
  0.00000000E+00  0.00000000E+00  0.00000000E+00
  0.00000000E+00  0.00000000E+00  0.00000000E+00
  0.00000000E+00  0.00000000E+00  0.00000000E+00
  0.00000000E+00  0.00000000E+00  0.00000000E+00
  0.00000000E+00  0.00000000E+00  0.00000000E+00
  0.00000000E+00  0.00000000E+00  0.00000000E+00
  0.00000000E+00  0.00000000E+00  0.00000000E+00
  0.00000000E+00  0.00000000E+00  0.00000000E+00
  0.00000000E+00  0.00000000E+00  0.00000000E+00
  0.00000000E+00  0.00000000E+00  0.00000000E+00
  0.00000000E+00  0.00000000E+00  0.00000000E+00
  0.00000000E+00  0.00000000E+00  0.00000000E+00
  0.00000000E+00  0.00000000E+00  0.00000000E+00
  0.00000000E+00  0.00000000E+00  0.00000000E+00
  0.00000000E+00  0.00000000E+00  0.00000000E+00
  0.00000000E+00  0.00000000E+00  0.00000000E+00
  0.00000000E+00  0.00000000E+00  0.00000000E+00
  0.00000000E+00  0.00000000E+00  0.00000000E+00
  0.00000000E+00  0.00000000E+00  0.00000000E+00
  0.00000000E+00  0.00000000E+00  0.00000000E+00
  0.00000000E+00  0.00000000E+00  0.00000000E+00
  0.00000000E+00  0.00000000E+00  0.00000000E+00
  0.00000000E+00  0.00000000E+00  0.00000000E+00
  0.00000000E+00  0.00000000E+00  0.00000000E+00
  0.00000000E+00  0.00000000E+00  0.00000000E+00
  0.00000000E+00  0.00000000E+00  0.00000000E+00
  0.00000000E+00  0.00000000E+00  0.00000000E+00
  0.00000000E+00  0.00000000E+00  0.00000000E+00
  0.00000000E+00  0.00000000E+00  0.00000000E+00
  0.00000000E+00  0.00000000E+00  0.00000000E+00
  0.00000000E+00  0.00000000E+00  0.00000000E+00
  0.00000000E+00  0.00000000E+00  0.00000000E+00
  0.00000000E+00  0.00000000E+00  0.00000000E+00
  0.00000000E+00  0.00000000E+00  0.00000000E+00
  0.00000000E+00  0.00000000E+00  0.00000000E+00
