SrTiFeO                                 
   1.00000000000000     
    11.1989999999999998    0.0000000000000000    0.0000000000000000
     0.0000000000000000   11.1989999999999998    0.0000000000000000
     0.0000000000000000    0.0000000000000000   15.9830000000000005
   Sr   Ti   Fe   O 
    32    31     1    94
Direct
  0.0005191180225134  0.2495070287584023  0.1253215990110323
  0.0015306012432705  0.2498205269027760  0.6250170979400419
  0.9988947844971224  0.7506765295580987  0.1259478775523232
  0.0046518263173653  0.7485933753105020  0.6256219345919507
  0.4982216878665447  0.2500683339103455  0.1242976922252598
  0.5008488400965230  0.2557817701056418  0.6224692085667212
  0.5009030603167037  0.7516675465309408  0.1235424044171927
  0.4983885207661036  0.7496952240184543  0.6278698753196713
  0.0011636245985086  0.2481718361109928  0.3746986849333240
  0.0002101156780085  0.2492709740252294  0.8750159650049670
  0.0032871094935446  0.7502568277975293  0.3744993447374037
  0.9991595255588384  0.7506086515734025  0.8749433542813552
  0.5005090041815673  0.2454551796918345  0.3753164483914037
  0.4994578322628534  0.2516244745631777  0.8745078262175505
  0.4977950602273887  0.7608574281488891  0.3721174344486511
  0.4990734742138792  0.7497674208494822  0.8761111906114978
  0.2490062581278726  0.0007885820990077  0.1249459271353469
  0.2511891609853207  0.0007759169022903  0.6253226773915296
  0.2500349526874204  0.4993311622679716  0.1245288957764051
  0.2546144893645378  0.4985817821966783  0.6238302478926714
  0.7502298518133241  0.9988483195674874  0.1248912507464513
  0.7497465573730873  0.0066333296299917  0.6265957670997833
  0.7517474479841468  0.5005104797581008  0.1244037637052303
  0.7533550543544157  0.4961051994056093  0.6287388707345842
  0.2486894111659230  0.0010394472075173  0.3744519420422747
  0.2496904045696299  0.0001509706524785  0.8749039035013294
  0.2438050111411493  0.4985383556227691  0.3754035325211702
  0.2511574769759132  0.4995669919379089  0.8748154748988178
  0.7521712415392634  0.0046301409752504  0.3732014450180240
  0.7498490473546029  0.9994327018486290  0.8754739024905814
  0.7630624366469942  0.4963257525361535  0.3731112079395403
  0.7491510052340209  0.5013568402012284  0.8756650933404506
  0.9996293144354358  0.9995137851729524  0.0003511262339944
  0.0051552296790682  0.0033736897142801  0.5008781636865531
  0.0001810375990530  0.4997470221589100  0.9996815372518968
  0.0010507719906662  0.4987504480468477  0.5008460680695055
  0.5000503342762068  0.0004183806505099  0.9997144045210464
  0.4993346598842701  0.0003163934960953  0.5006169985853152
  0.4995071131435912  0.4995170363860043  0.9989615817347107
  0.2499852342720843  0.2503935747882313  0.9999382140045584
  0.2519363351543490  0.2521834092321908  0.4992627361689123
  0.2500070001885485  0.7495784867822124  0.0000536187428932
  0.2534964183981943  0.7493680207538169  0.4988787016455566
  0.7497226038489552  0.2504305118768357  0.0000390292722312
  0.7501521652544361  0.7500486309803008  0.0007807794785089
  0.2513619017299513  0.2502731505723731  0.2505628378267329
  0.2508456164637048  0.2500908577246439  0.7497688196104388
  0.2505727378236939  0.7501949956754607  0.2501275792533789
  0.2507769922756709  0.7495092946475884  0.7501388867583212
  0.7500033941585108  0.2502823187737660  0.2500646509588146
  0.7496296213857467  0.2507141757700812  0.7506760178076035
  0.7487702854582275  0.7493171392060154  0.2518877167485581
  0.7490810547647845  0.7492497289496723  0.7504799452378805
  0.0000651635367228  0.9999127241161088  0.2496351429102816
  1.0000022713899610  0.9997776424757521  0.7493372039321536
  0.0011768768331416  0.5000979925388394  0.2491625093304150
  0.0012481634738674  0.5000895957044241  0.7502214887626192
  0.5000891567131984  0.0011119923055538  0.2492862238344736
  0.5002752415921521  0.0008686212026432  0.7499409269685247
  0.5014985669993575  0.5017727218097253  0.2462256231575204
  0.5010650415096556  0.5007174326329297  0.7490823656573827
  0.7498674536040815  0.2524328447315333  0.4988852020011085
  0.7561683263973323  0.7607441159186070  0.5006645049940515
  0.4993551639787189  0.5014565195908012  0.4978016443976768
  0.1084534808735741  0.1387918372055841  0.2475478352525268
  0.1087903789190602  0.1399868163726278  0.7501343660451947
  0.1108449957874210  0.6395153333419762  0.2497244626887792
  0.1090502185026981  0.6413324884848427  0.7504284969934299
  0.6089453988024779  0.1414594430227799  0.2499243632948071
  0.6088531511687906  0.1414443027342568  0.7490103941839845
  0.6099412565731231  0.6415085042053108  0.2530427331834991
  0.6094173039684341  0.6420778521492333  0.7563749143234243
  0.3879681673365538  0.3574688079385503  0.2567859035293917
  0.3909073578386633  0.3586710442455983  0.7485879903416612
  0.3902961231336437  0.8602254585321218  0.2486887152036144
  0.3906964964723790  0.8596000395622972  0.7503360312854345
  0.8892795487035636  0.3610990464031320  0.2513243263934221
  0.8907730615806737  0.3594364850031714  0.7482746583220491
  0.8898026560246143  0.8600575313954495  0.2532447279676179
  0.8892535509119954  0.8581519276161811  0.7445598538582526
  0.3594686102809128  0.1083200750015623  0.2496470296532778
  0.3591088046445860  0.1085516348124113  0.7501634632700699
  0.3619141213667197  0.6100679987927698  0.2604296680686391
  0.3586437040701524  0.6096135709577076  0.7510629587924473
  0.8590548568638515  0.1098682085480277  0.2472499688590243
  0.8587039923124861  0.1097169584900950  0.7490951761040110
  0.8610092932244511  0.6102692576668659  0.2494334060867467
  0.8593917406772451  0.6089631175735037  0.7499367789609531
  0.1391363751712459  0.3897729022453447  0.2495919720904785
  0.1411405183411638  0.3912527560143628  0.7494389139806675
  0.1398432809683285  0.8894706789844633  0.2481801012032960
  0.1403787140139762  0.8897759717038871  0.7485011221290679
  0.6395037935825884  0.3915864802655941  0.2597123041215698
  0.6421771407115845  0.3906152584640640  0.7535230582134382
  0.6403962018959515  0.8914228318447901  0.2518704361906557
  0.6413952336388707  0.8912283077389326  0.7481311761085527
  0.3573854063536981  0.3896767392721546  0.9985432355709392
  0.3594265932627466  0.8905831746639510  0.0006440815871274
  0.3577521669827982  0.8924889034682226  0.4997018726827732
  0.8588639988244144  0.3910853959497761 -0.0000072503732875
  0.8592415698359180  0.8907903635978620  0.0003858976236308
  0.8572274296553433  0.8926002655047610  0.5017439741235799
  0.1398733358684160  0.1085640869973745  0.9995907131792676
  0.1408410563558274  0.1073027810114379  0.5017217170667135
  0.1408999730198415  0.6085318775300097  0.9999638844023979
  0.1392395100269160  0.6101974487546287  0.4999595758367318
  0.6409626610945266  0.1094363152457546  0.0007801902240847
  0.6392523645739542  0.1107781513849250  0.4995811509197552
  0.6406963261701834  0.6097943282723953  0.9999215448760975
  0.1083636741361654  0.3587032299898738  0.0001589664910846
  0.1076340261537858  0.3588810029984714  0.4998595825741328
  0.1096340199002262  0.8584595970415679  0.0012351967442133
  0.1073972399621147  0.8582298029189869  0.5015325557706488
  0.6094040052494764  0.3588182919249049  0.9990291156739947
  0.6092907889079653  0.8595079783719792  0.9995374238241403
  0.6057475582238835  0.8530039013374722  0.5004774559140851
  0.3908093456432116  0.1402137223618973  0.9995893291154211
  0.3912619909540154  0.1397704486557968  0.5003180941725514
  0.3905131463992915  0.6408847113756146  0.9998586504676769
  0.8904166121203529  0.1408314080601414  0.0012819169778243
  0.8901579347551429  0.1400335657498369  0.5018054233858759
  0.8907609034463353  0.6404628281144840  0.0004835922691797
  0.9986151580445490  0.9974235306488006  0.1246052543159653
  0.9995954800713801  0.0008258334272267  0.6250914225128190
  0.9995915233225463  0.4992548644515400  0.1248747676477921
  0.0007056360789179  0.5015404637704185  0.6249845023710219
  0.5012336191644652  0.9997198116493368  0.1248904869334584
  0.5000976703892795  0.9996390331590694  0.6247093467109928
  0.4950779395741843  0.4943693108351646  0.1231519484680893
  0.5081316422758656  0.5048494262959499  0.6292826286117280
  0.9999513890078213  0.0010298299333823  0.3756347503386503
  0.9980085677337521  0.9971681405676580  0.8743112876765557
  0.0006051380457568  0.5013866797245580  0.3751214686306616
  0.9997022443223783  0.4992530195363609  0.8748753039713337
  0.5000478187910466  0.0003284028159746  0.3751587675293780
  0.5012360156672228  0.9999819058817849  0.8747926906517430
  0.4976111283557226  0.4982829671862438  0.8758341820319957
  0.2426775061694415  0.2424827880623565  0.3749986136142987
  0.2491341037410343  0.2492259726910857  0.8743576404513943
  0.2444162993110935  0.7558598040788408  0.3747545525479271
  0.2494788665318676  0.7511389944337665  0.8752885128115766
  0.7517745039102302  0.2482029902675275  0.8752347115071769
  0.7534969821883436  0.7528891967008833  0.8746030084159163
  0.2515000915624406  0.2505109186185007  0.1246692350550773
  0.2494050943772017  0.2498208037470206  0.6250026309812607
  0.2534004012097110  0.7452228448195966  0.1258960199875402
  0.2533437157505934  0.7468081600162498  0.6242424349832260
  0.7469899116073206  0.2554468879047027  0.1259492784964918
  0.7444659989474209  0.2534317353863316  0.6241989883960607
  0.7491593716564398  0.7508377799014756  0.1253195418474382
  0.7370668755157093  0.7352279948108006  0.6218317292130079
  0.7558575702288088  0.2433974001053484  0.3744709573973795
  0.8628159073445200  0.3883152557378534  0.5004583298724504
  0.3957041444140983  0.6437694996963154  0.4911155060234099
  0.3542865796009275  0.3864069658593234  0.4948604325183036
  0.8796314124584166  0.6344629880365119  0.5000910866805821
  0.7448340905163122  0.7432976606877068  0.3784554594588706
  0.6175811950031344  0.3715445356321138  0.4886932335096669
 
  0.00000000E+00  0.00000000E+00  0.00000000E+00
  0.00000000E+00  0.00000000E+00  0.00000000E+00
  0.00000000E+00  0.00000000E+00  0.00000000E+00
  0.00000000E+00  0.00000000E+00  0.00000000E+00
  0.00000000E+00  0.00000000E+00  0.00000000E+00
  0.00000000E+00  0.00000000E+00  0.00000000E+00
  0.00000000E+00  0.00000000E+00  0.00000000E+00
  0.00000000E+00  0.00000000E+00  0.00000000E+00
  0.00000000E+00  0.00000000E+00  0.00000000E+00
  0.00000000E+00  0.00000000E+00  0.00000000E+00
  0.00000000E+00  0.00000000E+00  0.00000000E+00
  0.00000000E+00  0.00000000E+00  0.00000000E+00
  0.00000000E+00  0.00000000E+00  0.00000000E+00
  0.00000000E+00  0.00000000E+00  0.00000000E+00
  0.00000000E+00  0.00000000E+00  0.00000000E+00
  0.00000000E+00  0.00000000E+00  0.00000000E+00
  0.00000000E+00  0.00000000E+00  0.00000000E+00
  0.00000000E+00  0.00000000E+00  0.00000000E+00
  0.00000000E+00  0.00000000E+00  0.00000000E+00
  0.00000000E+00  0.00000000E+00  0.00000000E+00
  0.00000000E+00  0.00000000E+00  0.00000000E+00
  0.00000000E+00  0.00000000E+00  0.00000000E+00
  0.00000000E+00  0.00000000E+00  0.00000000E+00
  0.00000000E+00  0.00000000E+00  0.00000000E+00
  0.00000000E+00  0.00000000E+00  0.00000000E+00
  0.00000000E+00  0.00000000E+00  0.00000000E+00
  0.00000000E+00  0.00000000E+00  0.00000000E+00
  0.00000000E+00  0.00000000E+00  0.00000000E+00
  0.00000000E+00  0.00000000E+00  0.00000000E+00
  0.00000000E+00  0.00000000E+00  0.00000000E+00
  0.00000000E+00  0.00000000E+00  0.00000000E+00
  0.00000000E+00  0.00000000E+00  0.00000000E+00
  0.00000000E+00  0.00000000E+00  0.00000000E+00
  0.00000000E+00  0.00000000E+00  0.00000000E+00
  0.00000000E+00  0.00000000E+00  0.00000000E+00
  0.00000000E+00  0.00000000E+00  0.00000000E+00
  0.00000000E+00  0.00000000E+00  0.00000000E+00
  0.00000000E+00  0.00000000E+00  0.00000000E+00
  0.00000000E+00  0.00000000E+00  0.00000000E+00
  0.00000000E+00  0.00000000E+00  0.00000000E+00
  0.00000000E+00  0.00000000E+00  0.00000000E+00
  0.00000000E+00  0.00000000E+00  0.00000000E+00
  0.00000000E+00  0.00000000E+00  0.00000000E+00
  0.00000000E+00  0.00000000E+00  0.00000000E+00
  0.00000000E+00  0.00000000E+00  0.00000000E+00
  0.00000000E+00  0.00000000E+00  0.00000000E+00
  0.00000000E+00  0.00000000E+00  0.00000000E+00
  0.00000000E+00  0.00000000E+00  0.00000000E+00
  0.00000000E+00  0.00000000E+00  0.00000000E+00
  0.00000000E+00  0.00000000E+00  0.00000000E+00
  0.00000000E+00  0.00000000E+00  0.00000000E+00
  0.00000000E+00  0.00000000E+00  0.00000000E+00
  0.00000000E+00  0.00000000E+00  0.00000000E+00
  0.00000000E+00  0.00000000E+00  0.00000000E+00
  0.00000000E+00  0.00000000E+00  0.00000000E+00
  0.00000000E+00  0.00000000E+00  0.00000000E+00
  0.00000000E+00  0.00000000E+00  0.00000000E+00
  0.00000000E+00  0.00000000E+00  0.00000000E+00
  0.00000000E+00  0.00000000E+00  0.00000000E+00
  0.00000000E+00  0.00000000E+00  0.00000000E+00
  0.00000000E+00  0.00000000E+00  0.00000000E+00
  0.00000000E+00  0.00000000E+00  0.00000000E+00
  0.00000000E+00  0.00000000E+00  0.00000000E+00
  0.00000000E+00  0.00000000E+00  0.00000000E+00
  0.00000000E+00  0.00000000E+00  0.00000000E+00
  0.00000000E+00  0.00000000E+00  0.00000000E+00
  0.00000000E+00  0.00000000E+00  0.00000000E+00
  0.00000000E+00  0.00000000E+00  0.00000000E+00
  0.00000000E+00  0.00000000E+00  0.00000000E+00
  0.00000000E+00  0.00000000E+00  0.00000000E+00
  0.00000000E+00  0.00000000E+00  0.00000000E+00
  0.00000000E+00  0.00000000E+00  0.00000000E+00
  0.00000000E+00  0.00000000E+00  0.00000000E+00
  0.00000000E+00  0.00000000E+00  0.00000000E+00
  0.00000000E+00  0.00000000E+00  0.00000000E+00
  0.00000000E+00  0.00000000E+00  0.00000000E+00
  0.00000000E+00  0.00000000E+00  0.00000000E+00
  0.00000000E+00  0.00000000E+00  0.00000000E+00
  0.00000000E+00  0.00000000E+00  0.00000000E+00
  0.00000000E+00  0.00000000E+00  0.00000000E+00
  0.00000000E+00  0.00000000E+00  0.00000000E+00
  0.00000000E+00  0.00000000E+00  0.00000000E+00
  0.00000000E+00  0.00000000E+00  0.00000000E+00
  0.00000000E+00  0.00000000E+00  0.00000000E+00
  0.00000000E+00  0.00000000E+00  0.00000000E+00
  0.00000000E+00  0.00000000E+00  0.00000000E+00
  0.00000000E+00  0.00000000E+00  0.00000000E+00
  0.00000000E+00  0.00000000E+00  0.00000000E+00
  0.00000000E+00  0.00000000E+00  0.00000000E+00
  0.00000000E+00  0.00000000E+00  0.00000000E+00
  0.00000000E+00  0.00000000E+00  0.00000000E+00
  0.00000000E+00  0.00000000E+00  0.00000000E+00
  0.00000000E+00  0.00000000E+00  0.00000000E+00
  0.00000000E+00  0.00000000E+00  0.00000000E+00
  0.00000000E+00  0.00000000E+00  0.00000000E+00
  0.00000000E+00  0.00000000E+00  0.00000000E+00
  0.00000000E+00  0.00000000E+00  0.00000000E+00
  0.00000000E+00  0.00000000E+00  0.00000000E+00
  0.00000000E+00  0.00000000E+00  0.00000000E+00
  0.00000000E+00  0.00000000E+00  0.00000000E+00
  0.00000000E+00  0.00000000E+00  0.00000000E+00
  0.00000000E+00  0.00000000E+00  0.00000000E+00
  0.00000000E+00  0.00000000E+00  0.00000000E+00
  0.00000000E+00  0.00000000E+00  0.00000000E+00
  0.00000000E+00  0.00000000E+00  0.00000000E+00
  0.00000000E+00  0.00000000E+00  0.00000000E+00
  0.00000000E+00  0.00000000E+00  0.00000000E+00
  0.00000000E+00  0.00000000E+00  0.00000000E+00
  0.00000000E+00  0.00000000E+00  0.00000000E+00
  0.00000000E+00  0.00000000E+00  0.00000000E+00
  0.00000000E+00  0.00000000E+00  0.00000000E+00
  0.00000000E+00  0.00000000E+00  0.00000000E+00
  0.00000000E+00  0.00000000E+00  0.00000000E+00
  0.00000000E+00  0.00000000E+00  0.00000000E+00
  0.00000000E+00  0.00000000E+00  0.00000000E+00
  0.00000000E+00  0.00000000E+00  0.00000000E+00
  0.00000000E+00  0.00000000E+00  0.00000000E+00
  0.00000000E+00  0.00000000E+00  0.00000000E+00
  0.00000000E+00  0.00000000E+00  0.00000000E+00
  0.00000000E+00  0.00000000E+00  0.00000000E+00
  0.00000000E+00  0.00000000E+00  0.00000000E+00
  0.00000000E+00  0.00000000E+00  0.00000000E+00
  0.00000000E+00  0.00000000E+00  0.00000000E+00
  0.00000000E+00  0.00000000E+00  0.00000000E+00
  0.00000000E+00  0.00000000E+00  0.00000000E+00
  0.00000000E+00  0.00000000E+00  0.00000000E+00
  0.00000000E+00  0.00000000E+00  0.00000000E+00
  0.00000000E+00  0.00000000E+00  0.00000000E+00
  0.00000000E+00  0.00000000E+00  0.00000000E+00
  0.00000000E+00  0.00000000E+00  0.00000000E+00
  0.00000000E+00  0.00000000E+00  0.00000000E+00
  0.00000000E+00  0.00000000E+00  0.00000000E+00
  0.00000000E+00  0.00000000E+00  0.00000000E+00
  0.00000000E+00  0.00000000E+00  0.00000000E+00
  0.00000000E+00  0.00000000E+00  0.00000000E+00
  0.00000000E+00  0.00000000E+00  0.00000000E+00
  0.00000000E+00  0.00000000E+00  0.00000000E+00
  0.00000000E+00  0.00000000E+00  0.00000000E+00
  0.00000000E+00  0.00000000E+00  0.00000000E+00
  0.00000000E+00  0.00000000E+00  0.00000000E+00
  0.00000000E+00  0.00000000E+00  0.00000000E+00
  0.00000000E+00  0.00000000E+00  0.00000000E+00
  0.00000000E+00  0.00000000E+00  0.00000000E+00
  0.00000000E+00  0.00000000E+00  0.00000000E+00
  0.00000000E+00  0.00000000E+00  0.00000000E+00
  0.00000000E+00  0.00000000E+00  0.00000000E+00
  0.00000000E+00  0.00000000E+00  0.00000000E+00
  0.00000000E+00  0.00000000E+00  0.00000000E+00
  0.00000000E+00  0.00000000E+00  0.00000000E+00
  0.00000000E+00  0.00000000E+00  0.00000000E+00
  0.00000000E+00  0.00000000E+00  0.00000000E+00
  0.00000000E+00  0.00000000E+00  0.00000000E+00
  0.00000000E+00  0.00000000E+00  0.00000000E+00
  0.00000000E+00  0.00000000E+00  0.00000000E+00
  0.00000000E+00  0.00000000E+00  0.00000000E+00
  0.00000000E+00  0.00000000E+00  0.00000000E+00
  0.00000000E+00  0.00000000E+00  0.00000000E+00
  0.00000000E+00  0.00000000E+00  0.00000000E+00
