Sr   Ti   Fe   O                        
   1.00000000000000     
    11.1989999999999998    0.0000000000000000    0.0000000000000000
     0.0000000000000000   11.1989999999999998    0.0000000000000000
     0.0000000000000000    0.0000000000000000   15.9830000000000005
   Sr   Ti   Fe   O 
    32    30     2    94
Direct
  1.0001682353042394  0.2495032591131059  0.1241133002010818
  0.0007668177078763  0.2421906763580458  0.6301436192460816
  0.9978017598973865  0.7506192326719071  0.1245840643064514
  0.0054669242743984  0.7576034426042161  0.6304206977683108
  0.4993519411777911  0.2503460718930142  0.1243761395402673
  0.5018499177825965  0.2403353133982158  0.6262248592742882
  0.5011923166648414  0.7503347784110523  0.1229756422061801
  0.4957433996710394  0.7534297113356004  0.6276751519869459
  0.0011971830516808  0.2441023549563273  0.3719012313092548
  1.0003531663325878  0.2498802461901365  0.8750586702599011
  0.0041430840265242  0.7547288363995610  0.3729129018529144
  0.9983258674660892  0.7496928423246534  0.8746367394256293
  0.5018969554663052  0.2415854107693400  0.3717450492263987
  0.5001022763734043  0.2525417461973221  0.8722632489208919
  0.4966735936825755  0.7517299844673339  0.3714692832744829
  0.5023189214879903  0.7479860209507742  0.8743082005915734
  0.2501214617835699  0.0005711008261132  0.1243513989789195
  0.2488588119094605  0.9989067796039804  0.6266468174020575
  0.2490376686546810  0.5006795183523791  0.1244741197691286
  0.2410084399793529  0.5051373031792395  0.6291414327519762
  0.7495003485940995  0.9979969423251712  0.1250195517895590
  0.7549396421786219  0.9992848459642070  0.6253729394453651
  0.7494988717731035  0.4998610872978327  0.1222136793953366
  0.7575475221000995  0.4955764756565718  0.6360304688124434
  0.2494551721458068 -0.0011626388188320  0.3741721997564715
  0.2500100116513139  0.0001796508486361  0.8738152842272889
  0.2462507226740274  0.5043750419794049  0.3740157138757879
  0.2547132986537071  0.5006577180365186  0.8727951951250116
  0.7531275914622316  1.0005989271973923  0.3753806676903166
  0.7506679229894152  0.9977937200718580  0.8733500770095234
  0.7529013271744809  0.4928503385230413  0.3655558545482803
  0.7435835546826701  0.5001724432198921  0.8743817391240707
  0.9999539272571168  0.9997590104942407  0.9999951744923353
  0.9993559060512444  1.0004022462030908  0.4996245938604749
  0.0007460975396462  0.4991961806938212  0.9997144151366165
  0.0045452125178785  0.4866237589322007  0.5003245160055305
  0.5005886087644601  0.9998348579885116  0.9994062074741028
  0.5014949656101892  0.9950020475778498  0.4997985026747918
  0.4988837711981765  0.4995232884146201  0.9987053165420978
  0.2505387216067066  0.2511283214156781  0.9995407132676122
  0.2540885122670201  0.2419359324175803  0.5012919648850527
  0.2501870108811224  0.7498398293090204  0.9996473572078788
  0.2479300905282113  0.7524417692461296  0.4997455192881540
  0.7500779884570784  0.2495373698472268  0.9994760736260666
  0.7480323685129665  0.2498198085501317  0.5000236967695826
  0.7499640662806023  0.7505102656717947  0.9996250617841599
  0.2506581315508684  0.2509852403844442  0.2505673978016797
  0.2533014196896581  0.2517098147232328  0.7484807830489802
  0.2494552786210066  0.7503094710632756  0.2488923793538863
  0.2523448111891294  0.7484684120626475  0.7503079665474670
  0.7502835127554481  0.2485754503608356  0.2485079022539380
  0.7487425250331823  0.2502262964756926  0.7501066128257408
  0.7500090447480952  0.7473092387779914  0.2524637671057319
  0.7499090319040942  0.7476415134226597  0.7468993383185548
  0.0001767249829817 -0.0000611021934045  0.2498173880757555
  0.0007810977992561  0.0003157316691685  0.7519820717175618
  0.9993673539207677  0.5006281704800308  0.2491171653197839
  0.9997926463452090  0.5002940189047695  0.7524796513177859
  0.5002964524094852  0.9988619088266945  0.2498203045980381
  0.5008153177996373  0.9993214676845351  0.7500131412412004
  0.5003146993105090  0.5005198912822475  0.2469265358809523
  0.4918871066938987  0.4916352763038610  0.4934375393375516
  0.5016528721952109  0.5009476820949083  0.7520504999298979
  0.7461609546594814  0.7587179218839286  0.5019947407149491
  0.1113067075544583  0.1412745018618503  0.2495906127446098
  0.1114561868060310  0.1385695866991472  0.7546223244654714
  0.1090145540027106  0.6402569942053393  0.2499465967574312
  0.1109191917107928  0.6387498971301006  0.7498079852377021
  0.6111292295470235  0.1384676731014937  0.2484431715012358
  0.6122926270209628  0.1365698417427256  0.7500032835226984
  0.6093491814692382  0.6404714697044740  0.2459800789148305
  0.3912863819209895  0.3617644500771223  0.2544581545603022
  0.3867419168870039  0.3592206526405378  0.7376257224894361
  0.3897871262265218  0.8599354221605916  0.2493402373585371
  0.3885011174200769  0.8629987807759220  0.7514183797644203
  0.8899991672935312  0.3602885085215277  0.2525188820603953
  0.8906844124659608  0.3605147378481492  0.7486225402704896
  0.8892506210630853  0.8593668433086230  0.2548621529627382
  0.8906351049131885  0.8624088243210702  0.7516428776313521
  0.3608319459310012  0.1111780922965926  0.2499964889692937
  0.3622081806905290  0.1110683530893648  0.7517822921547508
  0.3592013565635436  0.6094679497400743  0.2526524520516388
  0.3592529539958439  0.6158711148945225  0.7411405065377904
  0.8604040188988697  0.1098511898121181  0.2497941679985899
  0.8623188792323260  0.1107894095345023  0.7499135694455989
  0.8598289094626321  0.6083127184441782  0.2439350116845415
  0.8632869143517566  0.6096023436231262  0.7584411496258027
  0.1391931454515330  0.3917260926788889  0.2547805982289952
  0.1378408344546632  0.3897039060349891  0.7458627802216153
  0.1394117254263844  0.8902393190919818  0.2495355556262247
  0.1383072123426767  0.8887210914916694  0.7498351063563949
  0.6393923682033092  0.3886197593099174  0.2483003094504945
  0.6403238609795426  0.8877442429754531  0.2570234799520895
  0.6407241477299367  0.8892641039163033  0.7437158893059436
  0.3577373998269520  0.3910418124394394  0.0032399553197440
  0.3589436657085027  0.8915423135634438  0.9999998292319530
  0.3546076401100708  0.8924926132806789  0.4989788598958435
  0.8593500626638259  0.3910437642410077  0.9991974477266564
  0.8476505627170369  0.4087422290089733  0.4993263696039080
  0.8597584791135673  0.8912546510505601  1.0008978346152735
  0.8664438359271209  0.8944766495021023  0.4961350684352561
  0.1418109310066816  0.1097705474778608  1.0004805195574911
  0.1440511857882069  0.1092051305689193  0.4966810461221892
  0.1410239785903727  0.6086393965826555  0.0000651550084346
  0.1189883783643195  0.6194793650700600  0.4990292708770329
  0.6416286966801217  0.1087431832394732  0.0006822391840069
  0.6447930411681639  0.1046093499290882  0.4999787221059510
  0.6406065287382322  0.6101754668297555  0.0019972378467530
  0.1088642966522523  0.3577030732205407  0.0009054760037712
  0.1052896337864769  0.3569903229373451  0.4997304490427986
  0.1094222345276895  0.8589225659701859  1.0001482099232375
  0.1094498454100183  0.8632466574554091  0.4982196877051557
  0.6097064907311137  0.3584120788887498  0.0020983920249215
  0.6087062156000178  0.8593483922527601  0.0004981113789766
  0.5951312294959215  0.8539336792742636  0.4994989942633796
  0.3914578445186782  0.1409668294941754  0.0000825562385083
  0.3935124902534807  0.1432968494849161  0.4993278013616578
  0.3903929534610461  0.6418608095028684  0.0021313047329009
  0.3757226981684189  0.6336418785542169  0.4957873099278581
  0.8916101178106556  0.1410520159523097  1.0002240851440103
  0.8943797283775777  0.1488423571720559  0.4984893779452677
  0.8909674745145697  0.6399170427634339  0.0007617360709182
  0.9994943659909062  0.9989893022622611  0.1256425275941984
  0.0016703949169420  0.0035785933029468  0.6248695606545919
  0.0025017888086022  0.4964413167506529  0.1253426595500606
  0.9920467990251909  0.5105320452615340  0.6223099003899569
  0.5019444542192986  0.9978042191470108  0.1256665329223553
  0.4961769762276264  0.0025642002242305  0.6245751180958320
  0.4975338890589381  0.4988295674864936  0.1266723964379277
  0.0025808897017812  0.0051118860491345  0.3733350856643737
  1.0001402887797159  0.9995791980066796  0.8766233963516804
  0.9901458334709328  0.5110227466310746  0.3775964010200872
  0.0050922929086707  0.4962638248507336  0.8755673938712799
  0.4974825715245225  0.0025983312981186  0.3746015836701787
  0.5033861644035968  0.9983194998759453  0.8748883833043459
  0.4967712072617141  0.4978703712474526  0.8807512171652599
  0.2533136414246960  0.2549149389567266  0.3769137455825658
  0.2539137598254504  0.2564523144648709  0.8748094615021008
  0.2464987160498501  0.7518588159796897  0.3736121077890384
  0.2517761276862515  0.7476924095469623  0.8750509384498344
  0.7493832334406805  0.2492462522059590  0.3746199085738632
  0.7498621148379973  0.2504395644473911  0.8752170944866835
  0.7533023640731579  0.7240095184501887  0.3795327349161430
  0.7492601738959975  0.7538094443636432  0.8763279278146463
  0.2508344346409570  0.2531080141126401  0.1267980092259571
  0.2413723852676526  0.2385602611328771  0.6243149520575955
  0.2492181571653937  0.7499875301731134  0.1252871307799496
  0.2460348322766169  0.7534947657732955  0.6232977845266138
  0.7530819271836897  0.2502102280822062  0.1251369643428539
  0.7525385208459270  0.2472798324937341  0.6230461816083851
  0.7505740828731425  0.7552632963630977  0.1264094798424722
  0.6409680728880816  0.3827632146943213  0.7460099643425216
  0.6150401561149421  0.6436714505530877  0.7498025423234609
  0.5145274387992690  0.5120676579345735  0.3764944501407234
  0.5999180531679499  0.3503155749481684  0.4980341461345220
  0.3552975164365417  0.3924790806746405  0.5149570799868849
  0.7721597097829501  0.7388090507252271  0.6234431951068103
  0.5829434223639465  0.5726623803558873  0.5691437992525636
 
  0.00000000E+00  0.00000000E+00  0.00000000E+00
  0.00000000E+00  0.00000000E+00  0.00000000E+00
  0.00000000E+00  0.00000000E+00  0.00000000E+00
  0.00000000E+00  0.00000000E+00  0.00000000E+00
  0.00000000E+00  0.00000000E+00  0.00000000E+00
  0.00000000E+00  0.00000000E+00  0.00000000E+00
  0.00000000E+00  0.00000000E+00  0.00000000E+00
  0.00000000E+00  0.00000000E+00  0.00000000E+00
  0.00000000E+00  0.00000000E+00  0.00000000E+00
  0.00000000E+00  0.00000000E+00  0.00000000E+00
  0.00000000E+00  0.00000000E+00  0.00000000E+00
  0.00000000E+00  0.00000000E+00  0.00000000E+00
  0.00000000E+00  0.00000000E+00  0.00000000E+00
  0.00000000E+00  0.00000000E+00  0.00000000E+00
  0.00000000E+00  0.00000000E+00  0.00000000E+00
  0.00000000E+00  0.00000000E+00  0.00000000E+00
  0.00000000E+00  0.00000000E+00  0.00000000E+00
  0.00000000E+00  0.00000000E+00  0.00000000E+00
  0.00000000E+00  0.00000000E+00  0.00000000E+00
  0.00000000E+00  0.00000000E+00  0.00000000E+00
  0.00000000E+00  0.00000000E+00  0.00000000E+00
  0.00000000E+00  0.00000000E+00  0.00000000E+00
  0.00000000E+00  0.00000000E+00  0.00000000E+00
  0.00000000E+00  0.00000000E+00  0.00000000E+00
  0.00000000E+00  0.00000000E+00  0.00000000E+00
  0.00000000E+00  0.00000000E+00  0.00000000E+00
  0.00000000E+00  0.00000000E+00  0.00000000E+00
  0.00000000E+00  0.00000000E+00  0.00000000E+00
  0.00000000E+00  0.00000000E+00  0.00000000E+00
  0.00000000E+00  0.00000000E+00  0.00000000E+00
  0.00000000E+00  0.00000000E+00  0.00000000E+00
  0.00000000E+00  0.00000000E+00  0.00000000E+00
  0.00000000E+00  0.00000000E+00  0.00000000E+00
  0.00000000E+00  0.00000000E+00  0.00000000E+00
  0.00000000E+00  0.00000000E+00  0.00000000E+00
  0.00000000E+00  0.00000000E+00  0.00000000E+00
  0.00000000E+00  0.00000000E+00  0.00000000E+00
  0.00000000E+00  0.00000000E+00  0.00000000E+00
  0.00000000E+00  0.00000000E+00  0.00000000E+00
  0.00000000E+00  0.00000000E+00  0.00000000E+00
  0.00000000E+00  0.00000000E+00  0.00000000E+00
  0.00000000E+00  0.00000000E+00  0.00000000E+00
  0.00000000E+00  0.00000000E+00  0.00000000E+00
  0.00000000E+00  0.00000000E+00  0.00000000E+00
  0.00000000E+00  0.00000000E+00  0.00000000E+00
  0.00000000E+00  0.00000000E+00  0.00000000E+00
  0.00000000E+00  0.00000000E+00  0.00000000E+00
  0.00000000E+00  0.00000000E+00  0.00000000E+00
  0.00000000E+00  0.00000000E+00  0.00000000E+00
  0.00000000E+00  0.00000000E+00  0.00000000E+00
  0.00000000E+00  0.00000000E+00  0.00000000E+00
  0.00000000E+00  0.00000000E+00  0.00000000E+00
  0.00000000E+00  0.00000000E+00  0.00000000E+00
  0.00000000E+00  0.00000000E+00  0.00000000E+00
  0.00000000E+00  0.00000000E+00  0.00000000E+00
  0.00000000E+00  0.00000000E+00  0.00000000E+00
  0.00000000E+00  0.00000000E+00  0.00000000E+00
  0.00000000E+00  0.00000000E+00  0.00000000E+00
  0.00000000E+00  0.00000000E+00  0.00000000E+00
  0.00000000E+00  0.00000000E+00  0.00000000E+00
  0.00000000E+00  0.00000000E+00  0.00000000E+00
  0.00000000E+00  0.00000000E+00  0.00000000E+00
  0.00000000E+00  0.00000000E+00  0.00000000E+00
  0.00000000E+00  0.00000000E+00  0.00000000E+00
  0.00000000E+00  0.00000000E+00  0.00000000E+00
  0.00000000E+00  0.00000000E+00  0.00000000E+00
  0.00000000E+00  0.00000000E+00  0.00000000E+00
  0.00000000E+00  0.00000000E+00  0.00000000E+00
  0.00000000E+00  0.00000000E+00  0.00000000E+00
  0.00000000E+00  0.00000000E+00  0.00000000E+00
  0.00000000E+00  0.00000000E+00  0.00000000E+00
  0.00000000E+00  0.00000000E+00  0.00000000E+00
  0.00000000E+00  0.00000000E+00  0.00000000E+00
  0.00000000E+00  0.00000000E+00  0.00000000E+00
  0.00000000E+00  0.00000000E+00  0.00000000E+00
  0.00000000E+00  0.00000000E+00  0.00000000E+00
  0.00000000E+00  0.00000000E+00  0.00000000E+00
  0.00000000E+00  0.00000000E+00  0.00000000E+00
  0.00000000E+00  0.00000000E+00  0.00000000E+00
  0.00000000E+00  0.00000000E+00  0.00000000E+00
  0.00000000E+00  0.00000000E+00  0.00000000E+00
  0.00000000E+00  0.00000000E+00  0.00000000E+00
  0.00000000E+00  0.00000000E+00  0.00000000E+00
  0.00000000E+00  0.00000000E+00  0.00000000E+00
  0.00000000E+00  0.00000000E+00  0.00000000E+00
  0.00000000E+00  0.00000000E+00  0.00000000E+00
  0.00000000E+00  0.00000000E+00  0.00000000E+00
  0.00000000E+00  0.00000000E+00  0.00000000E+00
  0.00000000E+00  0.00000000E+00  0.00000000E+00
  0.00000000E+00  0.00000000E+00  0.00000000E+00
  0.00000000E+00  0.00000000E+00  0.00000000E+00
  0.00000000E+00  0.00000000E+00  0.00000000E+00
  0.00000000E+00  0.00000000E+00  0.00000000E+00
  0.00000000E+00  0.00000000E+00  0.00000000E+00
  0.00000000E+00  0.00000000E+00  0.00000000E+00
  0.00000000E+00  0.00000000E+00  0.00000000E+00
  0.00000000E+00  0.00000000E+00  0.00000000E+00
  0.00000000E+00  0.00000000E+00  0.00000000E+00
  0.00000000E+00  0.00000000E+00  0.00000000E+00
  0.00000000E+00  0.00000000E+00  0.00000000E+00
  0.00000000E+00  0.00000000E+00  0.00000000E+00
  0.00000000E+00  0.00000000E+00  0.00000000E+00
  0.00000000E+00  0.00000000E+00  0.00000000E+00
  0.00000000E+00  0.00000000E+00  0.00000000E+00
  0.00000000E+00  0.00000000E+00  0.00000000E+00
  0.00000000E+00  0.00000000E+00  0.00000000E+00
  0.00000000E+00  0.00000000E+00  0.00000000E+00
  0.00000000E+00  0.00000000E+00  0.00000000E+00
  0.00000000E+00  0.00000000E+00  0.00000000E+00
  0.00000000E+00  0.00000000E+00  0.00000000E+00
  0.00000000E+00  0.00000000E+00  0.00000000E+00
  0.00000000E+00  0.00000000E+00  0.00000000E+00
  0.00000000E+00  0.00000000E+00  0.00000000E+00
  0.00000000E+00  0.00000000E+00  0.00000000E+00
  0.00000000E+00  0.00000000E+00  0.00000000E+00
  0.00000000E+00  0.00000000E+00  0.00000000E+00
  0.00000000E+00  0.00000000E+00  0.00000000E+00
  0.00000000E+00  0.00000000E+00  0.00000000E+00
  0.00000000E+00  0.00000000E+00  0.00000000E+00
  0.00000000E+00  0.00000000E+00  0.00000000E+00
  0.00000000E+00  0.00000000E+00  0.00000000E+00
  0.00000000E+00  0.00000000E+00  0.00000000E+00
  0.00000000E+00  0.00000000E+00  0.00000000E+00
  0.00000000E+00  0.00000000E+00  0.00000000E+00
  0.00000000E+00  0.00000000E+00  0.00000000E+00
  0.00000000E+00  0.00000000E+00  0.00000000E+00
  0.00000000E+00  0.00000000E+00  0.00000000E+00
  0.00000000E+00  0.00000000E+00  0.00000000E+00
  0.00000000E+00  0.00000000E+00  0.00000000E+00
  0.00000000E+00  0.00000000E+00  0.00000000E+00
  0.00000000E+00  0.00000000E+00  0.00000000E+00
  0.00000000E+00  0.00000000E+00  0.00000000E+00
  0.00000000E+00  0.00000000E+00  0.00000000E+00
  0.00000000E+00  0.00000000E+00  0.00000000E+00
  0.00000000E+00  0.00000000E+00  0.00000000E+00
  0.00000000E+00  0.00000000E+00  0.00000000E+00
  0.00000000E+00  0.00000000E+00  0.00000000E+00
  0.00000000E+00  0.00000000E+00  0.00000000E+00
  0.00000000E+00  0.00000000E+00  0.00000000E+00
  0.00000000E+00  0.00000000E+00  0.00000000E+00
  0.00000000E+00  0.00000000E+00  0.00000000E+00
  0.00000000E+00  0.00000000E+00  0.00000000E+00
  0.00000000E+00  0.00000000E+00  0.00000000E+00
  0.00000000E+00  0.00000000E+00  0.00000000E+00
  0.00000000E+00  0.00000000E+00  0.00000000E+00
  0.00000000E+00  0.00000000E+00  0.00000000E+00
  0.00000000E+00  0.00000000E+00  0.00000000E+00
  0.00000000E+00  0.00000000E+00  0.00000000E+00
  0.00000000E+00  0.00000000E+00  0.00000000E+00
  0.00000000E+00  0.00000000E+00  0.00000000E+00
  0.00000000E+00  0.00000000E+00  0.00000000E+00
  0.00000000E+00  0.00000000E+00  0.00000000E+00
  0.00000000E+00  0.00000000E+00  0.00000000E+00
  0.00000000E+00  0.00000000E+00  0.00000000E+00
  0.00000000E+00  0.00000000E+00  0.00000000E+00
  0.00000000E+00  0.00000000E+00  0.00000000E+00
  0.00000000E+00  0.00000000E+00  0.00000000E+00
  0.00000000E+00  0.00000000E+00  0.00000000E+00
