SrTiFeO                                 
   1.00000000000000     
    11.1989999999999998    0.0000000000000000    0.0000000000000000
     0.0000000000000000   11.1989999999999998    0.0000000000000000
     0.0000000000000000    0.0000000000000000   15.9830000000000005
   Sr   Ti   Fe   O 
    32    30     2    94
Direct
  0.0000566699726325  0.2503474763686461  0.1242931132213071
  0.0002744261303188  0.2443574192219149  0.6284849128695386
  0.9980179053046530  0.7499854774896978  0.1249151971028326
  0.0036884735294504  0.7534743089707281  0.6279544389496615
  0.4995727557709413  0.2511659749378166  0.1249519931869702
  0.5027485285429202  0.2479090288794213  0.6273178741028673
  0.5009803049124896  0.7498800570191148  0.1231372662577802
  0.4991720462923860  0.7495798290519565  0.6291835310798097
  0.0004380209638356  0.2447087832852082  0.3724276836297276
 -0.0000722976550786  0.2500766864982941  0.8749386305743221
  0.0037281340642301  0.7532092515627590  0.3731446461936676
  0.9980129654916932  0.7500216459116397  0.8742585537590757
  0.5027441962885001  0.2457611247427505  0.3740409495995954
  0.4997930062075670  0.2532275074118264  0.8730985812236225
  0.4992509101786707  0.7522199048932502  0.3719162856573489
  0.5006701770211313  0.7479022015064963  0.8749053328367157
  0.2502336827262889  0.0001611718480403  0.1248739124755723
  0.2500155754089642  0.9991620132001087  0.6271200393090870
  0.2501259769193101  0.5003630787928852  0.1244042805305038
  0.2503946010691811  0.5022785046163111  0.6297323507722035
  0.7494511889230507  0.9982373453940814  0.1251900592943701
  0.7514835582637672  0.9985048882054911  0.6237176492417685
  0.7485538021502124  0.5001297846007684  0.1229981772955826
  0.7499625668385017  0.4942599603073890  0.6326043564603124
  0.2501227703825723  0.9994413234473876  0.3736999335922451
  0.2498260571367528  0.0000124029836885  0.8743255211550925
  0.2477969216478043  0.5027687759779184  0.3723188270560491
  0.2518890718044488  0.5000149683034409  0.8740636690378997
  0.7513628314733751  0.9989397346644291  0.3771836534839106
  0.7496538226217151  0.9981116835951837  0.8737650100777039
  0.7520469707044316  0.4938630923339696  0.3686246457042135
  0.7462184509576232  0.5003925186252463  0.8752797906037511
  0.9997852541762688  0.9996098402726018  0.9999292308381666
  0.9984492513763412  0.9985361069989729  0.5000514974386477
  0.0003341717347462  0.4994444569676868  0.9996459412582885
  0.0054379449679134  0.4893880984153128  0.5003802315271552
  0.5003483245417863 -0.0000098255088321  0.9996702634293219
  0.5010687838703580  0.9964942113511525  0.5004386764658043
  0.4991538203687643  0.4995282944674126  0.9984913893452046
  0.2502295083866138  0.2507079406161391  0.9997933350440826
  0.2512265898724395  0.2410275337022866  0.5002851959468484
  0.2495889922277436  0.7500946447505799  0.9998302785838676
  0.2506224645616050  0.7523183497063265  0.5001220943426469
  0.7503326479628381  0.2493308726322244  0.9998156973335361
  0.7504563787269225  0.2510568885882315  0.5000987243098018
  0.7499812209051833  0.7509455194530069  0.9997593865206881
  0.2506661807762923  0.2503139143018187  0.2505440773783427
  0.2520299826419143  0.2512262704113514  0.7495082979812604
  0.2502906718308598  0.7501220964198807  0.2492558962758528
  0.2514658898780814  0.7485592761781126  0.7507255401308411
  0.7501914748405674  0.2487706551405960  0.2493547028910031
  0.7488595982743629  0.2501202081917314  0.7505943795668589
  0.7501167539762423  0.7479095459934416  0.2522623100847523
  0.7485073681648379  0.7463008307062173  0.7475226410634612
  0.9999917580647817  0.9998770214477771  0.2498200709106764
  0.9998352411826493  0.9996790144804983  0.7501472040938840
  0.9993597124824120  0.5006540177010567  0.2492808909134770
  0.9992295990716089  0.5004786420570463  0.7506526196337228
  0.5007151984634078  0.9997361078213657  0.2500211155951747
  0.5006952106249691  0.9995602238344580  0.7499736627517328
  0.5006373003811401  0.5008969262401841  0.2494292239586679
  0.4879129304393034  0.4931374715544356  0.5002557842049923
  0.5007885586405597  0.5007911090505301  0.7500073675540517
  0.7499790168643178  0.7488533150106707  0.4999483586083431
  0.1101710815380037  0.1405517588305675  0.2478888882169293
  0.1108459509900332  0.1393707772937431  0.7521088181344632
  0.1095119208508637  0.6402121453168840  0.2502465795276165
  0.1098718088125624  0.6395515608948535  0.7497792683764415
  0.6100432740931768  0.1399438387777731  0.2490344591008101
  0.6108831403185897  0.1384057914867894  0.7508574362979655
  0.6092207070667507  0.6405375131153819  0.2454859950448203
  0.3905385033622764  0.3614259736048862  0.2554684897395468
  0.3878620007917721  0.3612303696827048  0.7448967557709324
  0.3898856229143731  0.8600572113835472  0.2490999030236603
  0.3890083089197111  0.8614022710857683  0.7506091764574054
  0.8902579268947953  0.3599502725802530  0.2524868467065749
  0.8898215894236797  0.3603832854203531  0.7476770529943422
  0.8899432058100328  0.8588715985380766  0.2542865584025080
  0.8891347293175610  0.8598483818553151  0.7463612192097769
  0.3600737811763887  0.1107089082366735  0.2486576071754329
  0.3607118489687220  0.1110082915994886  0.7514826448947509
  0.3593246891655652  0.6095669853992016  0.2511993096877720
  0.3593949396037517  0.6121776873222260  0.7494329558808315
  0.8596405195342195  0.1090763002032350  0.2505618436667679
  0.8605740534906897  0.1098983504404303  0.7491593817802739
  0.8596504875115348  0.6082872434877532  0.2441631100288542
  0.8608218819064493  0.6088384279296593  0.7560244281136125
  0.1390285130301676  0.3911012340405791  0.2541956443432578
  0.1377227845274568  0.3902943000011898  0.7458694386523521
  0.1397627847637646  0.8896364650494972  0.2505785371823535
  0.1386379755702332  0.8886399385998252  0.7491995327957042
  0.6396710659301608  0.3892170711591305  0.2490987980756518
  0.6405426806906619  0.8890896457935759  0.2555994219973083
  0.6398436636050479  0.8886239792370125  0.7445925668764304
  0.3586076934526742  0.3906737411178827  0.0006609462784533
  0.3590036091349189  0.8910961992125493  0.0003263030207282
  0.3532159477276688  0.8960808048816754  0.4998290653448501
  0.8595276957352890  0.3906965764098144  0.9998604117153951
  0.8545599220720408  0.3995028251966003  0.5000035757257769
  0.8595026991413371  0.8913709819738241  0.0002952748571946
  0.8652683982282644  0.8948590044873037  0.4992794111985632
  0.1411743456084867  0.1093631134575607  0.0005113141426450
  0.1450911693333665  0.1070926524447694  0.4996489407038482
  0.1405647863568361  0.6089156155000967  0.9999947580359559
  0.1343682276623105  0.6120470634679243  0.4998774020880784
  0.6413980856506962  0.1090865534995289  0.0003019106066165
  0.6416196105528691  0.1106658086427470  0.4996974749836474
  0.6399149774610650  0.6102741135137321  0.0010183535589724
  0.1090879677350640  0.3583179899384037  0.0002814183999683
  0.1049899470441311  0.3552203470695179  0.4997501316147872
  0.1089899168702396  0.8590986381738924  0.0003631593405506
  0.1091493511621742  0.8583068765219324  0.4997555877887247
  0.6099845825459321  0.3590716853752281  0.0008041659659976
  0.6089036236844042  0.8595789497231223  0.9999892562206818
  0.5991843742748136  0.8592883904523557  0.5001111174625839
  0.3909194555022937  0.1408383069484926  0.0000436592967352
  0.3944255485391390  0.1476620723027976  0.5000766440513834
  0.3900146537632383  0.6409233404425120  0.0007395787376534
  0.3968260150549701  0.6459744186915495  0.4988447126739082
  0.8917510601869699  0.1408437058297679  0.0004230437934163
  0.8934702928411553  0.1460756173688696  0.4996985925066370
  0.8904843935163973  0.6399158576049245  0.0002969534075250
  0.9988510272158379  0.9979170396057201  0.1255314596061224
  0.0026036318103308  0.0035700833729842  0.6250326224025794
  0.0024862359377103  0.4969687052162217  0.1252278582332938
  0.9915145642830291  0.5115155181922287  0.6224925879543993
  0.5021311231328673  0.9984078847977448  0.1253303050514137
  0.4968456843754507  0.0037637715930211  0.6253459500853816
  0.4972011181702535  0.4975461821136726  0.1259178322411478
  0.0031042693039457  0.0040142306682085  0.3743205024135369
  0.9990172822755099  0.9982643530413978  0.8751532395104028
  0.9916560308368692  0.5116122532772351  0.3775180812421077
  0.0027990380649571  0.4969544524473338  0.8749588588771021
  0.4967653923539811  0.0033833426625822  0.3745328722046541
  0.5020599592766387  0.9983079112667810  0.8748391183252756
  0.4981116530028767  0.4981130902200283  0.8769715369447070
  0.2488731838141662  0.2484619089843354  0.3755750614462084
  0.2506292623036816  0.2537522616683408  0.8747927257398728
  0.2499282343838592  0.7496077167363966  0.3748526044074326
  0.2492705605689966  0.7504979167250668  0.8754070379896643
  0.7495617879346500  0.2495399521835480  0.3748261053508503
  0.7520687667876351  0.2492283525232841  0.8753508131695744
  0.7513899192186204  0.7292078265234574  0.3770426312466557
  0.7505913259082345  0.7542599637022377  0.8754174805034441
  0.2512909527588335  0.2540873629167210  0.1259619818159083
  0.2481133581261362  0.2480368804433810  0.6240589557649979
  0.2492511419543538  0.7497879069341759  0.1252147232416940
  0.2502607064409930  0.7494412068823006  0.6244463161629114
  0.7521970529479605  0.2500846943301948  0.1252845402177934
  0.7490862311617231  0.2496316384170322  0.6244277889843092
  0.7504990451219882  0.7548469230275389  0.1254264958654576
  0.6396175754195227  0.3862979895541256  0.7510874243298702
  0.6116628022102022  0.6404542139619601  0.7542464032457473
  0.5110367282824286  0.5114473857338310  0.3775731733645518
  0.6100970210289480  0.3661171019623649  0.4986598679022449
  0.3521615595471418  0.3964055888844501  0.4999398132745735
  0.7527764629013125  0.7298601907662544  0.6225528861161227
  0.5115876473984303  0.5119298664459339  0.6196095607753247
 
  0.00000000E+00  0.00000000E+00  0.00000000E+00
  0.00000000E+00  0.00000000E+00  0.00000000E+00
  0.00000000E+00  0.00000000E+00  0.00000000E+00
  0.00000000E+00  0.00000000E+00  0.00000000E+00
  0.00000000E+00  0.00000000E+00  0.00000000E+00
  0.00000000E+00  0.00000000E+00  0.00000000E+00
  0.00000000E+00  0.00000000E+00  0.00000000E+00
  0.00000000E+00  0.00000000E+00  0.00000000E+00
  0.00000000E+00  0.00000000E+00  0.00000000E+00
  0.00000000E+00  0.00000000E+00  0.00000000E+00
  0.00000000E+00  0.00000000E+00  0.00000000E+00
  0.00000000E+00  0.00000000E+00  0.00000000E+00
  0.00000000E+00  0.00000000E+00  0.00000000E+00
  0.00000000E+00  0.00000000E+00  0.00000000E+00
  0.00000000E+00  0.00000000E+00  0.00000000E+00
  0.00000000E+00  0.00000000E+00  0.00000000E+00
  0.00000000E+00  0.00000000E+00  0.00000000E+00
  0.00000000E+00  0.00000000E+00  0.00000000E+00
  0.00000000E+00  0.00000000E+00  0.00000000E+00
  0.00000000E+00  0.00000000E+00  0.00000000E+00
  0.00000000E+00  0.00000000E+00  0.00000000E+00
  0.00000000E+00  0.00000000E+00  0.00000000E+00
  0.00000000E+00  0.00000000E+00  0.00000000E+00
  0.00000000E+00  0.00000000E+00  0.00000000E+00
  0.00000000E+00  0.00000000E+00  0.00000000E+00
  0.00000000E+00  0.00000000E+00  0.00000000E+00
  0.00000000E+00  0.00000000E+00  0.00000000E+00
  0.00000000E+00  0.00000000E+00  0.00000000E+00
  0.00000000E+00  0.00000000E+00  0.00000000E+00
  0.00000000E+00  0.00000000E+00  0.00000000E+00
  0.00000000E+00  0.00000000E+00  0.00000000E+00
  0.00000000E+00  0.00000000E+00  0.00000000E+00
  0.00000000E+00  0.00000000E+00  0.00000000E+00
  0.00000000E+00  0.00000000E+00  0.00000000E+00
  0.00000000E+00  0.00000000E+00  0.00000000E+00
  0.00000000E+00  0.00000000E+00  0.00000000E+00
  0.00000000E+00  0.00000000E+00  0.00000000E+00
  0.00000000E+00  0.00000000E+00  0.00000000E+00
  0.00000000E+00  0.00000000E+00  0.00000000E+00
  0.00000000E+00  0.00000000E+00  0.00000000E+00
  0.00000000E+00  0.00000000E+00  0.00000000E+00
  0.00000000E+00  0.00000000E+00  0.00000000E+00
  0.00000000E+00  0.00000000E+00  0.00000000E+00
  0.00000000E+00  0.00000000E+00  0.00000000E+00
  0.00000000E+00  0.00000000E+00  0.00000000E+00
  0.00000000E+00  0.00000000E+00  0.00000000E+00
  0.00000000E+00  0.00000000E+00  0.00000000E+00
  0.00000000E+00  0.00000000E+00  0.00000000E+00
  0.00000000E+00  0.00000000E+00  0.00000000E+00
  0.00000000E+00  0.00000000E+00  0.00000000E+00
  0.00000000E+00  0.00000000E+00  0.00000000E+00
  0.00000000E+00  0.00000000E+00  0.00000000E+00
  0.00000000E+00  0.00000000E+00  0.00000000E+00
  0.00000000E+00  0.00000000E+00  0.00000000E+00
  0.00000000E+00  0.00000000E+00  0.00000000E+00
  0.00000000E+00  0.00000000E+00  0.00000000E+00
  0.00000000E+00  0.00000000E+00  0.00000000E+00
  0.00000000E+00  0.00000000E+00  0.00000000E+00
  0.00000000E+00  0.00000000E+00  0.00000000E+00
  0.00000000E+00  0.00000000E+00  0.00000000E+00
  0.00000000E+00  0.00000000E+00  0.00000000E+00
  0.00000000E+00  0.00000000E+00  0.00000000E+00
  0.00000000E+00  0.00000000E+00  0.00000000E+00
  0.00000000E+00  0.00000000E+00  0.00000000E+00
  0.00000000E+00  0.00000000E+00  0.00000000E+00
  0.00000000E+00  0.00000000E+00  0.00000000E+00
  0.00000000E+00  0.00000000E+00  0.00000000E+00
  0.00000000E+00  0.00000000E+00  0.00000000E+00
  0.00000000E+00  0.00000000E+00  0.00000000E+00
  0.00000000E+00  0.00000000E+00  0.00000000E+00
  0.00000000E+00  0.00000000E+00  0.00000000E+00
  0.00000000E+00  0.00000000E+00  0.00000000E+00
  0.00000000E+00  0.00000000E+00  0.00000000E+00
  0.00000000E+00  0.00000000E+00  0.00000000E+00
  0.00000000E+00  0.00000000E+00  0.00000000E+00
  0.00000000E+00  0.00000000E+00  0.00000000E+00
  0.00000000E+00  0.00000000E+00  0.00000000E+00
  0.00000000E+00  0.00000000E+00  0.00000000E+00
  0.00000000E+00  0.00000000E+00  0.00000000E+00
  0.00000000E+00  0.00000000E+00  0.00000000E+00
  0.00000000E+00  0.00000000E+00  0.00000000E+00
  0.00000000E+00  0.00000000E+00  0.00000000E+00
  0.00000000E+00  0.00000000E+00  0.00000000E+00
  0.00000000E+00  0.00000000E+00  0.00000000E+00
  0.00000000E+00  0.00000000E+00  0.00000000E+00
  0.00000000E+00  0.00000000E+00  0.00000000E+00
  0.00000000E+00  0.00000000E+00  0.00000000E+00
  0.00000000E+00  0.00000000E+00  0.00000000E+00
  0.00000000E+00  0.00000000E+00  0.00000000E+00
  0.00000000E+00  0.00000000E+00  0.00000000E+00
  0.00000000E+00  0.00000000E+00  0.00000000E+00
  0.00000000E+00  0.00000000E+00  0.00000000E+00
  0.00000000E+00  0.00000000E+00  0.00000000E+00
  0.00000000E+00  0.00000000E+00  0.00000000E+00
  0.00000000E+00  0.00000000E+00  0.00000000E+00
  0.00000000E+00  0.00000000E+00  0.00000000E+00
  0.00000000E+00  0.00000000E+00  0.00000000E+00
  0.00000000E+00  0.00000000E+00  0.00000000E+00
  0.00000000E+00  0.00000000E+00  0.00000000E+00
  0.00000000E+00  0.00000000E+00  0.00000000E+00
  0.00000000E+00  0.00000000E+00  0.00000000E+00
  0.00000000E+00  0.00000000E+00  0.00000000E+00
  0.00000000E+00  0.00000000E+00  0.00000000E+00
  0.00000000E+00  0.00000000E+00  0.00000000E+00
  0.00000000E+00  0.00000000E+00  0.00000000E+00
  0.00000000E+00  0.00000000E+00  0.00000000E+00
  0.00000000E+00  0.00000000E+00  0.00000000E+00
  0.00000000E+00  0.00000000E+00  0.00000000E+00
  0.00000000E+00  0.00000000E+00  0.00000000E+00
  0.00000000E+00  0.00000000E+00  0.00000000E+00
  0.00000000E+00  0.00000000E+00  0.00000000E+00
  0.00000000E+00  0.00000000E+00  0.00000000E+00
  0.00000000E+00  0.00000000E+00  0.00000000E+00
  0.00000000E+00  0.00000000E+00  0.00000000E+00
  0.00000000E+00  0.00000000E+00  0.00000000E+00
  0.00000000E+00  0.00000000E+00  0.00000000E+00
  0.00000000E+00  0.00000000E+00  0.00000000E+00
  0.00000000E+00  0.00000000E+00  0.00000000E+00
  0.00000000E+00  0.00000000E+00  0.00000000E+00
  0.00000000E+00  0.00000000E+00  0.00000000E+00
  0.00000000E+00  0.00000000E+00  0.00000000E+00
  0.00000000E+00  0.00000000E+00  0.00000000E+00
  0.00000000E+00  0.00000000E+00  0.00000000E+00
  0.00000000E+00  0.00000000E+00  0.00000000E+00
  0.00000000E+00  0.00000000E+00  0.00000000E+00
  0.00000000E+00  0.00000000E+00  0.00000000E+00
  0.00000000E+00  0.00000000E+00  0.00000000E+00
  0.00000000E+00  0.00000000E+00  0.00000000E+00
  0.00000000E+00  0.00000000E+00  0.00000000E+00
  0.00000000E+00  0.00000000E+00  0.00000000E+00
  0.00000000E+00  0.00000000E+00  0.00000000E+00
  0.00000000E+00  0.00000000E+00  0.00000000E+00
  0.00000000E+00  0.00000000E+00  0.00000000E+00
  0.00000000E+00  0.00000000E+00  0.00000000E+00
  0.00000000E+00  0.00000000E+00  0.00000000E+00
  0.00000000E+00  0.00000000E+00  0.00000000E+00
  0.00000000E+00  0.00000000E+00  0.00000000E+00
  0.00000000E+00  0.00000000E+00  0.00000000E+00
  0.00000000E+00  0.00000000E+00  0.00000000E+00
  0.00000000E+00  0.00000000E+00  0.00000000E+00
  0.00000000E+00  0.00000000E+00  0.00000000E+00
  0.00000000E+00  0.00000000E+00  0.00000000E+00
  0.00000000E+00  0.00000000E+00  0.00000000E+00
  0.00000000E+00  0.00000000E+00  0.00000000E+00
  0.00000000E+00  0.00000000E+00  0.00000000E+00
  0.00000000E+00  0.00000000E+00  0.00000000E+00
  0.00000000E+00  0.00000000E+00  0.00000000E+00
  0.00000000E+00  0.00000000E+00  0.00000000E+00
  0.00000000E+00  0.00000000E+00  0.00000000E+00
  0.00000000E+00  0.00000000E+00  0.00000000E+00
  0.00000000E+00  0.00000000E+00  0.00000000E+00
  0.00000000E+00  0.00000000E+00  0.00000000E+00
  0.00000000E+00  0.00000000E+00  0.00000000E+00
  0.00000000E+00  0.00000000E+00  0.00000000E+00
  0.00000000E+00  0.00000000E+00  0.00000000E+00
  0.00000000E+00  0.00000000E+00  0.00000000E+00
  0.00000000E+00  0.00000000E+00  0.00000000E+00
  0.00000000E+00  0.00000000E+00  0.00000000E+00
