SrTiFeO                                 
   1.00000000000000     
    11.1989999999999998    0.0000000000000000    0.0000000000000000
     0.0000000000000000   11.1989999999999998    0.0000000000000000
     0.0000000000000000    0.0000000000000000   15.9830000000000005
   Sr   Ti   Fe   O 
    32    30     2    94
Direct
  0.9989082702346017  0.2506640775523128  0.1244523349828210
  0.0012354967971694  0.2452591387804123  0.6279898463825649
  0.9985752522193898  0.7500459534857544  0.1240559388303881
  0.0054362075245764  0.7569583381618117  0.6290728492630270
  0.4995945011265460  0.2494275536170245  0.1248302048495822
  0.4985659002316333  0.2405097258264029  0.6270690482105600
  0.5007802451627029  0.7497121160323251  0.1250272136751872
  0.4962955692570976  0.7569518802250167  0.6260355418882012
  0.0013182383958301  0.2458157537402005  0.3742941684365807
 -0.0001116213138533  0.2506061065098250  0.8743460100708189
  0.0052941030988976  0.7572000119988781  0.3715621442015631
  0.9988038487786005  0.7490909553873302  0.8743124204694166
  0.4997023095444145  0.2467154463995734  0.3738783763095771
  0.4996317084300111  0.2487350303126206  0.8742988020861683
  0.4972557811059435  0.7520151896577681  0.3745703367930460
  0.5013282060694273  0.7497009817536746  0.8750267493134734
  0.2497293180132067 -0.0000404336214440  0.1247418646258737
  0.2485321273615835  0.0001844853185121  0.6255394400554717
  0.2481303528312047  0.4996008661438243  0.1245255400581814
  0.2414333382409754  0.5015678624697445  0.6257348657081987
  0.7497091744771729  0.9984497197018953  0.1257550454019546
  0.7542362702300481 -0.0000366735159475  0.6251872962996897
  0.7494312186504177  0.4994659390539632  0.1229480735615939
  0.7572530876622779  0.4989757477978073  0.6298658125996139
  0.2499359777710041  0.0006860259678837  0.3756412404581943
  0.2498604441845328  0.0001032752046527  0.8739481101425831
  0.2526635581568748  0.5024930482774506  0.3742403745846838
  0.2486492013350105  0.5000964538065938  0.8744656338836854
  0.7522108402339146  0.0005757881587092  0.3767947103572400
  0.7500854113426572  0.9977590411023097  0.8733470872763767
  0.7492617888791688  0.4986689713968631  0.3692501954704545
  0.7505478855825300  0.4989460619450425  0.8756969074217238
 -0.0000092587156217  0.9998667899466125  0.9995699498673811
  0.0003760217962891  0.9988835962450946  0.4996926862135098
  0.0002980105135208  0.4993781720405469  0.9994670913309569
  0.0046164192177751  0.4918601491322417  0.4973269971641236
  0.5004467162489011  0.9993438085810611  0.9999495342452360
  0.4990248653009039  0.0018900334998688  0.4997912673766815
  0.4995772124214688  0.4998412964567354  0.0011458536457460
  0.2500317682073949  0.2504878177088215  0.9996743294226537
  0.2516097109375242  0.2495884385881349  0.5013856489127428
  0.2503452227711378  0.7500069853202459  0.9999226833123530
  0.2513337317320323  0.7506606975991046  0.5003906575071267
  0.7493957134303908  0.2494345747468878  0.9997978713012277
  0.7496890741214761  0.2508976272386444  0.5011412683015295
  0.7488151481927732  0.7499593334798841  0.9996845623941814
  0.2501214144730199  0.2512525138975860  0.2502629388325012
  0.2522000575427075  0.2517833282991954  0.7489907035713197
  0.2506100206349022  0.7497306649907247  0.2491120819442184
  0.2522761896930766  0.7482808699862599  0.7498507938505924
  0.7492679263548206  0.2502243805444357  0.2500145715233458
  0.7487270653724006  0.2511041320467065  0.7494566544798305
  0.7507153431795250  0.7488719801042254  0.2518715143919346
  0.7496482298703372  0.7466314871596298  0.7465935339645606
  0.0002031538314924  0.0009747140563821  0.2498139648784798
  0.0001969482700042  0.0003578620970805  0.7520030181649039
  0.9988666074807281  0.5016752257872662  0.2495655746827939
 -0.0003910053024297  0.5007816497481629  0.7494238550601323
  0.4999830840578472 -0.0001139405478780  0.2501113581357750
  0.5005270197374743  0.9992907664111446  0.7501681310033409
  0.4992635440148330  0.5004120755733417  0.2483201634413297
  0.5046199743762984  0.4982883367381656  0.4941229691994495
  0.4998731686574408  0.4998520264510586  0.7590770395691244
  0.7383742013842031  0.7576199744024451  0.5008944964546919
  0.1094758741906196  0.1417864835774478  0.2504297207075035
  0.1120366099337609  0.1380702967680950  0.7535315592968964
  0.1086197644216454  0.6418435595935250  0.2486171742124592
  0.1128443468330632  0.6382351281822641  0.7513623894399778
  0.6092087221938594  0.1401984508787992  0.2491411496787121
  0.6129536080165059  0.1361746215769141  0.7498826778640777
  0.6087418452011776  0.6408910506954736  0.2516090389997886
  0.3903193354800448  0.3597658749498608  0.2485118926070164
  0.3888493817925873  0.3647211724334612  0.7397891946185603
  0.3909826273400802  0.8596554432672442  0.2498271652147193
  0.3891407217457299  0.8615357470832002  0.7511447255200445
  0.8898057910949638  0.3598318872132710  0.2525541429889196
  0.8874993099685528  0.3619758088467277  0.7504994854064611
  0.8900833502899467  0.8599335030742919  0.2501764872895345
  0.8886303933736377  0.8613999832060671  0.7518483232850459
  0.3595963312187918  0.1098957171513523  0.2492893794988040
  0.3639651782632070  0.1115115656687939  0.7530307801474534
  0.3573344130655060  0.6100604677228709  0.2458578682872443
  0.3645430218577364  0.6108276938795355  0.7389789787899661
  0.8590334967779779  0.1102812818965215  0.2513380467439591
  0.8619148412930632  0.1114172577641891  0.7526007054522775
  0.8581484641366665  0.6090062398514687  0.2430190616056862
  0.8611584108734077  0.6108757717810585  0.7571733622974648
  0.1394164510401117  0.3922288422643541  0.2547706248257039
  0.1379083054814348  0.3878040633759826  0.7477056996131648
  0.1396898689575842  0.8910406415984028  0.2515233059984627
  0.1383387980581053  0.8879222947934904  0.7511600626493909
  0.6397673358136817  0.3902789495094739  0.2487234112537595
  0.6412487933705920  0.8892220426419829  0.2560088107069706
  0.6390895857151903  0.8858134925053091  0.7435571097331818
  0.3590079049717603  0.3913708599408673  0.0013812004237049
  0.3590135537894230  0.8915096770808174  0.9990157425087866
  0.3600076225483524  0.8912277314301638  0.4994425284317484
  0.8589620614315951  0.3903269987067148 -0.0003649928424868
  0.8545260844284577  0.3978068228824087  0.4980388268390002
  0.8588342649945607  0.8900977723505241  0.9993937357266029
  0.8666807689873099  0.8814611359467988  0.4983249812863593
  0.1413716945608487  0.1093603264039544  0.9989551940861294
  0.1405494312764069  0.1103637399016397  0.4980491724338850
  0.1408172528770201  0.6093518393796382  0.0002791735429877
  0.1266904513568783  0.6200577095790818  0.4989253040805252
  0.6412423888538790  0.1086936647555357  0.0000282031382394
  0.6413091970661262  0.1087361013188107  0.5010178090264263
  0.6408203092980083  0.6085551541932518  0.0003927979003954
  0.1094054656584767  0.3583054944192308  0.9997872002893430
  0.1124659793012122  0.3562894306833452  0.5055317396812200
  0.1091190847926993  0.8589529978071914  0.9983447277574030
  0.1129212124047134  0.8650091534215606  0.4978225510045623
  0.6085668996183929  0.3585220196447412  0.0010277459679345
  0.6080906519084256  0.8584809225193871  0.0002627973262975
  0.6063994048106980  0.8606004724145448  0.4998230075703017
  0.3914017993993928  0.1404120734234386  0.0002166690893999
  0.3920379321830053  0.1406242105128983  0.4994440941058473
  0.3911455762769311  0.6412589887255175  0.0011439112521033
  0.3855792842822313  0.6407258004749985  0.5059120947106521
  0.8905248005042881  0.1409796314218688  0.9987486265557229
  0.8900157561354476  0.1402535811166176  0.4976894758552132
  0.8897609031490578  0.6402244362508960 -0.0000146782960891
  0.9999922961675355  0.0006712675220720  0.1247235986979926
  0.9997059289623246  0.0017602066978451  0.6254188374801136
  0.0022023392347736  0.4964277902954685  0.1248067741303297
  0.9940016049365016  0.5087163467399005  0.6269319472589805
  0.5022926497085910  0.9978960462975591  0.1254394979685483
  0.4967656523709322  0.0008236610869653  0.6249790801510977
  0.5009830724559577  0.5009729189577843  0.1244255487561800
  0.9994293206842250  0.0019693808998966  0.3739798566591454
  0.9998795463277914  0.9992056025206054  0.8760368312022734
  0.9880459577656870  0.5148222250058382  0.3745715318000952
  0.0028519480806013  0.4977105757323170  0.8761345379166986
  0.4986028663577015  0.0023180905363114  0.3749992583149636
  0.5043464236446340  0.9973916004281482  0.8748791217361118
  0.5000025228351439  0.5002125287809642  0.8767854646182303
  0.2542177741867472  0.2536397195729091  0.3756843992996765
  0.2547477031095566  0.2551117893239897  0.8747976383670549
  0.2530379908142572  0.7474665695094151  0.3741589590851350
  0.2544547019751860  0.7455004916973053  0.8742123798671552
  0.7435991290211261  0.2523466392622429  0.3759863063532763
  0.7455728454510520  0.2540991036243168  0.8742517959291110
  0.7615300228856812  0.7343127080282799  0.3784718372394789
  0.7425841655846981  0.7492685064077501  0.8739581229681764
  0.2481032991764266  0.2514364205308587  0.1253726342664118
  0.2482854135316263  0.2388315585679116  0.6264095598560054
  0.2484360195130805  0.7538086645954828  0.1240859911108662
  0.2451988837713516  0.7556384452856298  0.6253029902350622
  0.7515242717070141  0.2497273036283765  0.1250272781582242
  0.7585407701789004  0.2441841726740834  0.6249995396184049
  0.7469408792553183  0.7531537173398739  0.1253597257360099
  0.6348278930198648  0.3873101987748650  0.7399980885609035
  0.6112490361818758  0.6343359672190665  0.7373883798663462
  0.4911838638172393  0.5039787343232264  0.3718112816081899
  0.6078691932292525  0.3569871547706043  0.5113791615132469
  0.3619139159873600  0.3906320877691322  0.5114156058949415
  0.7705299945162221  0.7413167418430846  0.6222380123486418
  0.6430200774686912  0.6052291763134775  0.5091985034292353
 
  0.00000000E+00  0.00000000E+00  0.00000000E+00
  0.00000000E+00  0.00000000E+00  0.00000000E+00
  0.00000000E+00  0.00000000E+00  0.00000000E+00
  0.00000000E+00  0.00000000E+00  0.00000000E+00
  0.00000000E+00  0.00000000E+00  0.00000000E+00
  0.00000000E+00  0.00000000E+00  0.00000000E+00
  0.00000000E+00  0.00000000E+00  0.00000000E+00
  0.00000000E+00  0.00000000E+00  0.00000000E+00
  0.00000000E+00  0.00000000E+00  0.00000000E+00
  0.00000000E+00  0.00000000E+00  0.00000000E+00
  0.00000000E+00  0.00000000E+00  0.00000000E+00
  0.00000000E+00  0.00000000E+00  0.00000000E+00
  0.00000000E+00  0.00000000E+00  0.00000000E+00
  0.00000000E+00  0.00000000E+00  0.00000000E+00
  0.00000000E+00  0.00000000E+00  0.00000000E+00
  0.00000000E+00  0.00000000E+00  0.00000000E+00
  0.00000000E+00  0.00000000E+00  0.00000000E+00
  0.00000000E+00  0.00000000E+00  0.00000000E+00
  0.00000000E+00  0.00000000E+00  0.00000000E+00
  0.00000000E+00  0.00000000E+00  0.00000000E+00
  0.00000000E+00  0.00000000E+00  0.00000000E+00
  0.00000000E+00  0.00000000E+00  0.00000000E+00
  0.00000000E+00  0.00000000E+00  0.00000000E+00
  0.00000000E+00  0.00000000E+00  0.00000000E+00
  0.00000000E+00  0.00000000E+00  0.00000000E+00
  0.00000000E+00  0.00000000E+00  0.00000000E+00
  0.00000000E+00  0.00000000E+00  0.00000000E+00
  0.00000000E+00  0.00000000E+00  0.00000000E+00
  0.00000000E+00  0.00000000E+00  0.00000000E+00
  0.00000000E+00  0.00000000E+00  0.00000000E+00
  0.00000000E+00  0.00000000E+00  0.00000000E+00
  0.00000000E+00  0.00000000E+00  0.00000000E+00
  0.00000000E+00  0.00000000E+00  0.00000000E+00
  0.00000000E+00  0.00000000E+00  0.00000000E+00
  0.00000000E+00  0.00000000E+00  0.00000000E+00
  0.00000000E+00  0.00000000E+00  0.00000000E+00
  0.00000000E+00  0.00000000E+00  0.00000000E+00
  0.00000000E+00  0.00000000E+00  0.00000000E+00
  0.00000000E+00  0.00000000E+00  0.00000000E+00
  0.00000000E+00  0.00000000E+00  0.00000000E+00
  0.00000000E+00  0.00000000E+00  0.00000000E+00
  0.00000000E+00  0.00000000E+00  0.00000000E+00
  0.00000000E+00  0.00000000E+00  0.00000000E+00
  0.00000000E+00  0.00000000E+00  0.00000000E+00
  0.00000000E+00  0.00000000E+00  0.00000000E+00
  0.00000000E+00  0.00000000E+00  0.00000000E+00
  0.00000000E+00  0.00000000E+00  0.00000000E+00
  0.00000000E+00  0.00000000E+00  0.00000000E+00
  0.00000000E+00  0.00000000E+00  0.00000000E+00
  0.00000000E+00  0.00000000E+00  0.00000000E+00
  0.00000000E+00  0.00000000E+00  0.00000000E+00
  0.00000000E+00  0.00000000E+00  0.00000000E+00
  0.00000000E+00  0.00000000E+00  0.00000000E+00
  0.00000000E+00  0.00000000E+00  0.00000000E+00
  0.00000000E+00  0.00000000E+00  0.00000000E+00
  0.00000000E+00  0.00000000E+00  0.00000000E+00
  0.00000000E+00  0.00000000E+00  0.00000000E+00
  0.00000000E+00  0.00000000E+00  0.00000000E+00
  0.00000000E+00  0.00000000E+00  0.00000000E+00
  0.00000000E+00  0.00000000E+00  0.00000000E+00
  0.00000000E+00  0.00000000E+00  0.00000000E+00
  0.00000000E+00  0.00000000E+00  0.00000000E+00
  0.00000000E+00  0.00000000E+00  0.00000000E+00
  0.00000000E+00  0.00000000E+00  0.00000000E+00
  0.00000000E+00  0.00000000E+00  0.00000000E+00
  0.00000000E+00  0.00000000E+00  0.00000000E+00
  0.00000000E+00  0.00000000E+00  0.00000000E+00
  0.00000000E+00  0.00000000E+00  0.00000000E+00
  0.00000000E+00  0.00000000E+00  0.00000000E+00
  0.00000000E+00  0.00000000E+00  0.00000000E+00
  0.00000000E+00  0.00000000E+00  0.00000000E+00
  0.00000000E+00  0.00000000E+00  0.00000000E+00
  0.00000000E+00  0.00000000E+00  0.00000000E+00
  0.00000000E+00  0.00000000E+00  0.00000000E+00
  0.00000000E+00  0.00000000E+00  0.00000000E+00
  0.00000000E+00  0.00000000E+00  0.00000000E+00
  0.00000000E+00  0.00000000E+00  0.00000000E+00
  0.00000000E+00  0.00000000E+00  0.00000000E+00
  0.00000000E+00  0.00000000E+00  0.00000000E+00
  0.00000000E+00  0.00000000E+00  0.00000000E+00
  0.00000000E+00  0.00000000E+00  0.00000000E+00
  0.00000000E+00  0.00000000E+00  0.00000000E+00
  0.00000000E+00  0.00000000E+00  0.00000000E+00
  0.00000000E+00  0.00000000E+00  0.00000000E+00
  0.00000000E+00  0.00000000E+00  0.00000000E+00
  0.00000000E+00  0.00000000E+00  0.00000000E+00
  0.00000000E+00  0.00000000E+00  0.00000000E+00
  0.00000000E+00  0.00000000E+00  0.00000000E+00
  0.00000000E+00  0.00000000E+00  0.00000000E+00
  0.00000000E+00  0.00000000E+00  0.00000000E+00
  0.00000000E+00  0.00000000E+00  0.00000000E+00
  0.00000000E+00  0.00000000E+00  0.00000000E+00
  0.00000000E+00  0.00000000E+00  0.00000000E+00
  0.00000000E+00  0.00000000E+00  0.00000000E+00
  0.00000000E+00  0.00000000E+00  0.00000000E+00
  0.00000000E+00  0.00000000E+00  0.00000000E+00
  0.00000000E+00  0.00000000E+00  0.00000000E+00
  0.00000000E+00  0.00000000E+00  0.00000000E+00
  0.00000000E+00  0.00000000E+00  0.00000000E+00
  0.00000000E+00  0.00000000E+00  0.00000000E+00
  0.00000000E+00  0.00000000E+00  0.00000000E+00
  0.00000000E+00  0.00000000E+00  0.00000000E+00
  0.00000000E+00  0.00000000E+00  0.00000000E+00
  0.00000000E+00  0.00000000E+00  0.00000000E+00
  0.00000000E+00  0.00000000E+00  0.00000000E+00
  0.00000000E+00  0.00000000E+00  0.00000000E+00
  0.00000000E+00  0.00000000E+00  0.00000000E+00
  0.00000000E+00  0.00000000E+00  0.00000000E+00
  0.00000000E+00  0.00000000E+00  0.00000000E+00
  0.00000000E+00  0.00000000E+00  0.00000000E+00
  0.00000000E+00  0.00000000E+00  0.00000000E+00
  0.00000000E+00  0.00000000E+00  0.00000000E+00
  0.00000000E+00  0.00000000E+00  0.00000000E+00
  0.00000000E+00  0.00000000E+00  0.00000000E+00
  0.00000000E+00  0.00000000E+00  0.00000000E+00
  0.00000000E+00  0.00000000E+00  0.00000000E+00
  0.00000000E+00  0.00000000E+00  0.00000000E+00
  0.00000000E+00  0.00000000E+00  0.00000000E+00
  0.00000000E+00  0.00000000E+00  0.00000000E+00
  0.00000000E+00  0.00000000E+00  0.00000000E+00
  0.00000000E+00  0.00000000E+00  0.00000000E+00
  0.00000000E+00  0.00000000E+00  0.00000000E+00
  0.00000000E+00  0.00000000E+00  0.00000000E+00
  0.00000000E+00  0.00000000E+00  0.00000000E+00
  0.00000000E+00  0.00000000E+00  0.00000000E+00
  0.00000000E+00  0.00000000E+00  0.00000000E+00
  0.00000000E+00  0.00000000E+00  0.00000000E+00
  0.00000000E+00  0.00000000E+00  0.00000000E+00
  0.00000000E+00  0.00000000E+00  0.00000000E+00
  0.00000000E+00  0.00000000E+00  0.00000000E+00
  0.00000000E+00  0.00000000E+00  0.00000000E+00
  0.00000000E+00  0.00000000E+00  0.00000000E+00
  0.00000000E+00  0.00000000E+00  0.00000000E+00
  0.00000000E+00  0.00000000E+00  0.00000000E+00
  0.00000000E+00  0.00000000E+00  0.00000000E+00
  0.00000000E+00  0.00000000E+00  0.00000000E+00
  0.00000000E+00  0.00000000E+00  0.00000000E+00
  0.00000000E+00  0.00000000E+00  0.00000000E+00
  0.00000000E+00  0.00000000E+00  0.00000000E+00
  0.00000000E+00  0.00000000E+00  0.00000000E+00
  0.00000000E+00  0.00000000E+00  0.00000000E+00
  0.00000000E+00  0.00000000E+00  0.00000000E+00
  0.00000000E+00  0.00000000E+00  0.00000000E+00
  0.00000000E+00  0.00000000E+00  0.00000000E+00
  0.00000000E+00  0.00000000E+00  0.00000000E+00
  0.00000000E+00  0.00000000E+00  0.00000000E+00
  0.00000000E+00  0.00000000E+00  0.00000000E+00
  0.00000000E+00  0.00000000E+00  0.00000000E+00
  0.00000000E+00  0.00000000E+00  0.00000000E+00
  0.00000000E+00  0.00000000E+00  0.00000000E+00
  0.00000000E+00  0.00000000E+00  0.00000000E+00
  0.00000000E+00  0.00000000E+00  0.00000000E+00
  0.00000000E+00  0.00000000E+00  0.00000000E+00
  0.00000000E+00  0.00000000E+00  0.00000000E+00
  0.00000000E+00  0.00000000E+00  0.00000000E+00
  0.00000000E+00  0.00000000E+00  0.00000000E+00
  0.00000000E+00  0.00000000E+00  0.00000000E+00
  0.00000000E+00  0.00000000E+00  0.00000000E+00
