SrTiFeO                                 
   1.00000000000000     
    11.1989999999999998    0.0000000000000000    0.0000000000000000
     0.0000000000000000   11.1989999999999998    0.0000000000000000
     0.0000000000000000    0.0000000000000000   15.9830000000000005
   Sr   Ti   Fe   O 
    32    30     2    95
Direct
  0.9987902067618648  0.2504575094103045  0.1249520760102350
  0.0018744757629695  0.2502752886949273  0.6250936929954665
  0.9992789583495727  0.7498531143299694  0.1252005902687054
  0.9967193210880535  0.7499630903409845  0.6248961888393402
  0.5013081861084160  0.2506214359947369  0.1245637495491318
  0.4955040045585773  0.2442352104713838  0.6281010387332721
  0.5010700936056075  0.7497358155833798  0.1247636770437759
  0.5023596715111214  0.7564848335502173  0.6265998691088177
  0.0018744757629695  0.2502752886949273  0.3749063070045335
  0.9987902067618648  0.2504575094103045  0.8750479239897651
  0.9967193210880535  0.7499630903409845  0.3751038111606599
  0.9992789583495727  0.7498531143299694  0.8747994097312947
  0.4955040045585773  0.2442352104713838  0.3718989612667279
  0.5013081861084160  0.2506214359947369  0.8754362504508683
  0.5023596715111214  0.7564848335502173  0.3734001308911894
  0.5010700936056075  0.7497358155833798  0.8752363229562240
  0.2497896488628689  0.9998451014414605  0.1249475753506583
  0.2494814610745134  0.0000798636211427  0.6248621601804043
  0.2509547902636695  0.5002957552272481  0.1253073182564880
  0.2455537146646175  0.4977350747707611  0.6251174800777193
  0.7504184779227369  0.0011726922042678  0.1257472675303960
  0.7477263277369793  0.9971380868905776  0.6231268132313691
  0.7506833967600867  0.5003423852294723  0.1238008716619937
  0.7528510680750035  0.5031885345131559  0.6274848857951223
  0.2494814610745134  0.0000798636211427  0.3751378398195957
  0.2497896488628689  0.9998451014414605  0.8750524246493416
  0.2455537146646175  0.4977350747707611  0.3748825199222808
  0.2509547902636695  0.5002957552272481  0.8746926817435120
  0.7477263277369793  0.9971380868905776  0.3768731867686309
  0.7504184779227369  0.0011726922042678  0.8742527324696040
  0.7528510680750035  0.5031885345131559  0.3725151142048777
  0.7506833967600867  0.5003423852294723  0.8761991283380135
  0.9996125074710834  0.0003900200179867 -0.0000000000000000
  0.9983750873975413  0.9980494820440123  0.5000000000000000
  0.0004922320300276  0.4998595277538370 -0.0000000000000000
  0.9962232650245441  0.5008592497857042  0.5000000000000000
  0.4997773839365527  0.0000836142914724 -0.0000000000000000
  0.5011287905724018  0.0000603425955877  0.5000000000000000
  0.4995425421399646  0.5005889128547153 -0.0000000000000000
  0.2500228774872192  0.2496855885738073 -0.0000000000000000
  0.2497998306346533  0.2482852887696062  0.5000000000000000
  0.2503221190505476  0.7495014508889543 -0.0000000000000000
  0.2449428929696232  0.7534082039476123  0.5000000000000000
  0.7506198635847088  0.2494523372270744 -0.0000000000000000
  0.7499017357598884  0.7504721699229527 -0.0000000000000000
  0.2493084924999011  0.2499197312134512  0.2493552490781476
  0.2493084924999011  0.2499197312134512  0.7506447509218525
  0.2498784800635682  0.7497520768114447  0.2505688534668775
  0.2498784800635682  0.7497520768114447  0.7494311465331224
  0.7488285583446400  0.2511920613184479  0.2525371978653130
  0.7488285583446400  0.2511920613184479  0.7474628021346870
  0.7496940603097603  0.7502556021989509  0.2509817342487837
  0.7496940603097603  0.7502556021989509  0.7490182657512162
  0.9994204181373055  0.0001376729517867  0.2505475339799562
  0.9994204181373055  0.0001376729517867  0.7494524660200438
  0.0000008390564016  0.4999881537449834  0.2497517291709658
  0.0000008390564016  0.4999881537449834  0.7502482708290342
  0.4997139230062201  0.0000006760685988  0.2492504503666975
  0.4997139230062201  0.0000006760685988  0.7507495496333025
  0.5007247166618808  0.4990071479242694  0.2503009901125532
  0.5007247166618808  0.4990071479242694  0.7496990098874469
  0.4937006234359429  0.5136161727221509  0.5000000000000000
  0.7621031894148035  0.2422310223148452  0.5000000000000000
  0.7508998534499567  0.7487092953496417  0.5000000000000000
  0.1088519688112301  0.1411613323740182  0.2497902966972362
  0.1088519688112301  0.1411613323740182  0.7502097033027637
  0.1099938348512209  0.6402802417005690  0.2502369888903081
  0.1099938348512209  0.6402802417005690  0.7497630111096919
  0.6085601164575131  0.1407329829598037  0.2492437323067537
  0.6085601164575131  0.1407329829598037  0.7507562676932462
  0.6085339105081209  0.6401419385337407  0.2512504403825239
  0.6085339105081209  0.6401419385337407  0.7487495596174761
  0.3908493293641785  0.3587538066266628  0.2495544511903898
  0.3908493293641785  0.3587538066266628  0.7504455488096102
  0.3907251161954975  0.8589083303224979  0.2492799644389662
  0.3907251161954975  0.8589083303224979  0.7507200355610337
  0.8906800971716303  0.3594241199923977  0.2514531310356403
  0.8906800971716303  0.3594241199923977  0.7485468689643597
  0.8903527974684201  0.8603204926771734  0.2491090626734200
  0.8903527974684201  0.8603204926771734  0.7508909373265801
  0.3591419738001517  0.1094773597961037  0.2512111845227760
  0.3591419738001517  0.1094773597961037  0.7487888154772239
  0.3605213254182576  0.6078954512964048  0.2556883831081807
  0.3605213254182576  0.6078954512964048  0.7443116168918193
  0.8583918269755050  0.1106096075441941  0.2557958603874763
  0.8583918269755050  0.1106096075441941  0.7442041396125237
  0.8604199788042960  0.6098678652763503  0.2486944477552692
  0.8604199788042960  0.6098678652763503  0.7513055522447308
  0.1409831573408954  0.3907113184187565  0.2492703042180731
  0.1409831573408954  0.3907113184187565  0.7507296957819268
  0.1407733821062497  0.8904658066720834  0.2486493255137051
  0.1407733821062497  0.8904658066720834  0.7513506744862949
  0.6407489014135073  0.3913258961695276  0.2443474927526879
  0.6407489014135073  0.3913258961695276  0.7556525072473121
  0.6398879087384094  0.8909116667470810  0.2496154048603654
  0.6398879087384094  0.8909116667470810  0.7503845951396345
  0.3592797037455535  0.3907248150462392 -0.0000000000000000
  0.3585823824054517  0.8907006044476414 -0.0000000000000000
  0.3586609854358265  0.8902610572637314  0.5000000000000000
  0.8596725122343882  0.3905248063802551 -0.0000000000000000
  0.8592659137785219  0.8908847730430913 -0.0000000000000000
  0.8606101571907031  0.8928360243208753  0.5000000000000000
  0.1410444899450882  0.1085798841569323 -0.0000000000000000
  0.1411257714610921  0.1094594367499681  0.5000000000000000
  0.1410162948971450  0.6088282979535502 -0.0000000000000000
  0.1442557357643046  0.6083835004692000  0.5000000000000000
  0.6405181322809187  0.1092926683809088 -0.0000000000000000
  0.6327589077987193  0.1208954223278090  0.5000000000000000
  0.6401640629512111  0.6092012321897878 -0.0000000000000000
  0.1093682600468976  0.3587050511257340 -0.0000000000000000
  0.1129055653208918  0.3610348235115492  0.5000000000000000
  0.1093247893090549  0.8591235330702405 -0.0000000000000000
  0.1083089792428020  0.8579256881702741  0.5000000000000000
  0.6097869684502093  0.3600976857078743 -0.0000000000000000
  0.6087194981984613  0.8595984524974404 -0.0000000000000000
  0.6094331008366187  0.8621413677725210  0.5000000000000000
  0.3909087478600169  0.1409705145595641 -0.0000000000000000
  0.3870068055194942  0.1374928372750859  0.5000000000000000
  0.3909488914568057  0.6412455607549129 -0.0000000000000000
  0.8913637921580313  0.1407077013501733 -0.0000000000000000
  0.8948222260167734  0.1402412435203058  0.5000000000000000
  0.8907671009934701  0.6404477036902255 -0.0000000000000000
  0.9978912162359114  0.0020746475968633  0.1253894690950179
  0.0032442900305904  0.9983646595038778  0.6250423779800436
  0.0002344055787149  0.4992456922643896  0.1249011250296822
  0.0018907746881515  0.4997347105609505  0.6254280047633599
  0.4987753276895045  0.0004698831857084  0.1248037751029307
  0.4998209011280624  0.9992248034190527  0.6256553896747072
  0.4969882974238850  0.5023837783190320  0.1253253986969276
  0.5115991201628257  0.4856273186818270  0.6216650438463334
  0.0032442900305904  0.9983646595038778  0.3749576220199564
  0.9978912162359114  0.0020746475968633  0.8746105309049821
  0.0018907746881515  0.4997347105609505  0.3745719952366401
  0.0002344055787149  0.4992456922643896  0.8750988749703178
  0.4998209011280624  0.9992248034190527  0.3743446103252927
  0.4987753276895045  0.0004698831857084  0.8751962248970693
  0.4969882974238850  0.5023837783190320  0.8746746013030724
  0.2493751298576752  0.2512912057718807  0.3747118704811760
  0.2503637008603511  0.2490857073716626  0.8751062795805896
  0.2495356747675123  0.7516841566811983  0.3754678262842687
  0.2516066018240743  0.7469035269763779  0.8745221741728664
  0.7525154878921351  0.2475780274002077  0.8747066914886529
  0.7489184034139108  0.7496237753701324  0.8753040056052946
  0.2503637008603511  0.2490857073716626  0.1248937204194104
  0.2493751298576752  0.2512912057718807  0.6252881295188241
  0.2516066018240743  0.7469035269763779  0.1254778258271336
  0.2495356747675123  0.7516841566811983  0.6245321737157313
  0.7525154878921351  0.2475780274002077  0.1252933085113471
  0.7364308177967605  0.2619255337655549  0.6226643392897663
  0.7489184034139108  0.7496237753701324  0.1246959943947055
  0.7499339229418458  0.7502206754558842  0.6265353097245931
  0.7364308177967605  0.2619255337655549  0.3773356607102336
  0.8557946450272574  0.3931739544124142  0.5000000000000000
  0.3937513789108980  0.6441285528424535  0.5000000000000000
  0.5115991201628257  0.4856273186818270  0.3783349561536667
  0.3734146375508622  0.3835355668674071  0.5000000000000000
  0.8946965263349995  0.6411146067174275  0.5000000000000000
  0.7499339229418458  0.7502206754558842  0.3734646902754069
  0.6443122647113897  0.5972834864886706  0.5000000000000000
 
  0.00000000E+00  0.00000000E+00  0.00000000E+00
  0.00000000E+00  0.00000000E+00  0.00000000E+00
  0.00000000E+00  0.00000000E+00  0.00000000E+00
  0.00000000E+00  0.00000000E+00  0.00000000E+00
  0.00000000E+00  0.00000000E+00  0.00000000E+00
  0.00000000E+00  0.00000000E+00  0.00000000E+00
  0.00000000E+00  0.00000000E+00  0.00000000E+00
  0.00000000E+00  0.00000000E+00  0.00000000E+00
  0.00000000E+00  0.00000000E+00  0.00000000E+00
  0.00000000E+00  0.00000000E+00  0.00000000E+00
  0.00000000E+00  0.00000000E+00  0.00000000E+00
  0.00000000E+00  0.00000000E+00  0.00000000E+00
  0.00000000E+00  0.00000000E+00  0.00000000E+00
  0.00000000E+00  0.00000000E+00  0.00000000E+00
  0.00000000E+00  0.00000000E+00  0.00000000E+00
  0.00000000E+00  0.00000000E+00  0.00000000E+00
  0.00000000E+00  0.00000000E+00  0.00000000E+00
  0.00000000E+00  0.00000000E+00  0.00000000E+00
  0.00000000E+00  0.00000000E+00  0.00000000E+00
  0.00000000E+00  0.00000000E+00  0.00000000E+00
  0.00000000E+00  0.00000000E+00  0.00000000E+00
  0.00000000E+00  0.00000000E+00  0.00000000E+00
  0.00000000E+00  0.00000000E+00  0.00000000E+00
  0.00000000E+00  0.00000000E+00  0.00000000E+00
  0.00000000E+00  0.00000000E+00  0.00000000E+00
  0.00000000E+00  0.00000000E+00  0.00000000E+00
  0.00000000E+00  0.00000000E+00  0.00000000E+00
  0.00000000E+00  0.00000000E+00  0.00000000E+00
  0.00000000E+00  0.00000000E+00  0.00000000E+00
  0.00000000E+00  0.00000000E+00  0.00000000E+00
  0.00000000E+00  0.00000000E+00  0.00000000E+00
  0.00000000E+00  0.00000000E+00  0.00000000E+00
  0.00000000E+00  0.00000000E+00  0.00000000E+00
  0.00000000E+00  0.00000000E+00  0.00000000E+00
  0.00000000E+00  0.00000000E+00  0.00000000E+00
  0.00000000E+00  0.00000000E+00  0.00000000E+00
  0.00000000E+00  0.00000000E+00  0.00000000E+00
  0.00000000E+00  0.00000000E+00  0.00000000E+00
  0.00000000E+00  0.00000000E+00  0.00000000E+00
  0.00000000E+00  0.00000000E+00  0.00000000E+00
  0.00000000E+00  0.00000000E+00  0.00000000E+00
  0.00000000E+00  0.00000000E+00  0.00000000E+00
  0.00000000E+00  0.00000000E+00  0.00000000E+00
  0.00000000E+00  0.00000000E+00  0.00000000E+00
  0.00000000E+00  0.00000000E+00  0.00000000E+00
  0.00000000E+00  0.00000000E+00  0.00000000E+00
  0.00000000E+00  0.00000000E+00  0.00000000E+00
  0.00000000E+00  0.00000000E+00  0.00000000E+00
  0.00000000E+00  0.00000000E+00  0.00000000E+00
  0.00000000E+00  0.00000000E+00  0.00000000E+00
  0.00000000E+00  0.00000000E+00  0.00000000E+00
  0.00000000E+00  0.00000000E+00  0.00000000E+00
  0.00000000E+00  0.00000000E+00  0.00000000E+00
  0.00000000E+00  0.00000000E+00  0.00000000E+00
  0.00000000E+00  0.00000000E+00  0.00000000E+00
  0.00000000E+00  0.00000000E+00  0.00000000E+00
  0.00000000E+00  0.00000000E+00  0.00000000E+00
  0.00000000E+00  0.00000000E+00  0.00000000E+00
  0.00000000E+00  0.00000000E+00  0.00000000E+00
  0.00000000E+00  0.00000000E+00  0.00000000E+00
  0.00000000E+00  0.00000000E+00  0.00000000E+00
  0.00000000E+00  0.00000000E+00  0.00000000E+00
  0.00000000E+00  0.00000000E+00  0.00000000E+00
  0.00000000E+00  0.00000000E+00  0.00000000E+00
  0.00000000E+00  0.00000000E+00  0.00000000E+00
  0.00000000E+00  0.00000000E+00  0.00000000E+00
  0.00000000E+00  0.00000000E+00  0.00000000E+00
  0.00000000E+00  0.00000000E+00  0.00000000E+00
  0.00000000E+00  0.00000000E+00  0.00000000E+00
  0.00000000E+00  0.00000000E+00  0.00000000E+00
  0.00000000E+00  0.00000000E+00  0.00000000E+00
  0.00000000E+00  0.00000000E+00  0.00000000E+00
  0.00000000E+00  0.00000000E+00  0.00000000E+00
  0.00000000E+00  0.00000000E+00  0.00000000E+00
  0.00000000E+00  0.00000000E+00  0.00000000E+00
  0.00000000E+00  0.00000000E+00  0.00000000E+00
  0.00000000E+00  0.00000000E+00  0.00000000E+00
  0.00000000E+00  0.00000000E+00  0.00000000E+00
  0.00000000E+00  0.00000000E+00  0.00000000E+00
  0.00000000E+00  0.00000000E+00  0.00000000E+00
  0.00000000E+00  0.00000000E+00  0.00000000E+00
  0.00000000E+00  0.00000000E+00  0.00000000E+00
  0.00000000E+00  0.00000000E+00  0.00000000E+00
  0.00000000E+00  0.00000000E+00  0.00000000E+00
  0.00000000E+00  0.00000000E+00  0.00000000E+00
  0.00000000E+00  0.00000000E+00  0.00000000E+00
  0.00000000E+00  0.00000000E+00  0.00000000E+00
  0.00000000E+00  0.00000000E+00  0.00000000E+00
  0.00000000E+00  0.00000000E+00  0.00000000E+00
  0.00000000E+00  0.00000000E+00  0.00000000E+00
  0.00000000E+00  0.00000000E+00  0.00000000E+00
  0.00000000E+00  0.00000000E+00  0.00000000E+00
  0.00000000E+00  0.00000000E+00  0.00000000E+00
  0.00000000E+00  0.00000000E+00  0.00000000E+00
  0.00000000E+00  0.00000000E+00  0.00000000E+00
  0.00000000E+00  0.00000000E+00  0.00000000E+00
  0.00000000E+00  0.00000000E+00  0.00000000E+00
  0.00000000E+00  0.00000000E+00  0.00000000E+00
  0.00000000E+00  0.00000000E+00  0.00000000E+00
  0.00000000E+00  0.00000000E+00  0.00000000E+00
  0.00000000E+00  0.00000000E+00  0.00000000E+00
  0.00000000E+00  0.00000000E+00  0.00000000E+00
  0.00000000E+00  0.00000000E+00  0.00000000E+00
  0.00000000E+00  0.00000000E+00  0.00000000E+00
  0.00000000E+00  0.00000000E+00  0.00000000E+00
  0.00000000E+00  0.00000000E+00  0.00000000E+00
  0.00000000E+00  0.00000000E+00  0.00000000E+00
  0.00000000E+00  0.00000000E+00  0.00000000E+00
  0.00000000E+00  0.00000000E+00  0.00000000E+00
  0.00000000E+00  0.00000000E+00  0.00000000E+00
  0.00000000E+00  0.00000000E+00  0.00000000E+00
  0.00000000E+00  0.00000000E+00  0.00000000E+00
  0.00000000E+00  0.00000000E+00  0.00000000E+00
  0.00000000E+00  0.00000000E+00  0.00000000E+00
  0.00000000E+00  0.00000000E+00  0.00000000E+00
  0.00000000E+00  0.00000000E+00  0.00000000E+00
  0.00000000E+00  0.00000000E+00  0.00000000E+00
  0.00000000E+00  0.00000000E+00  0.00000000E+00
  0.00000000E+00  0.00000000E+00  0.00000000E+00
  0.00000000E+00  0.00000000E+00  0.00000000E+00
  0.00000000E+00  0.00000000E+00  0.00000000E+00
  0.00000000E+00  0.00000000E+00  0.00000000E+00
  0.00000000E+00  0.00000000E+00  0.00000000E+00
  0.00000000E+00  0.00000000E+00  0.00000000E+00
  0.00000000E+00  0.00000000E+00  0.00000000E+00
  0.00000000E+00  0.00000000E+00  0.00000000E+00
  0.00000000E+00  0.00000000E+00  0.00000000E+00
  0.00000000E+00  0.00000000E+00  0.00000000E+00
  0.00000000E+00  0.00000000E+00  0.00000000E+00
  0.00000000E+00  0.00000000E+00  0.00000000E+00
  0.00000000E+00  0.00000000E+00  0.00000000E+00
  0.00000000E+00  0.00000000E+00  0.00000000E+00
  0.00000000E+00  0.00000000E+00  0.00000000E+00
  0.00000000E+00  0.00000000E+00  0.00000000E+00
  0.00000000E+00  0.00000000E+00  0.00000000E+00
  0.00000000E+00  0.00000000E+00  0.00000000E+00
  0.00000000E+00  0.00000000E+00  0.00000000E+00
  0.00000000E+00  0.00000000E+00  0.00000000E+00
  0.00000000E+00  0.00000000E+00  0.00000000E+00
  0.00000000E+00  0.00000000E+00  0.00000000E+00
  0.00000000E+00  0.00000000E+00  0.00000000E+00
  0.00000000E+00  0.00000000E+00  0.00000000E+00
  0.00000000E+00  0.00000000E+00  0.00000000E+00
  0.00000000E+00  0.00000000E+00  0.00000000E+00
  0.00000000E+00  0.00000000E+00  0.00000000E+00
  0.00000000E+00  0.00000000E+00  0.00000000E+00
  0.00000000E+00  0.00000000E+00  0.00000000E+00
  0.00000000E+00  0.00000000E+00  0.00000000E+00
  0.00000000E+00  0.00000000E+00  0.00000000E+00
  0.00000000E+00  0.00000000E+00  0.00000000E+00
  0.00000000E+00  0.00000000E+00  0.00000000E+00
  0.00000000E+00  0.00000000E+00  0.00000000E+00
  0.00000000E+00  0.00000000E+00  0.00000000E+00
  0.00000000E+00  0.00000000E+00  0.00000000E+00
  0.00000000E+00  0.00000000E+00  0.00000000E+00
  0.00000000E+00  0.00000000E+00  0.00000000E+00
  0.00000000E+00  0.00000000E+00  0.00000000E+00
  0.00000000E+00  0.00000000E+00  0.00000000E+00
  0.00000000E+00  0.00000000E+00  0.00000000E+00
