SrTiFeO                                 
   1.00000000000000     
    11.1989999999999998    0.0000000000000000    0.0000000000000000
     0.0000000000000000   11.1989999999999998    0.0000000000000000
     0.0000000000000000    0.0000000000000000   15.9830000000000005
   Sr   Ti   Fe   O 
    32    30     2    95
Direct
 -0.0005242961699723  0.2498502597982057  0.1250117976036860
 -0.0023957155248683  0.2498333696262940  0.6241641931440500
 -0.0016011708276310  0.7503307498002059  0.1256155547152555
 -0.0000532032601075  0.7478857785680657  0.6235372652573204
  0.5000877629314978  0.2510779496769513  0.1254934612554790
  0.5048432645819643  0.2456321813783305  0.6243207596548513
  0.5000138467322106  0.7508544023303025  0.1235345785289733
  0.4985581689750688  0.7535401359165479  0.6283186433491667
 -0.0023957155248683  0.2498333696262940  0.3758358068559498
 -0.0005242961699723  0.2498502597982057  0.8749882023963139
 -0.0000532032601075  0.7478857785680657  0.3764627347426798
 -0.0016011708276310  0.7503307498002059  0.8743844452847448
  0.5048432645819643  0.2456321813783305  0.3756792403451490
  0.5000877629314978  0.2510779496769513  0.8745065387445209
  0.4985581689750688  0.7535401359165479  0.3716813566508334
  0.5000138467322106  0.7508544023303025  0.8764654214710261
  0.2501520319299402 -0.0001912490669954  0.1250389313248620
  0.2502458117819489 -0.0009782829039183  0.6257162483421830
  0.2500611157622519  0.5005842811255388  0.1246426697675798
  0.2436359727162477  0.5000396115161052  0.6270843749697563
  0.7494894073116198 -0.0007060553230822  0.1250855679428748
  0.7501543746132839  0.0045339045465153  0.6244285389812018
  0.7493245831403316  0.5007435474706528  0.1247905307043130
  0.7550057255516587  0.4931960286715641  0.6272039642362969
  0.2502458117819489 -0.0009782829039183  0.3742837516578172
  0.2501520319299402 -0.0001912490669954  0.8749610686751379
  0.2436359727162477  0.5000396115161052  0.3729156250302438
  0.2500611157622519  0.5005842811255388  0.8753573302324202
  0.7501543746132839  0.0045339045465153  0.3755714610187983
  0.7494894073116198 -0.0007060553230822  0.8749144320571253
  0.7550057255516587  0.4931960286715641  0.3727960357637033
  0.7493245831403316  0.5007435474706528  0.8752094692956871
 -0.0002570094632405 -0.0003780184916671  0.0000000000000000
 -0.0004296532132162  0.0015511313962158  0.5000000000000000
 -0.0001549937991529  0.4998880182027313  0.0000000000000000
 -0.0026810541286568  0.4988001954817476  0.5000000000000000
  0.5002071467611249  0.0004755815260546  0.0000000000000000
  0.5018496147806909 -0.0014753163219877  0.5000000000000000
  0.4993431662740526  0.4995430330389760  0.0000000000000000
  0.2505136978221799  0.2504235660922347  0.0000000000000000
  0.2465896184535078  0.2445593154996477  0.5000000000000000
  0.2495019611671054  0.7499087129771510  0.0000000000000000
  0.2505301872414369  0.7511258615370294  0.5000000000000000
  0.7502563407001464  0.2500498446733316  0.0000000000000000
  0.7506084721797291  0.7506727400431286  0.0000000000000000
  0.2502104630496639  0.2499443684404389  0.2505335028605711
  0.2502104630496639  0.2499443684404389  0.7494664971394288
  0.2494544113201935  0.7497882201791981  0.2499011117906460
  0.2494544113201935  0.7497882201791981  0.7500988882093541
  0.7499615633875653  0.2494050082063348  0.2504768264404768
  0.7499615633875653  0.2494050082063348  0.7495231735595237
  0.7487837778460800  0.7487837891617538  0.2525209594443292
  0.7487837778460800  0.7487837891617538  0.7474790405556708
 -0.0000989838113982 -0.0005327732484299  0.2505449941711045
 -0.0000989838113982 -0.0005327732484299  0.7494550058288953
 -0.0001590496053526  0.4998539419089655  0.2493109266846543
 -0.0001590496053526  0.4998539419089655  0.7506890733153455
  0.5000209332949321  0.0000154299710115  0.2497581889012585
  0.5000209332949321  0.0000154299710115  0.7502418110987417
  0.5006036997964466  0.5011112303166823  0.2503276882334307
  0.5006036997964466  0.5011112303166823  0.7496723117665693
  0.4879771701637073  0.4928366411652793  0.5000000000000000
  0.7516538731544786  0.2502382266481455  0.5000000000000000
  0.7573755216953171  0.7619298790464760  0.5000000000000000
  0.1096489621684622  0.1406509443018072  0.2487618127839079
  0.1096489621684622  0.1406509443018072  0.7512381872160924
  0.1090267600704969  0.6407795276036962  0.2502858113566742
  0.1090267600704969  0.6407795276036962  0.7497141886433257
  0.6090147324797314  0.1403203021458809  0.2488218833971577
  0.6090147324797314  0.1403203021458809  0.7511781166028424
  0.6083806319785195  0.6410303732625933  0.2440002007346049
  0.6083806319785195  0.6410303732625933  0.7559997992653951
  0.3918407230544808  0.3607882864516759  0.2562826456680674
  0.3918407230544808  0.3607882864516759  0.7437173543319326
  0.3898625320005851  0.8598081974625397  0.2489397117116366
  0.3898625320005851  0.8598081974625397  0.7510602882883632
  0.8906025295120588  0.3598320407809341  0.2506443348431177
  0.8906025295120588  0.3598320407809341  0.7493556651568822
  0.8895387316509625  0.8582326120876173  0.2553960183526369
  0.8895387316509625  0.8582326120876173  0.7446039816473633
  0.3596736298868849  0.1099371494677668  0.2497341912741629
  0.3596736298868849  0.1099371494677668  0.7502658087258371
  0.3589772992066996  0.6088506934522160  0.2515205687608628
  0.3589772992066996  0.6088506934522160  0.7484794312391372
  0.8595924114947870  0.1086549873913582  0.2492114697698031
  0.8595924114947870  0.1086549873913582  0.7507885302301965
  0.8591521961842842  0.6085766198956354  0.2496012600589602
  0.8591521961842842  0.6085766198956354  0.7503987399410401
  0.1410194161539848  0.3908368651073273  0.2489435823164004
  0.1410194161539848  0.3908368651073273  0.7510564176835999
  0.1405553728810943  0.8901954034645306  0.2495633301175318
  0.1405553728810943  0.8901954034645306  0.7504366698824682
  0.6402841977071051  0.3911067164805839  0.2494128412867533
  0.6402841977071051  0.3911067164805839  0.7505871587132468
  0.6405965417694803  0.8905560593085039  0.2520611606659630
  0.6405965417694803  0.8905560593085039  0.7479388393340370
  0.3586454959669148  0.3910356729764570  0.0000000000000000
  0.3592474916192593  0.8904745779531604  0.0000000000000000
  0.3567609762221799  0.8931884177836926  0.5000000000000000
  0.8594582123874512  0.3910446449284888  0.0000000000000000
  0.8593916403179396  0.8913301995275168  0.0000000000000000
  0.8607696398200736  0.8933296455124062  0.5000000000000000
  0.1410546084474820  0.1093512652619641  0.0000000000000000
  0.1429447326420738  0.1069517801268568  0.5000000000000000
  0.1407981933723282  0.6088812588606852  0.0000000000000000
  0.1412741113308502  0.6098997392436001  0.5000000000000000
  0.6408772400744324  0.1092167594648165  0.0000000000000000
  0.6372954613147691  0.1107423948633473  0.5000000000000000
  0.6397359001000681  0.6098241021957895  0.0000000000000000
  0.1093431969443622  0.3587662357958605  0.0000000000000000
  0.1113684111274641  0.3590019707035734  0.5000000000000000
  0.1092866579404193  0.8588468369742306  0.0000000000000000
  0.1088415951120173  0.8577646933767307  0.5000000000000000
  0.6090797098302939  0.3597047544262729  0.0000000000000000
  0.6095029030242048  0.8596515177628049  0.0000000000000000
  0.6057311812050671  0.8546071285888549  0.5000000000000000
  0.3911469571463633  0.1408799647102738  0.0000000000000000
  0.3910699643068388  0.1431768555022092  0.5000000000000000
  0.3906149248039582  0.6405114673263226  0.0000000000000000
  0.8914884764384703  0.1406652480027490  0.0000000000000000
  0.8927236979600692  0.1385695135370210  0.5000000000000000
  0.8907185023320516  0.6406795497230559  0.0000000000000000
 -0.0009917026517447 -0.0026575504748809  0.1253553344392359
  0.0027249497349544  0.0016381034936562  0.6250834788552918
  0.0001413044934682  0.4999249344660436  0.1248149875521628
  0.0019787835416811  0.5004467621768655  0.6256176760260246
  0.5003307147889182 -0.0009206652680641  0.1248807768748018
  0.4987601453052031  0.0010177559898743  0.6254400664363586
  0.4967788658684125  0.4972935254976305  0.1253366450733628
  0.5132123913871911  0.5139110577052909  0.6216617658851107
  0.0027249497349544  0.0016381034936562  0.3749165211447085
 -0.0009917026517447 -0.0026575504748809  0.8746446655607641
  0.0019787835416811  0.5004467621768655  0.3743823239739754
  0.0001413044934682  0.4999249344660436  0.8751850124478372
  0.4987601453052031  0.0010177559898743  0.3745599335636414
  0.5003307147889182 -0.0009206652680641  0.8751192231251981
  0.4967788658684125  0.4972935254976305  0.8746633549266368
  0.2480648335037438  0.2491755767386568  0.3754350927147268
  0.2531794694583422  0.2517483290163106  0.8745416630833492
  0.2501614247041380  0.7499314012120262  0.3749544126466134
  0.2501571793611568  0.7488555016712892  0.8750086165592190
  0.7506773313217419  0.2504919497225280  0.8754141475161118
  0.7523666568473241  0.7525443440696764  0.8746896273931197
  0.2531794694583422  0.2517483290163106  0.1254583369166506
  0.2480648335037438  0.2491755767386568  0.6245649072852734
  0.2501571793611568  0.7488555016712892  0.1249913834407808
  0.2501614247041380  0.7499314012120262  0.6250455873533867
  0.7506773313217419  0.2504919497225280  0.1245858524838883
  0.7487469833912851  0.2489500528678508  0.6267941414218837
  0.7523666568473241  0.7525443440696764  0.1253103726068802
  0.7382611817226292  0.7357403540600005  0.6225568795258282
  0.7487469833912851  0.2489500528678508  0.3732058585781162
  0.8653028513421739  0.3873558155637565  0.5000000000000000
  0.3997841168418544  0.6458257443388372  0.5000000000000000
  0.5132123913871911  0.5139110577052909  0.3783382341148892
  0.3576978966141763  0.3925824061657719  0.5000000000000000
  0.8808329345548535  0.6335348212659041  0.5000000000000000
  0.7382611817226292  0.7357403540600005  0.3774431204741721
  0.6171449060670534  0.3777675256691744  0.5000000000000000
 
  0.00000000E+00  0.00000000E+00  0.00000000E+00
  0.00000000E+00  0.00000000E+00  0.00000000E+00
  0.00000000E+00  0.00000000E+00  0.00000000E+00
  0.00000000E+00  0.00000000E+00  0.00000000E+00
  0.00000000E+00  0.00000000E+00  0.00000000E+00
  0.00000000E+00  0.00000000E+00  0.00000000E+00
  0.00000000E+00  0.00000000E+00  0.00000000E+00
  0.00000000E+00  0.00000000E+00  0.00000000E+00
  0.00000000E+00  0.00000000E+00  0.00000000E+00
  0.00000000E+00  0.00000000E+00  0.00000000E+00
  0.00000000E+00  0.00000000E+00  0.00000000E+00
  0.00000000E+00  0.00000000E+00  0.00000000E+00
  0.00000000E+00  0.00000000E+00  0.00000000E+00
  0.00000000E+00  0.00000000E+00  0.00000000E+00
  0.00000000E+00  0.00000000E+00  0.00000000E+00
  0.00000000E+00  0.00000000E+00  0.00000000E+00
  0.00000000E+00  0.00000000E+00  0.00000000E+00
  0.00000000E+00  0.00000000E+00  0.00000000E+00
  0.00000000E+00  0.00000000E+00  0.00000000E+00
  0.00000000E+00  0.00000000E+00  0.00000000E+00
  0.00000000E+00  0.00000000E+00  0.00000000E+00
  0.00000000E+00  0.00000000E+00  0.00000000E+00
  0.00000000E+00  0.00000000E+00  0.00000000E+00
  0.00000000E+00  0.00000000E+00  0.00000000E+00
  0.00000000E+00  0.00000000E+00  0.00000000E+00
  0.00000000E+00  0.00000000E+00  0.00000000E+00
  0.00000000E+00  0.00000000E+00  0.00000000E+00
  0.00000000E+00  0.00000000E+00  0.00000000E+00
  0.00000000E+00  0.00000000E+00  0.00000000E+00
  0.00000000E+00  0.00000000E+00  0.00000000E+00
  0.00000000E+00  0.00000000E+00  0.00000000E+00
  0.00000000E+00  0.00000000E+00  0.00000000E+00
  0.00000000E+00  0.00000000E+00  0.00000000E+00
  0.00000000E+00  0.00000000E+00  0.00000000E+00
  0.00000000E+00  0.00000000E+00  0.00000000E+00
  0.00000000E+00  0.00000000E+00  0.00000000E+00
  0.00000000E+00  0.00000000E+00  0.00000000E+00
  0.00000000E+00  0.00000000E+00  0.00000000E+00
  0.00000000E+00  0.00000000E+00  0.00000000E+00
  0.00000000E+00  0.00000000E+00  0.00000000E+00
  0.00000000E+00  0.00000000E+00  0.00000000E+00
  0.00000000E+00  0.00000000E+00  0.00000000E+00
  0.00000000E+00  0.00000000E+00  0.00000000E+00
  0.00000000E+00  0.00000000E+00  0.00000000E+00
  0.00000000E+00  0.00000000E+00  0.00000000E+00
  0.00000000E+00  0.00000000E+00  0.00000000E+00
  0.00000000E+00  0.00000000E+00  0.00000000E+00
  0.00000000E+00  0.00000000E+00  0.00000000E+00
  0.00000000E+00  0.00000000E+00  0.00000000E+00
  0.00000000E+00  0.00000000E+00  0.00000000E+00
  0.00000000E+00  0.00000000E+00  0.00000000E+00
  0.00000000E+00  0.00000000E+00  0.00000000E+00
  0.00000000E+00  0.00000000E+00  0.00000000E+00
  0.00000000E+00  0.00000000E+00  0.00000000E+00
  0.00000000E+00  0.00000000E+00  0.00000000E+00
  0.00000000E+00  0.00000000E+00  0.00000000E+00
  0.00000000E+00  0.00000000E+00  0.00000000E+00
  0.00000000E+00  0.00000000E+00  0.00000000E+00
  0.00000000E+00  0.00000000E+00  0.00000000E+00
  0.00000000E+00  0.00000000E+00  0.00000000E+00
  0.00000000E+00  0.00000000E+00  0.00000000E+00
  0.00000000E+00  0.00000000E+00  0.00000000E+00
  0.00000000E+00  0.00000000E+00  0.00000000E+00
  0.00000000E+00  0.00000000E+00  0.00000000E+00
  0.00000000E+00  0.00000000E+00  0.00000000E+00
  0.00000000E+00  0.00000000E+00  0.00000000E+00
  0.00000000E+00  0.00000000E+00  0.00000000E+00
  0.00000000E+00  0.00000000E+00  0.00000000E+00
  0.00000000E+00  0.00000000E+00  0.00000000E+00
  0.00000000E+00  0.00000000E+00  0.00000000E+00
  0.00000000E+00  0.00000000E+00  0.00000000E+00
  0.00000000E+00  0.00000000E+00  0.00000000E+00
  0.00000000E+00  0.00000000E+00  0.00000000E+00
  0.00000000E+00  0.00000000E+00  0.00000000E+00
  0.00000000E+00  0.00000000E+00  0.00000000E+00
  0.00000000E+00  0.00000000E+00  0.00000000E+00
  0.00000000E+00  0.00000000E+00  0.00000000E+00
  0.00000000E+00  0.00000000E+00  0.00000000E+00
  0.00000000E+00  0.00000000E+00  0.00000000E+00
  0.00000000E+00  0.00000000E+00  0.00000000E+00
  0.00000000E+00  0.00000000E+00  0.00000000E+00
  0.00000000E+00  0.00000000E+00  0.00000000E+00
  0.00000000E+00  0.00000000E+00  0.00000000E+00
  0.00000000E+00  0.00000000E+00  0.00000000E+00
  0.00000000E+00  0.00000000E+00  0.00000000E+00
  0.00000000E+00  0.00000000E+00  0.00000000E+00
  0.00000000E+00  0.00000000E+00  0.00000000E+00
  0.00000000E+00  0.00000000E+00  0.00000000E+00
  0.00000000E+00  0.00000000E+00  0.00000000E+00
  0.00000000E+00  0.00000000E+00  0.00000000E+00
  0.00000000E+00  0.00000000E+00  0.00000000E+00
  0.00000000E+00  0.00000000E+00  0.00000000E+00
  0.00000000E+00  0.00000000E+00  0.00000000E+00
  0.00000000E+00  0.00000000E+00  0.00000000E+00
  0.00000000E+00  0.00000000E+00  0.00000000E+00
  0.00000000E+00  0.00000000E+00  0.00000000E+00
  0.00000000E+00  0.00000000E+00  0.00000000E+00
  0.00000000E+00  0.00000000E+00  0.00000000E+00
  0.00000000E+00  0.00000000E+00  0.00000000E+00
  0.00000000E+00  0.00000000E+00  0.00000000E+00
  0.00000000E+00  0.00000000E+00  0.00000000E+00
  0.00000000E+00  0.00000000E+00  0.00000000E+00
  0.00000000E+00  0.00000000E+00  0.00000000E+00
  0.00000000E+00  0.00000000E+00  0.00000000E+00
  0.00000000E+00  0.00000000E+00  0.00000000E+00
  0.00000000E+00  0.00000000E+00  0.00000000E+00
  0.00000000E+00  0.00000000E+00  0.00000000E+00
  0.00000000E+00  0.00000000E+00  0.00000000E+00
  0.00000000E+00  0.00000000E+00  0.00000000E+00
  0.00000000E+00  0.00000000E+00  0.00000000E+00
  0.00000000E+00  0.00000000E+00  0.00000000E+00
  0.00000000E+00  0.00000000E+00  0.00000000E+00
  0.00000000E+00  0.00000000E+00  0.00000000E+00
  0.00000000E+00  0.00000000E+00  0.00000000E+00
  0.00000000E+00  0.00000000E+00  0.00000000E+00
  0.00000000E+00  0.00000000E+00  0.00000000E+00
  0.00000000E+00  0.00000000E+00  0.00000000E+00
  0.00000000E+00  0.00000000E+00  0.00000000E+00
  0.00000000E+00  0.00000000E+00  0.00000000E+00
  0.00000000E+00  0.00000000E+00  0.00000000E+00
  0.00000000E+00  0.00000000E+00  0.00000000E+00
  0.00000000E+00  0.00000000E+00  0.00000000E+00
  0.00000000E+00  0.00000000E+00  0.00000000E+00
  0.00000000E+00  0.00000000E+00  0.00000000E+00
  0.00000000E+00  0.00000000E+00  0.00000000E+00
  0.00000000E+00  0.00000000E+00  0.00000000E+00
  0.00000000E+00  0.00000000E+00  0.00000000E+00
  0.00000000E+00  0.00000000E+00  0.00000000E+00
  0.00000000E+00  0.00000000E+00  0.00000000E+00
  0.00000000E+00  0.00000000E+00  0.00000000E+00
  0.00000000E+00  0.00000000E+00  0.00000000E+00
  0.00000000E+00  0.00000000E+00  0.00000000E+00
  0.00000000E+00  0.00000000E+00  0.00000000E+00
  0.00000000E+00  0.00000000E+00  0.00000000E+00
  0.00000000E+00  0.00000000E+00  0.00000000E+00
  0.00000000E+00  0.00000000E+00  0.00000000E+00
  0.00000000E+00  0.00000000E+00  0.00000000E+00
  0.00000000E+00  0.00000000E+00  0.00000000E+00
  0.00000000E+00  0.00000000E+00  0.00000000E+00
  0.00000000E+00  0.00000000E+00  0.00000000E+00
  0.00000000E+00  0.00000000E+00  0.00000000E+00
  0.00000000E+00  0.00000000E+00  0.00000000E+00
  0.00000000E+00  0.00000000E+00  0.00000000E+00
  0.00000000E+00  0.00000000E+00  0.00000000E+00
  0.00000000E+00  0.00000000E+00  0.00000000E+00
  0.00000000E+00  0.00000000E+00  0.00000000E+00
  0.00000000E+00  0.00000000E+00  0.00000000E+00
  0.00000000E+00  0.00000000E+00  0.00000000E+00
  0.00000000E+00  0.00000000E+00  0.00000000E+00
  0.00000000E+00  0.00000000E+00  0.00000000E+00
  0.00000000E+00  0.00000000E+00  0.00000000E+00
  0.00000000E+00  0.00000000E+00  0.00000000E+00
  0.00000000E+00  0.00000000E+00  0.00000000E+00
  0.00000000E+00  0.00000000E+00  0.00000000E+00
  0.00000000E+00  0.00000000E+00  0.00000000E+00
  0.00000000E+00  0.00000000E+00  0.00000000E+00
  0.00000000E+00  0.00000000E+00  0.00000000E+00
  0.00000000E+00  0.00000000E+00  0.00000000E+00
  0.00000000E+00  0.00000000E+00  0.00000000E+00
