Sr   Ti   Fe   O                        
   1.00000000000000     
    11.1989999999999998    0.0000000000000000    0.0000000000000000
     0.0000000000000000   11.1989999999999998    0.0000000000000000
     0.0000000000000000    0.0000000000000000   15.9830000000000005
   Sr   Ti   Fe   O 
    32    30     2    94
Direct
  0.9995115382021145  0.2489376501743943  0.1249488942659040
  0.0001389904879186  0.2470057465678899  0.6264720627353437
  0.9985121221850788  0.7511674095113324  0.1256426560140649
  0.9993825956652702  0.7516069861106793  0.6269936605405427
  0.4994283802501619  0.2470182802829917  0.1227388944113866
  0.4996788796627281  0.2394504914627916  0.6259353498333129
  0.5009397932772752  0.7525651031384194  0.1230456536997193
  0.5027258018763821  0.7574415379783215  0.6284540472812252
  0.0003081706469396  0.2481982685048757  0.3759002845613769
 -0.0000106213505836  0.2496390174903270  0.8741021537850774
  0.9981740766742131  0.7498160203768769  0.3775498565794259
  0.9998675341417071  0.7499421368640055  0.8743077382037747
  0.5006837643733379  0.2357263284791730  0.3735599595510108
  0.4985848867923073  0.2530823110543635  0.8718856753593162
  0.4984412351081594  0.7626563069263036  0.3723087710424704
  0.5020837790670893  0.7490931740570834  0.8738446072563265
  0.2495401131499681  0.9999830164074341  0.1248068216872521
  0.2488486908959928  0.9987068300135536  0.6253410843744843
  0.2463671889507812  0.5005953440755659  0.1231487619217596
  0.2382929578283157  0.4978003557469586  0.6282391146659038
  0.7494424134306452  0.9983299583327375  0.1248606043616078
  0.7523357834733166  1.0003948660120183  0.6252838027695086
  0.7527736286463619  0.5004120933731740  0.1231082980381007
  0.7647348814238561  0.4983945282223345  0.6307015992336465
  0.2480605743210965  0.9996147456745386  0.3748631157533798
  0.2491659456962866  0.9997458093477894  0.8738498521390344
  0.2382513900452835  0.4992091018889542  0.3759349457325965
  0.2537748954099315  0.5004604743834712  0.8723733681067366
  0.7514841853519613  1.0001454916476344  0.3744551005146575
  0.7520028953172205  0.9996784012135281  0.8745596611039896
  0.7629511724368314  0.4980277780290310  0.3734766232537376
  0.7462344248427417  0.5020362882351919  0.8721823335306864
  0.9999342009791509  0.9999041249709978  0.0003894374678242
  1.0005844271525537  1.0001151609532639  0.5000603177657332
  0.9999222643818361  0.4997423192567079  0.9995944202589778
  0.9979879863674427  0.5005860682082953  0.5009161452643242
  0.4999876296323797  0.0001704126384970  0.9991074748020623
  0.5011204081578303  0.9971393881135859  0.5004467864644454
  0.4993178721717800  0.4995820740811265  0.9952156804214042
  0.2506360293381328  0.2509331713810659  0.9997096359091301
  0.2482634530857569  0.2476352559670803  0.5008059267946336
  0.2507575428385148  0.7490754072142428  0.9996772741353851
  0.2495950102294082  0.7498830052223125  0.4988356961919815
  0.7491575263151363  0.2508624735316050  0.9995190887378012
  0.7502003843582928  0.2495239847340398  0.4989231898671657
  0.7500811105342705  0.7496603269126387  0.9998149812695073
  0.2498513638707672  0.2505291575413255  0.2509854136183549
  0.2524217295561760  0.2506610838538135  0.7491016500246021
  0.2487814258945196  0.7498245949707885  0.2505360203063238
  0.2532700130459934  0.7472822138724903  0.7488713793930987
  0.7500069152315164  0.2490787978941471  0.2501280656830959
  0.7474967438269094  0.2520111965437550  0.7494621356843449
  0.7486803054305077  0.7482284077942103  0.2534265956802189
  0.7493539134961658  0.7509599601466992  0.7484385898601665
  0.9999900541795876  0.9997825942790025  0.2499350298878606
  0.0006824631960367  0.9998189712403440  0.7504110565532427
  1.0000585679118854  0.4997056927234903  0.2489519673959538
  0.0006817364331817  0.4998105909286195  0.7521583743755542
  0.4994743939749173 -0.0003075945979279  0.2484420099587792
  0.5004957417056322  1.0001119069363595  0.7511909430504065
  0.4992392197691651  0.4993476788594722  0.2420438539849751
  0.4951337756845208  0.4966358654396598  0.4988617613112965
  0.5024919900862371  0.5019217466016090  0.7504182473082908
  0.7565957970331040  0.7599575248107889  0.5026047734452617
  0.1108261230251242  0.1404343920473174  0.2485320438829864
  0.1095147603743632  0.1386838583308704  0.7525536112378223
  0.1100544683718564  0.6388395143591780  0.2499589873841943
  0.1117488516812850  0.6386525991653765  0.7493840024247951
  0.6103154245241172  0.1387927336463379  0.2481809825934137
  0.6084362040359327  0.1410581559381483  0.7503688996664246
  0.6060523687495236  0.6354391903322576  0.2570008052834035
  0.3915788001332628  0.3642199534514638  0.2629542003062335
  0.3864321590169144  0.3550494503953927  0.7391833206641342
  0.3885219535259400  0.8607095587693019  0.2484147036568249
  0.3905961852875030  0.8610677821305931  0.7515487013478700
  0.8883275064287397  0.3611411119466004  0.2511952762552753
  0.8901227456509236  0.3604220397381300  0.7489964225213713
  0.8874623872708619  0.8590683784096685  0.2547103498617311
  0.8927854685944419  0.8623899426786800  0.7539545613383990
  0.3611415266781732  0.1115253549510571  0.2508209631435711
  0.3594514000304199  0.1082725763394721  0.7500092272329392
  0.3627246559957523  0.6082415725805363  0.2614103846964398
  0.3603056033170816  0.6120979189041559  0.7403401294148736
  0.8598769613034404  0.1098244580811134  0.2465702534491009
  0.8598824227679421  0.1112298370756205  0.7487033748406774
  0.8599563261475581  0.6093021037793840  0.2490859806304349
  0.8639957614903204  0.6116251295396191  0.7520879596050675
  0.1394238198808903  0.3899050811484155  0.2493762546042342
  0.1388702163366944  0.3891997628005508  0.7520295954512741
  0.1388699444257146  0.8896702443213711  0.2462507791128132
  0.1407918388440850  0.8888660978660454  0.7491793734542354
  0.6359631902548364  0.3911370383158423  0.2608705039805241
  0.6379708009000817  0.8880482177641749  0.2520035785645007
  0.6415093375536673  0.8946898952318990  0.7507446865793005
  0.3574806309383337  0.3917030211865988  0.0021227546428670
  0.3591734890264155  0.8905450723056031  0.0007557218824691
  0.3598176736817032  0.8886464759536428  0.4987139162876349
  0.8583686810105435  0.3914677921960270  0.9994457512824890
  0.8602651775487767  0.3875348859873039  0.4991016573202931
  0.8596427109552670  0.8904159648907785  0.0029983850105408
  0.8617745840748344  0.8937171541024072  0.4947016308836837
  0.1410639990614355  0.1102518778047022  0.0026133259582300
  0.1400636664953470  0.1080011850253713  0.4986668872570859
  0.1412415080012006  0.6082455781095039  0.9994706401323484
  0.1361316485185262  0.6113199882169223  0.4995743765545592
  0.6409629022099760  0.1093831736759309  0.0013659242260780
  0.6388132489288966  0.1099793825698234  0.4989646959079543
  0.6407422967269010  0.6085667024522181  0.0014071392898679
  0.1086791866296727  0.3584138493190184  0.0012986886546177
  0.1093138625581853  0.3601477705268698  0.4993303473960043
  0.1105055959952808  0.8586540548077947  0.0009610069602929
  0.1087152369291974  0.8594486339053600  0.5003353650096550
  0.6078564562227032  0.3584610950477189  0.0010169294729546
  0.6090773075328622  0.8595592556688372  0.0006387937831070
  0.6075825446353905  0.8570788864982792  0.5003766762965405
  0.3911393158406356  0.1410179298360807  1.0004160589288422
  0.3892783233585169  0.1386677192376689  0.5001418523929692
  0.3918134299815976  0.6412326925296482  0.0016212814049441
  0.3859146703062113  0.6339199038216525  0.4821891565408377
  0.8897710576042861  0.1413433150635321  0.0012219022440393
  0.8905566043379327  0.1404023872700616  0.5008321109957350
  0.8911716713783358  0.6405692016900167  0.0021143812939700
  0.9986483458244025  0.9983783125418815  0.1254169534283269
 -0.0001534822438098 -0.0006131278789216  0.6246656518272841
 -0.0001132192590351  0.4987608310542965  0.1249769907710480
  0.0024561202290823  0.4988113704278688  0.6255926293454720
  0.4997668863415614  0.9994114624994195  0.1249575822846219
  0.4995499456127165  0.0012192819356141  0.6251016890487906
  0.4975301774785256  0.4971640547972815  0.1268234654762964
  0.0025415480290299  0.0029502832748424  0.3735518657286384
  1.0005079387144207  1.0007861157481157  0.8770826154670435
 -0.0003466485489836  0.5004505924784610  0.3746761516057566
  0.0001088387911766  0.4994463911716596  0.8758335580048384
  0.4992535861431858 -0.0002569484356077  0.3743699470653497
  0.5000817846816886  1.0008453981650944  0.8758008595307291
  0.4964734012416783  0.4973808398719713  0.8788360568318789
  0.2473940111829091  0.2492219783461930  0.3758396779808684
  0.2531616258535240  0.2517137847744180  0.8757512005229272
  0.2412880935319222  0.7578308453383329  0.3734873630103570
  0.2529126658512922  0.7465402898447546  0.8746280204866190
  0.7555971378384175  0.2417175785726840  0.3737590452034886
  0.7483318652401617  0.2516129495300709  0.8748302360636907
  0.7412368995616766  0.7377959783558435  0.3780854872617552
  0.7522664883501639  0.7520428035381276  0.8776992684408411
  0.2561131167413796  0.2540115889989512  0.1272378169295542
  0.2411794497042199  0.2437861134499984  0.6240375342583296
  0.2527151601312155  0.7439553233362385  0.1259964048664281
  0.2520247588169620  0.7497696371268511  0.6218554654045767
  0.7470974422470924  0.2562427324535052  0.1261079903612630
  0.7456372292467026  0.2504064665119042  0.6220923736937203
  0.7456664299373305  0.7479328079593670  0.1279135277587994
  0.6419533127065357  0.3888053171660474  0.7439998146249247
  0.6155771333702634  0.6483997894354881  0.7514692967785075
  0.6082799651608178  0.3634781917567346  0.4840278716312546
  0.3583192008670814  0.3887907698943291  0.5051436306112064
  0.7594413574500276  0.7603001277357880  0.6262778551793523
  0.8806578972192450  0.6327290077663018  0.5012825113457494
  0.5953383767876285  0.5839865346881332  0.5655923514713754
 
  0.00000000E+00  0.00000000E+00  0.00000000E+00
  0.00000000E+00  0.00000000E+00  0.00000000E+00
  0.00000000E+00  0.00000000E+00  0.00000000E+00
  0.00000000E+00  0.00000000E+00  0.00000000E+00
  0.00000000E+00  0.00000000E+00  0.00000000E+00
  0.00000000E+00  0.00000000E+00  0.00000000E+00
  0.00000000E+00  0.00000000E+00  0.00000000E+00
  0.00000000E+00  0.00000000E+00  0.00000000E+00
  0.00000000E+00  0.00000000E+00  0.00000000E+00
  0.00000000E+00  0.00000000E+00  0.00000000E+00
  0.00000000E+00  0.00000000E+00  0.00000000E+00
  0.00000000E+00  0.00000000E+00  0.00000000E+00
  0.00000000E+00  0.00000000E+00  0.00000000E+00
  0.00000000E+00  0.00000000E+00  0.00000000E+00
  0.00000000E+00  0.00000000E+00  0.00000000E+00
  0.00000000E+00  0.00000000E+00  0.00000000E+00
  0.00000000E+00  0.00000000E+00  0.00000000E+00
  0.00000000E+00  0.00000000E+00  0.00000000E+00
  0.00000000E+00  0.00000000E+00  0.00000000E+00
  0.00000000E+00  0.00000000E+00  0.00000000E+00
  0.00000000E+00  0.00000000E+00  0.00000000E+00
  0.00000000E+00  0.00000000E+00  0.00000000E+00
  0.00000000E+00  0.00000000E+00  0.00000000E+00
  0.00000000E+00  0.00000000E+00  0.00000000E+00
  0.00000000E+00  0.00000000E+00  0.00000000E+00
  0.00000000E+00  0.00000000E+00  0.00000000E+00
  0.00000000E+00  0.00000000E+00  0.00000000E+00
  0.00000000E+00  0.00000000E+00  0.00000000E+00
  0.00000000E+00  0.00000000E+00  0.00000000E+00
  0.00000000E+00  0.00000000E+00  0.00000000E+00
  0.00000000E+00  0.00000000E+00  0.00000000E+00
  0.00000000E+00  0.00000000E+00  0.00000000E+00
  0.00000000E+00  0.00000000E+00  0.00000000E+00
  0.00000000E+00  0.00000000E+00  0.00000000E+00
  0.00000000E+00  0.00000000E+00  0.00000000E+00
  0.00000000E+00  0.00000000E+00  0.00000000E+00
  0.00000000E+00  0.00000000E+00  0.00000000E+00
  0.00000000E+00  0.00000000E+00  0.00000000E+00
  0.00000000E+00  0.00000000E+00  0.00000000E+00
  0.00000000E+00  0.00000000E+00  0.00000000E+00
  0.00000000E+00  0.00000000E+00  0.00000000E+00
  0.00000000E+00  0.00000000E+00  0.00000000E+00
  0.00000000E+00  0.00000000E+00  0.00000000E+00
  0.00000000E+00  0.00000000E+00  0.00000000E+00
  0.00000000E+00  0.00000000E+00  0.00000000E+00
  0.00000000E+00  0.00000000E+00  0.00000000E+00
  0.00000000E+00  0.00000000E+00  0.00000000E+00
  0.00000000E+00  0.00000000E+00  0.00000000E+00
  0.00000000E+00  0.00000000E+00  0.00000000E+00
  0.00000000E+00  0.00000000E+00  0.00000000E+00
  0.00000000E+00  0.00000000E+00  0.00000000E+00
  0.00000000E+00  0.00000000E+00  0.00000000E+00
  0.00000000E+00  0.00000000E+00  0.00000000E+00
  0.00000000E+00  0.00000000E+00  0.00000000E+00
  0.00000000E+00  0.00000000E+00  0.00000000E+00
  0.00000000E+00  0.00000000E+00  0.00000000E+00
  0.00000000E+00  0.00000000E+00  0.00000000E+00
  0.00000000E+00  0.00000000E+00  0.00000000E+00
  0.00000000E+00  0.00000000E+00  0.00000000E+00
  0.00000000E+00  0.00000000E+00  0.00000000E+00
  0.00000000E+00  0.00000000E+00  0.00000000E+00
  0.00000000E+00  0.00000000E+00  0.00000000E+00
  0.00000000E+00  0.00000000E+00  0.00000000E+00
  0.00000000E+00  0.00000000E+00  0.00000000E+00
  0.00000000E+00  0.00000000E+00  0.00000000E+00
  0.00000000E+00  0.00000000E+00  0.00000000E+00
  0.00000000E+00  0.00000000E+00  0.00000000E+00
  0.00000000E+00  0.00000000E+00  0.00000000E+00
  0.00000000E+00  0.00000000E+00  0.00000000E+00
  0.00000000E+00  0.00000000E+00  0.00000000E+00
  0.00000000E+00  0.00000000E+00  0.00000000E+00
  0.00000000E+00  0.00000000E+00  0.00000000E+00
  0.00000000E+00  0.00000000E+00  0.00000000E+00
  0.00000000E+00  0.00000000E+00  0.00000000E+00
  0.00000000E+00  0.00000000E+00  0.00000000E+00
  0.00000000E+00  0.00000000E+00  0.00000000E+00
  0.00000000E+00  0.00000000E+00  0.00000000E+00
  0.00000000E+00  0.00000000E+00  0.00000000E+00
  0.00000000E+00  0.00000000E+00  0.00000000E+00
  0.00000000E+00  0.00000000E+00  0.00000000E+00
  0.00000000E+00  0.00000000E+00  0.00000000E+00
  0.00000000E+00  0.00000000E+00  0.00000000E+00
  0.00000000E+00  0.00000000E+00  0.00000000E+00
  0.00000000E+00  0.00000000E+00  0.00000000E+00
  0.00000000E+00  0.00000000E+00  0.00000000E+00
  0.00000000E+00  0.00000000E+00  0.00000000E+00
  0.00000000E+00  0.00000000E+00  0.00000000E+00
  0.00000000E+00  0.00000000E+00  0.00000000E+00
  0.00000000E+00  0.00000000E+00  0.00000000E+00
  0.00000000E+00  0.00000000E+00  0.00000000E+00
  0.00000000E+00  0.00000000E+00  0.00000000E+00
  0.00000000E+00  0.00000000E+00  0.00000000E+00
  0.00000000E+00  0.00000000E+00  0.00000000E+00
  0.00000000E+00  0.00000000E+00  0.00000000E+00
  0.00000000E+00  0.00000000E+00  0.00000000E+00
  0.00000000E+00  0.00000000E+00  0.00000000E+00
  0.00000000E+00  0.00000000E+00  0.00000000E+00
  0.00000000E+00  0.00000000E+00  0.00000000E+00
  0.00000000E+00  0.00000000E+00  0.00000000E+00
  0.00000000E+00  0.00000000E+00  0.00000000E+00
  0.00000000E+00  0.00000000E+00  0.00000000E+00
  0.00000000E+00  0.00000000E+00  0.00000000E+00
  0.00000000E+00  0.00000000E+00  0.00000000E+00
  0.00000000E+00  0.00000000E+00  0.00000000E+00
  0.00000000E+00  0.00000000E+00  0.00000000E+00
  0.00000000E+00  0.00000000E+00  0.00000000E+00
  0.00000000E+00  0.00000000E+00  0.00000000E+00
  0.00000000E+00  0.00000000E+00  0.00000000E+00
  0.00000000E+00  0.00000000E+00  0.00000000E+00
  0.00000000E+00  0.00000000E+00  0.00000000E+00
  0.00000000E+00  0.00000000E+00  0.00000000E+00
  0.00000000E+00  0.00000000E+00  0.00000000E+00
  0.00000000E+00  0.00000000E+00  0.00000000E+00
  0.00000000E+00  0.00000000E+00  0.00000000E+00
  0.00000000E+00  0.00000000E+00  0.00000000E+00
  0.00000000E+00  0.00000000E+00  0.00000000E+00
  0.00000000E+00  0.00000000E+00  0.00000000E+00
  0.00000000E+00  0.00000000E+00  0.00000000E+00
  0.00000000E+00  0.00000000E+00  0.00000000E+00
  0.00000000E+00  0.00000000E+00  0.00000000E+00
  0.00000000E+00  0.00000000E+00  0.00000000E+00
  0.00000000E+00  0.00000000E+00  0.00000000E+00
  0.00000000E+00  0.00000000E+00  0.00000000E+00
  0.00000000E+00  0.00000000E+00  0.00000000E+00
  0.00000000E+00  0.00000000E+00  0.00000000E+00
  0.00000000E+00  0.00000000E+00  0.00000000E+00
  0.00000000E+00  0.00000000E+00  0.00000000E+00
  0.00000000E+00  0.00000000E+00  0.00000000E+00
  0.00000000E+00  0.00000000E+00  0.00000000E+00
  0.00000000E+00  0.00000000E+00  0.00000000E+00
  0.00000000E+00  0.00000000E+00  0.00000000E+00
  0.00000000E+00  0.00000000E+00  0.00000000E+00
  0.00000000E+00  0.00000000E+00  0.00000000E+00
  0.00000000E+00  0.00000000E+00  0.00000000E+00
  0.00000000E+00  0.00000000E+00  0.00000000E+00
  0.00000000E+00  0.00000000E+00  0.00000000E+00
  0.00000000E+00  0.00000000E+00  0.00000000E+00
  0.00000000E+00  0.00000000E+00  0.00000000E+00
  0.00000000E+00  0.00000000E+00  0.00000000E+00
  0.00000000E+00  0.00000000E+00  0.00000000E+00
  0.00000000E+00  0.00000000E+00  0.00000000E+00
  0.00000000E+00  0.00000000E+00  0.00000000E+00
  0.00000000E+00  0.00000000E+00  0.00000000E+00
  0.00000000E+00  0.00000000E+00  0.00000000E+00
  0.00000000E+00  0.00000000E+00  0.00000000E+00
  0.00000000E+00  0.00000000E+00  0.00000000E+00
  0.00000000E+00  0.00000000E+00  0.00000000E+00
  0.00000000E+00  0.00000000E+00  0.00000000E+00
  0.00000000E+00  0.00000000E+00  0.00000000E+00
  0.00000000E+00  0.00000000E+00  0.00000000E+00
  0.00000000E+00  0.00000000E+00  0.00000000E+00
  0.00000000E+00  0.00000000E+00  0.00000000E+00
  0.00000000E+00  0.00000000E+00  0.00000000E+00
  0.00000000E+00  0.00000000E+00  0.00000000E+00
  0.00000000E+00  0.00000000E+00  0.00000000E+00
  0.00000000E+00  0.00000000E+00  0.00000000E+00
  0.00000000E+00  0.00000000E+00  0.00000000E+00
  0.00000000E+00  0.00000000E+00  0.00000000E+00
