SrTiFeO                                 
   1.00000000000000     
    11.1989999999999998    0.0000000000000000    0.0000000000000000
     0.0000000000000000   11.1989999999999998    0.0000000000000000
     0.0000000000000000    0.0000000000000000   15.9830000000000005
   Sr   Ti   Fe   O 
    32    30     2    94
Direct
  0.9997647707371570  0.2494455930550341  0.1247272502308823
  0.0009197492359984  0.2492628368035910  0.6262616261647558
  0.9982828831282518  0.7509605994625229  0.1255289415627761
  0.9992851490475935  0.7494268784128590  0.6259087672717011
  0.4993558600752342  0.2468685998410318  0.1226942328591340
  0.5002387017542920  0.2433790778938935  0.6289137868103855
  0.5010596498167466  0.7528558306884429  0.1229109001367940
  0.5014068719512776  0.7513685280770144  0.6299047800745816
  0.0003355691914593  0.2485811563020743  0.3748548590548031
  0.0001844476906220  0.2491714537251844  0.8742375869573057
  0.9996840667736183  0.7494020265336498  0.3764063645414957
  0.9989225312621567  0.7507070553541116  0.8737156428795280
  0.5009466437747138  0.2387312402671147  0.3751226763527098
  0.4996627871056198  0.2540298690381870  0.8720771644120145
  0.4994776441256034  0.7622262270752935  0.3719834146233753
  0.4999708297450650  0.7480107208113407  0.8745908215676675
  0.2494770437056182  0.9998942920560897  0.1249517262668702
  0.2495185860931508  0.9989144010130884  0.6261350150497036
  0.2468115249120709  0.5003400537342257  0.1226281736235924
  0.2434093463876952  0.4995929732761973  0.6297524196814247
  0.7496730979190442  0.9987816352039148  0.1249059729982179
  0.7510234640108844  0.0016530111135861  0.6263934597718533
  0.7523914301833197  0.5004374267280851  0.1228127775607570
  0.7561137084389959  0.4979947255943300  0.6313456322530410
  0.2486902352734652  0.9997255932458162  0.3746106029133622
  0.2490796075137770  0.9996982975504174  0.8742623084758209
  0.2370037530688873  0.5001556437460081  0.3735027879151720
  0.2537571987787534  0.4997699853676163  0.8728075296495501
  0.7514654975799134  0.0015656504691930  0.3744637449520379
  0.7509724321584557  0.9995657844124121  0.8745602791459089
  0.7626994732805350  0.4977121270834242  0.3731552077643909
  0.7454291033752766  0.5021727320524572  0.8727564090771376
  0.9996283187691816  0.9996126075978171  0.0006400147213525
  0.0016235586708296  0.0009324489701499  0.5006099797539948
  0.9998265279916528  0.4999278144353272  0.9992254035490008
  0.9986604161824988  0.5005334286747752  0.5010806430010839
  0.5000246409473683  0.0001431223144173  0.9991221867976183
  0.5007091432706803  0.9976086609919297  0.5009979786362762
  0.4992708709308099  0.4995637997528980  0.9948236281807220
  0.2504721771798425  0.2504705142684712  0.9998271839823272
  0.2479341033229932  0.2471780945701917  0.4995341713886641
  0.2500052807281672  0.7495208000376536  0.9998386630173993
  0.2507655635340260  0.7505235042202639  0.4993989590240376
  0.7496926557923501  0.2504503795550787  0.9996512129699071
  0.7513886084216347  0.2504324061520932  0.4991745387198955
  0.7502648576223512  0.7501738346600216  0.9996710000347137
  0.2498041216605100  0.2498201241089859  0.2507427136628921
  0.2523301882893441  0.2506603343950918  0.7497934590090397
  0.2493470433985298  0.7499869883826924  0.2504385523514720
  0.2516830421412561  0.7476189994735930  0.7499725057090710
  0.7498064001146675  0.2495117778935578  0.2501527352349477
  0.7483992829034964  0.2515064386645879  0.7504596662285569
  0.7489012174402173  0.7488127854856377  0.2528799414678880
  0.7478785507506710  0.7493147475438215  0.7485510324237459
  0.9999328543297082  0.9999290008400683  0.2498274981519842
  0.0003206267150172  0.9997075847770055  0.7493992143482625
  0.9997311393730945  0.4998611754438325  0.2484805360212975
  0.0000827109680824  0.4998259014057863  0.7515807870144180
  0.4997929085486107  0.0003469383275687  0.2489455050285447
  0.5001901438181844  0.9991527091838821  0.7507945237737758
  0.4994179465793975  0.4995456835119836  0.2419425909246712
  0.4906948110841893  0.4941141108354461  0.5043413954995036
  0.5017674130068732  0.5013291033721482  0.7477386345985015
  0.7586914192639124  0.7630253588304711  0.5007144743832364
  0.1099347578488727  0.1396354808325911  0.2464553539541806
  0.1092531322629253  0.1394649664316146  0.7498437784452083
  0.1103537587666047  0.6388241172150970  0.2503636914046474
  0.1087646402716207  0.6405426643303731  0.7489914347918686
  0.6098708099607043  0.1399200190502869  0.2489258100628897
  0.6087259309246622  0.1400776667932938  0.7507292491935232
  0.6064668287771552  0.6364115163093390  0.2559846035053122
  0.3912873795229984  0.3638347951683640  0.2632556037131797
  0.3866553451195950  0.3528379559939845  0.7448753837031971
  0.3889256449713522  0.8607737064673596  0.2487532759414136
  0.3914547023979076  0.8595269237678889  0.7506767698275997
  0.8884529996235899  0.3611592634487961  0.2511917000810038
  0.8912671691046107  0.3593842840450102  0.7483988085940170
  0.8881161628941451  0.8589408818801855  0.2548251191802561
  0.8913753982715095  0.8606148200183584  0.7467137481021140
  0.3609848713324098  0.1109723290548537  0.2501068799199459
  0.3586015836092152  0.1070187006016639  0.7492499192239956
  0.3631665462953202  0.6081093429406333  0.2611690554261405
  0.3550604616906371  0.6121456250170002  0.7479204785947964
  0.8595694315663749  0.1097467835101778  0.2476045711157903
  0.8599334722149630  0.1098750355299830  0.7483466119897921
  0.8599496053771588  0.6095298190367362  0.2489117366275796
  0.8614703014943729  0.6094918849061980  0.7514753430576248
  0.1393000202567192  0.3895111023707016  0.2487433893816453
  0.1394668382420786  0.3902320329795199  0.7512937419428458
  0.1393102887891842  0.8892500936454436  0.2479460680977546
  0.1404387040622980  0.8900772331054371  0.7487982918895006
  0.6362212328556274  0.3918083492434986  0.2607311904811922
  0.6386721265887007  0.8890431233132099  0.2521811330070447
  0.6422005832289686  0.8939914200526283  0.7489100608088383
  0.3578870690673857  0.3907322845642207  0.0015605981988686
  0.3591909646994706  0.8905429974044305  0.0012913252389636
  0.3582138790272589  0.8916209016003258  0.4991229241791277
  0.8589270047124418  0.3911386718224098  0.9997538243309825
  0.8616098354885010  0.3882702505010420  0.5003452913872318
  0.8595042466497134  0.8907845338829775  0.0032600077294828
  0.8608935498395960  0.8959191706833450  0.4986704266473073
  0.1403680248813473  0.1096243966835437  0.0028106205560597
  0.1415947172875628  0.1077643476608894  0.5005503437690194
  0.1409245207650459  0.6085157087451540  0.9998350382429960
  0.1397799399893928  0.6100855200136210  0.4999510488414930
  0.6409417345055818  0.1093212142574859  0.0015315638853888
  0.6384291177230593  0.1123895079285934  0.4989169952801686
  0.6406694655322521  0.6095150511201347  0.0011724084154746
  0.1090067811090122  0.3587202329647832  0.0014215927530046
  0.1096683996733376  0.3597096795561049  0.4989183910436601
  0.1098770953251202  0.8588686184861675  0.0021304382918728
  0.1085280016397743  0.8586165816096512  0.5006072296823784
  0.6089884103528183  0.3586963417694701  0.0009912877961193
  0.6091767940332059  0.8595113769323616  0.0003141479102105
  0.6063498762121630  0.8558094361537011  0.5006021726239178
  0.3910795606991597  0.1405695877986132  0.9999942765570539
  0.3904767677663214  0.1409037732253584  0.5004257097400081
  0.3908524534230012  0.6410836921601129  0.0015656362086676
  0.3968252998432400  0.6411391882810540  0.4872945104834430
  0.8903892311373943  0.1408203572501541  0.0024619578316427
  0.8911126539720610  0.1417826440917932  0.5010780661828125
  0.8909433038764765  0.6406133564669168  0.0019546348069430
  0.9980275842230599  0.9968793319614112  0.1258715220977521
  0.0011517326451262  0.0012246143713426  0.6240965361273779
  0.9996462496927601  0.4992248426740312  0.1249155302381667
  0.0020807918318648  0.4999835126847317  0.6253073525283864
  0.5005528550011797  0.9995555947667940  0.1250949354509837
  0.5000291786539856  0.0014965443483047  0.6250240739025525
  0.4973229521836054  0.4968172701818160  0.1267935378439690
  0.0023910889775425  0.0030928591386897  0.3744880283558014
  0.9992739767092784  0.9990248627285874  0.8761190616395499
  0.0001141098617325  0.5003147976114727  0.3745412114197968
  0.0000875632257451  0.4995899058573495  0.8755936699523912
  0.4995048957184646  0.0007063810003982  0.3747554085456288
  0.5000661979713936  0.9995278254183267  0.8754658273879806
  0.4968240541154509  0.4976064635204109  0.8792086386306276
  0.2426466539726876  0.2429484781471086  0.3742035788372644
  0.2499987530322010  0.2491815143450649  0.8759765340548843
  0.2438137561039394  0.7550897308074457  0.3744616399856634
  0.2494116415888246  0.7506517127532023  0.8757795923162323
  0.7556339336348376  0.2428266422357470  0.3741456054085317
  0.7519975552809736  0.2478418985239296  0.8759525755639358
  0.7425579650823090  0.7400204284439112  0.3778254917467091
  0.7557735820705713  0.7549063489823216  0.8770950408609006
  0.2564237721337235  0.2532472887236508  0.1266976774085322
  0.2483986295590899  0.2520457875255742  0.6225439849041335
  0.2527303755080136  0.7441067021284926  0.1266062994079047
  0.2535038968915094  0.7482760493400841  0.6225657717539697
  0.7472646369101179  0.2559345320697654  0.1265622953197342
  0.7434976035273960  0.2524025691767522  0.6225769928655305
  0.7462962317004828  0.7489846340044061  0.1276393332870748
  0.6447477520764525  0.3864827523202821  0.7510138604359069
  0.6146159015264500  0.6490719541679961  0.7566977430265740
  0.6152875162775906  0.3743938382284368  0.4831703362314905
  0.3587660755809895  0.3895714992566191  0.4877322509566611
  0.7446939332504375  0.7420466798970595  0.6227018836601789
  0.8815784851620450  0.6337691534511195  0.4998119240620952
  0.5287764889187793  0.5227904338673548  0.6148247908984005
 
  0.00000000E+00  0.00000000E+00  0.00000000E+00
  0.00000000E+00  0.00000000E+00  0.00000000E+00
  0.00000000E+00  0.00000000E+00  0.00000000E+00
  0.00000000E+00  0.00000000E+00  0.00000000E+00
  0.00000000E+00  0.00000000E+00  0.00000000E+00
  0.00000000E+00  0.00000000E+00  0.00000000E+00
  0.00000000E+00  0.00000000E+00  0.00000000E+00
  0.00000000E+00  0.00000000E+00  0.00000000E+00
  0.00000000E+00  0.00000000E+00  0.00000000E+00
  0.00000000E+00  0.00000000E+00  0.00000000E+00
  0.00000000E+00  0.00000000E+00  0.00000000E+00
  0.00000000E+00  0.00000000E+00  0.00000000E+00
  0.00000000E+00  0.00000000E+00  0.00000000E+00
  0.00000000E+00  0.00000000E+00  0.00000000E+00
  0.00000000E+00  0.00000000E+00  0.00000000E+00
  0.00000000E+00  0.00000000E+00  0.00000000E+00
  0.00000000E+00  0.00000000E+00  0.00000000E+00
  0.00000000E+00  0.00000000E+00  0.00000000E+00
  0.00000000E+00  0.00000000E+00  0.00000000E+00
  0.00000000E+00  0.00000000E+00  0.00000000E+00
  0.00000000E+00  0.00000000E+00  0.00000000E+00
  0.00000000E+00  0.00000000E+00  0.00000000E+00
  0.00000000E+00  0.00000000E+00  0.00000000E+00
  0.00000000E+00  0.00000000E+00  0.00000000E+00
  0.00000000E+00  0.00000000E+00  0.00000000E+00
  0.00000000E+00  0.00000000E+00  0.00000000E+00
  0.00000000E+00  0.00000000E+00  0.00000000E+00
  0.00000000E+00  0.00000000E+00  0.00000000E+00
  0.00000000E+00  0.00000000E+00  0.00000000E+00
  0.00000000E+00  0.00000000E+00  0.00000000E+00
  0.00000000E+00  0.00000000E+00  0.00000000E+00
  0.00000000E+00  0.00000000E+00  0.00000000E+00
  0.00000000E+00  0.00000000E+00  0.00000000E+00
  0.00000000E+00  0.00000000E+00  0.00000000E+00
  0.00000000E+00  0.00000000E+00  0.00000000E+00
  0.00000000E+00  0.00000000E+00  0.00000000E+00
  0.00000000E+00  0.00000000E+00  0.00000000E+00
  0.00000000E+00  0.00000000E+00  0.00000000E+00
  0.00000000E+00  0.00000000E+00  0.00000000E+00
  0.00000000E+00  0.00000000E+00  0.00000000E+00
  0.00000000E+00  0.00000000E+00  0.00000000E+00
  0.00000000E+00  0.00000000E+00  0.00000000E+00
  0.00000000E+00  0.00000000E+00  0.00000000E+00
  0.00000000E+00  0.00000000E+00  0.00000000E+00
  0.00000000E+00  0.00000000E+00  0.00000000E+00
  0.00000000E+00  0.00000000E+00  0.00000000E+00
  0.00000000E+00  0.00000000E+00  0.00000000E+00
  0.00000000E+00  0.00000000E+00  0.00000000E+00
  0.00000000E+00  0.00000000E+00  0.00000000E+00
  0.00000000E+00  0.00000000E+00  0.00000000E+00
  0.00000000E+00  0.00000000E+00  0.00000000E+00
  0.00000000E+00  0.00000000E+00  0.00000000E+00
  0.00000000E+00  0.00000000E+00  0.00000000E+00
  0.00000000E+00  0.00000000E+00  0.00000000E+00
  0.00000000E+00  0.00000000E+00  0.00000000E+00
  0.00000000E+00  0.00000000E+00  0.00000000E+00
  0.00000000E+00  0.00000000E+00  0.00000000E+00
  0.00000000E+00  0.00000000E+00  0.00000000E+00
  0.00000000E+00  0.00000000E+00  0.00000000E+00
  0.00000000E+00  0.00000000E+00  0.00000000E+00
  0.00000000E+00  0.00000000E+00  0.00000000E+00
  0.00000000E+00  0.00000000E+00  0.00000000E+00
  0.00000000E+00  0.00000000E+00  0.00000000E+00
  0.00000000E+00  0.00000000E+00  0.00000000E+00
  0.00000000E+00  0.00000000E+00  0.00000000E+00
  0.00000000E+00  0.00000000E+00  0.00000000E+00
  0.00000000E+00  0.00000000E+00  0.00000000E+00
  0.00000000E+00  0.00000000E+00  0.00000000E+00
  0.00000000E+00  0.00000000E+00  0.00000000E+00
  0.00000000E+00  0.00000000E+00  0.00000000E+00
  0.00000000E+00  0.00000000E+00  0.00000000E+00
  0.00000000E+00  0.00000000E+00  0.00000000E+00
  0.00000000E+00  0.00000000E+00  0.00000000E+00
  0.00000000E+00  0.00000000E+00  0.00000000E+00
  0.00000000E+00  0.00000000E+00  0.00000000E+00
  0.00000000E+00  0.00000000E+00  0.00000000E+00
  0.00000000E+00  0.00000000E+00  0.00000000E+00
  0.00000000E+00  0.00000000E+00  0.00000000E+00
  0.00000000E+00  0.00000000E+00  0.00000000E+00
  0.00000000E+00  0.00000000E+00  0.00000000E+00
  0.00000000E+00  0.00000000E+00  0.00000000E+00
  0.00000000E+00  0.00000000E+00  0.00000000E+00
  0.00000000E+00  0.00000000E+00  0.00000000E+00
  0.00000000E+00  0.00000000E+00  0.00000000E+00
  0.00000000E+00  0.00000000E+00  0.00000000E+00
  0.00000000E+00  0.00000000E+00  0.00000000E+00
  0.00000000E+00  0.00000000E+00  0.00000000E+00
  0.00000000E+00  0.00000000E+00  0.00000000E+00
  0.00000000E+00  0.00000000E+00  0.00000000E+00
  0.00000000E+00  0.00000000E+00  0.00000000E+00
  0.00000000E+00  0.00000000E+00  0.00000000E+00
  0.00000000E+00  0.00000000E+00  0.00000000E+00
  0.00000000E+00  0.00000000E+00  0.00000000E+00
  0.00000000E+00  0.00000000E+00  0.00000000E+00
  0.00000000E+00  0.00000000E+00  0.00000000E+00
  0.00000000E+00  0.00000000E+00  0.00000000E+00
  0.00000000E+00  0.00000000E+00  0.00000000E+00
  0.00000000E+00  0.00000000E+00  0.00000000E+00
  0.00000000E+00  0.00000000E+00  0.00000000E+00
  0.00000000E+00  0.00000000E+00  0.00000000E+00
  0.00000000E+00  0.00000000E+00  0.00000000E+00
  0.00000000E+00  0.00000000E+00  0.00000000E+00
  0.00000000E+00  0.00000000E+00  0.00000000E+00
  0.00000000E+00  0.00000000E+00  0.00000000E+00
  0.00000000E+00  0.00000000E+00  0.00000000E+00
  0.00000000E+00  0.00000000E+00  0.00000000E+00
  0.00000000E+00  0.00000000E+00  0.00000000E+00
  0.00000000E+00  0.00000000E+00  0.00000000E+00
  0.00000000E+00  0.00000000E+00  0.00000000E+00
  0.00000000E+00  0.00000000E+00  0.00000000E+00
  0.00000000E+00  0.00000000E+00  0.00000000E+00
  0.00000000E+00  0.00000000E+00  0.00000000E+00
  0.00000000E+00  0.00000000E+00  0.00000000E+00
  0.00000000E+00  0.00000000E+00  0.00000000E+00
  0.00000000E+00  0.00000000E+00  0.00000000E+00
  0.00000000E+00  0.00000000E+00  0.00000000E+00
  0.00000000E+00  0.00000000E+00  0.00000000E+00
  0.00000000E+00  0.00000000E+00  0.00000000E+00
  0.00000000E+00  0.00000000E+00  0.00000000E+00
  0.00000000E+00  0.00000000E+00  0.00000000E+00
  0.00000000E+00  0.00000000E+00  0.00000000E+00
  0.00000000E+00  0.00000000E+00  0.00000000E+00
  0.00000000E+00  0.00000000E+00  0.00000000E+00
  0.00000000E+00  0.00000000E+00  0.00000000E+00
  0.00000000E+00  0.00000000E+00  0.00000000E+00
  0.00000000E+00  0.00000000E+00  0.00000000E+00
  0.00000000E+00  0.00000000E+00  0.00000000E+00
  0.00000000E+00  0.00000000E+00  0.00000000E+00
  0.00000000E+00  0.00000000E+00  0.00000000E+00
  0.00000000E+00  0.00000000E+00  0.00000000E+00
  0.00000000E+00  0.00000000E+00  0.00000000E+00
  0.00000000E+00  0.00000000E+00  0.00000000E+00
  0.00000000E+00  0.00000000E+00  0.00000000E+00
  0.00000000E+00  0.00000000E+00  0.00000000E+00
  0.00000000E+00  0.00000000E+00  0.00000000E+00
  0.00000000E+00  0.00000000E+00  0.00000000E+00
  0.00000000E+00  0.00000000E+00  0.00000000E+00
  0.00000000E+00  0.00000000E+00  0.00000000E+00
  0.00000000E+00  0.00000000E+00  0.00000000E+00
  0.00000000E+00  0.00000000E+00  0.00000000E+00
  0.00000000E+00  0.00000000E+00  0.00000000E+00
  0.00000000E+00  0.00000000E+00  0.00000000E+00
  0.00000000E+00  0.00000000E+00  0.00000000E+00
  0.00000000E+00  0.00000000E+00  0.00000000E+00
  0.00000000E+00  0.00000000E+00  0.00000000E+00
  0.00000000E+00  0.00000000E+00  0.00000000E+00
  0.00000000E+00  0.00000000E+00  0.00000000E+00
  0.00000000E+00  0.00000000E+00  0.00000000E+00
  0.00000000E+00  0.00000000E+00  0.00000000E+00
  0.00000000E+00  0.00000000E+00  0.00000000E+00
  0.00000000E+00  0.00000000E+00  0.00000000E+00
  0.00000000E+00  0.00000000E+00  0.00000000E+00
  0.00000000E+00  0.00000000E+00  0.00000000E+00
  0.00000000E+00  0.00000000E+00  0.00000000E+00
  0.00000000E+00  0.00000000E+00  0.00000000E+00
  0.00000000E+00  0.00000000E+00  0.00000000E+00
  0.00000000E+00  0.00000000E+00  0.00000000E+00
  0.00000000E+00  0.00000000E+00  0.00000000E+00
