SrTiFeO                                 
   1.00000000000000     
    11.1989999999999998    0.0000000000000000    0.0000000000000000
     0.0000000000000000   11.1989999999999998    0.0000000000000000
     0.0000000000000000    0.0000000000000000   15.9830000000000005
   Sr   Ti   Fe   O 
    32    30     2    94
Direct
  0.9995801545483564  0.2498041349395604  0.1249690316254431
  0.0001672528905757  0.2479456565752120  0.6254456586822925
  0.9994345296620405  0.7501846154340106  0.1250718758883299
  0.9974531616960058  0.7521236513086551  0.6246878186019063
  0.4993841420917527  0.2462992292742861  0.1232230621780523
  0.5004337463822862  0.2403394875584741  0.6259198641031489
  0.5012905461238552  0.7535472376672820  0.1235028441231019
  0.5018300976569149  0.7590926916160422  0.6252402039992317
  0.9998865909880768  0.2484730868077189  0.3757303594905526
  0.9999175914958276  0.2498093648728547  0.8738835591698333
  0.9977558129995754  0.7516182175368967  0.3766816336066156
  0.9996135348252809  0.7502262965374381  0.8737879757537776
  0.5013205449170847  0.2384532943217444  0.3757919518885001
  0.4994468619194501  0.2529654160080409  0.8722076816013835
  0.5007683346124490  0.7607912926811733  0.3765492254308084
  0.5014737548222848  0.7468845826049864  0.8718657736978945
  0.2495587457090375  0.9999721290427293  0.1249243979595801
  0.2479035367157638  0.9998507983398038  0.6254113729622482
  0.2464006482029778  0.5007664719535508  0.1232442859373679
  0.2403742905572049  0.4989876462349913  0.6259463623275293
  0.7503488008361332  0.9991433598179299  0.1251078444610919
  0.7519905431341525  0.9978350538290353  0.6246857769247560
  0.7534417543825401  0.5000642459542637  0.1234447517413479
  0.7591498686562320  0.5033803400775970  0.6249267634094656
  0.2483983124512161  0.9999727272551834  0.3758351454069376
  0.2496581632583333  0.9999778064328132  0.8739021895350764
  0.2383932945645498  0.4979147940563556  0.3757702613771023
  0.2531697323959965  0.5007328408307081  0.8722282688715167
  0.7513701885924513  0.9976315311490869  0.3767126716222624
  0.7504750868110273  0.9994502589530111  0.8736741953807290
  0.7609005595414859  0.5042782552878075  0.3765833726666431
  0.7466179989443161  0.5000423314203886  0.8719370249213610
  0.9999524762730266  0.0001329489663139  0.0000510509629618
  0.9983735556990651  0.9986892087354530  0.5000953310550841
  0.9999595948811343  0.5000341979373091  0.9990838535038727
  0.9988693631991171  0.5013107704711136  0.5004509046026305
  0.4999739186844326  0.9999186885317231  0.9990784518773496
  0.5011585533115733  0.9986411542877677  0.5004566172734134
  0.4999565960633460  0.5000047512153935  0.9951330391159366
  0.2508398081022448  0.2509970712914500  0.9995520773735604
  0.2486957835101221  0.2483730847907750  0.5001327292631035
  0.2510257319957876  0.7491884727955254  0.9995266073281802
  0.2490248159200776  0.7507733562107046  0.5002090229288200
  0.7489457070650203  0.2508858479848916  0.9995087776055550
  0.7509583676020500  0.2492283277976308  0.5001653699958197
  0.7491771056832471  0.7490313850764776  0.9995289446828880
  0.2502486609889340  0.2503024950348123  0.2507316753724213
  0.2522676306187339  0.2514649785242916  0.7489658333634605
  0.2503618645987465  0.7495466904556721  0.2512301966103632
  0.2515989647858209  0.7477337259713279  0.7484880388142063
  0.7494662117743522  0.2503287650919004  0.2511832161828019
  0.7483927361391304  0.2522516884391358  0.7484706589441094
  0.7497422395615708  0.7498078880558351  0.2524111740786360
  0.7480807919384442  0.7483551770790221  0.7471639656268481
  0.9999868091972652  0.9999898608618918  0.2499288015510810
  0.0000525203873135  0.0000125747017369  0.7502482067727432
  0.9998023358043223  0.4999767558935643  0.2492744550077509
  0.9999808134864770  0.4998853707026750  0.7507144757186697
  0.4998946565342722  0.9998468157151361  0.2492927862065408
  0.5000810772207306  0.9998165963474762  0.7507282678471233
  0.4999162360020854  0.4998390934608075  0.2420051467245488
  0.5002710148307861  0.5002553279094922  0.5023446773965351
  0.5000313154438383  0.4999280908933754  0.7436646132019569
  0.7504206795687095  0.7506042870774872  0.5002206566043766
  0.1104971627645936  0.1409608369358744  0.2489947408243186
  0.1106768769617816  0.1398025704779879  0.7512868029177685
  0.1105847364975074  0.6395016466764860  0.2511800650039049
  0.1095035216937526  0.6398468391405757  0.7490674818635076
  0.6092796232076608  0.1406136984287826  0.2491302256120161
  0.6098124861651695  0.1394411834426205  0.7506475778471015
  0.6065184468777305  0.6366407676916996  0.2609686468439408
  0.3931524263283892  0.3630181833979667  0.2616291317266832
  0.3889544701480290  0.3585019264689651  0.7409897578081321
  0.3906252710835153  0.8593036622463113  0.2497618514428091
  0.3902290020117888  0.8604844398381012  0.7500485406343246
  0.8893731898021732  0.3603623372009273  0.2507300196909370
  0.8905304901086856  0.3600273903356555  0.7496437905292531
  0.8901014430645899  0.8598865138423405  0.2486306597539686
  0.8899741080162084  0.8610316019820456  0.7517281398933128
  0.3602445014438255  0.1105512174448700  0.2506594162840076
  0.3601741457187084  0.1096879054476437  0.7497060703043782
  0.3630032986453651  0.6065005859991861  0.2616815704883907
  0.3582561581650772  0.6109673890512259  0.7409454218999145
  0.8592640312841228  0.1105348845183231  0.2495516082643231
  0.8605621795444344  0.1105837526769939  0.7507039944568884
  0.8599968732163153  0.6093688608759408  0.2488778491087906
  0.8610356023995375  0.6095466827328291  0.7508425899489883
  0.1404752270863857  0.3903605607400469  0.2489194976796246
  0.1395867991169730  0.3901198508472273  0.7508913682272554
  0.1410217726172039  0.8897152408117401  0.2492220801137049
  0.1397990700573833  0.8897219273942266  0.7511213291124890
  0.6368212583057239  0.3932952491965612  0.2621164544556582
  0.6392115544127446  0.8898581805516195  0.2504368171115746
  0.6394322058320857  0.8905984266584909  0.7499162495755627
  0.3580550658315851  0.3922130384993095  0.0016488350527055
  0.3586981762278507  0.8909870164171865  0.0009536851825773
  0.3603729274168351  0.8896929176243781  0.4996056068216421
  0.8587086851273020  0.3913249080406841  0.9997848963748653
  0.8599993476351147  0.3893330861232737  0.4999095026555422
  0.8591001432322958  0.8899937140328388  0.0010751886023896
  0.8624039305771668  0.8919355825021745  0.4993057408358898
  0.1413412861751586  0.1104665260057017  0.0010426039312875
  0.1402300209759616  0.1094630001934835  0.4991789803623022
  0.1412998315896548  0.6087843032932818  0.9997783065008895
  0.1401281050882321  0.6099739885543063  0.4999856946913763
  0.6410346088718627  0.1090563207982758  0.0009791628650734
  0.6391232617850743  0.1110844258941047  0.4995082954060885
  0.6415397758722562  0.6077464935040092  0.0016381689918281
  0.1090894372046941  0.3588748874902855  0.0009494386260968
  0.1106684840226459  0.3605908806317109  0.4994633611636299
  0.1103529375743274  0.8588576922181643  0.0011503655418849
  0.1100734323263164  0.8602238731583312  0.4991939252860910
  0.6077920721258517  0.3580551214386951  0.0015720615894050
  0.6085388164687705  0.8590166876016003  0.9997545081948542
  0.6093111278971022  0.8625600185142855  0.4999983197790055
  0.3912958817029016  0.1413450993971688  0.9997368394333456
  0.3895705850519053  0.1399309848181324  0.4999367796826050
  0.3920889261853169  0.6418369492457490  0.0016861461904799
  0.3916721476637658  0.6375422175951645  0.5001981753875391
  0.8896402119151595  0.1414027204411281  0.0010949559588622
  0.8909068767870583  0.1405127186137719  0.4991535406470657
  0.8910823973336153  0.6408968502825179  0.0009738898155363
  0.0003436392716121  0.0007392413207004  0.1250354962904499
  0.0009173067467165  0.0005850562290438  0.6251583273577520
  0.0003918923053672  0.4998617804902379  0.1248586185793094
  0.0004609076099888  0.4988858770216161  0.6252512286271635
  0.4993675965933864  0.0000384485199332  0.1248843549722485
  0.4995165682426282  0.0007866417556200  0.6252489258958522
  0.4998472824733864  0.4993480833688679  0.1271607128666136
  0.0008622621460272  0.0005602812977635  0.3737145094701782
  0.0002800503656439  0.0005452242500344  0.8766267020807612
  0.0003911462291625  0.4990790322782471  0.3744925091062566
  0.0004253533523070  0.4999179709991557  0.8753389726478286
  0.4994917073552484  0.0006055829283681  0.3745186341191876
  0.4994723764193622  0.0000774659552607  0.8753151366020828
  0.4997760103440554  0.4997322229698047  0.8786372849286029
  0.2478193847969650  0.2494179809619000  0.3754478625441502
  0.2535423836464269  0.2528056546777316  0.8749458109731830
  0.2494099319387228  0.7520102047402387  0.3758907100161786
  0.2527378160266904  0.7466994795294425  0.8747714068729555
  0.7505162897459844  0.2477310698303887  0.3758222597848699
  0.7471785066842247  0.2533553099273796  0.8747711728812100
  0.7527152161348775  0.7510347847385002  0.3741252805501196
  0.7470071420739895  0.7474120139452111  0.8752706874077394
  0.2558296522850222  0.2532835992087975  0.1266074902202299
  0.2462187410730052  0.2481647417133206  0.6237254054616262
  0.2533139425569332  0.7443787075326211  0.1268958546838721
  0.2479385527989345  0.7537041211047629  0.6233681099752197
  0.7466220713779927  0.2557113814754404  0.1268309437571351
  0.7519706931414002  0.2459800001900046  0.6233618230922204
  0.7445797477843735  0.7470037499193272  0.1264278688305755
  0.6415840278872880  0.3888717940336098  0.7404260586783499
  0.6108590982487879  0.6410595128135185  0.7417459064609473
  0.6071403591461311  0.3616975772938585  0.5002412756035886
  0.3621905629678617  0.3923114664319082  0.5000696957889876
  0.7543693566454160  0.7523543324834289  0.6251341452143367
  0.8908232438063576  0.6371731897196377  0.4996604211307638
  0.6358566272774883  0.6068257876735178  0.4999988425938515
 
  0.00000000E+00  0.00000000E+00  0.00000000E+00
  0.00000000E+00  0.00000000E+00  0.00000000E+00
  0.00000000E+00  0.00000000E+00  0.00000000E+00
  0.00000000E+00  0.00000000E+00  0.00000000E+00
  0.00000000E+00  0.00000000E+00  0.00000000E+00
  0.00000000E+00  0.00000000E+00  0.00000000E+00
  0.00000000E+00  0.00000000E+00  0.00000000E+00
  0.00000000E+00  0.00000000E+00  0.00000000E+00
  0.00000000E+00  0.00000000E+00  0.00000000E+00
  0.00000000E+00  0.00000000E+00  0.00000000E+00
  0.00000000E+00  0.00000000E+00  0.00000000E+00
  0.00000000E+00  0.00000000E+00  0.00000000E+00
  0.00000000E+00  0.00000000E+00  0.00000000E+00
  0.00000000E+00  0.00000000E+00  0.00000000E+00
  0.00000000E+00  0.00000000E+00  0.00000000E+00
  0.00000000E+00  0.00000000E+00  0.00000000E+00
  0.00000000E+00  0.00000000E+00  0.00000000E+00
  0.00000000E+00  0.00000000E+00  0.00000000E+00
  0.00000000E+00  0.00000000E+00  0.00000000E+00
  0.00000000E+00  0.00000000E+00  0.00000000E+00
  0.00000000E+00  0.00000000E+00  0.00000000E+00
  0.00000000E+00  0.00000000E+00  0.00000000E+00
  0.00000000E+00  0.00000000E+00  0.00000000E+00
  0.00000000E+00  0.00000000E+00  0.00000000E+00
  0.00000000E+00  0.00000000E+00  0.00000000E+00
  0.00000000E+00  0.00000000E+00  0.00000000E+00
  0.00000000E+00  0.00000000E+00  0.00000000E+00
  0.00000000E+00  0.00000000E+00  0.00000000E+00
  0.00000000E+00  0.00000000E+00  0.00000000E+00
  0.00000000E+00  0.00000000E+00  0.00000000E+00
  0.00000000E+00  0.00000000E+00  0.00000000E+00
  0.00000000E+00  0.00000000E+00  0.00000000E+00
  0.00000000E+00  0.00000000E+00  0.00000000E+00
  0.00000000E+00  0.00000000E+00  0.00000000E+00
  0.00000000E+00  0.00000000E+00  0.00000000E+00
  0.00000000E+00  0.00000000E+00  0.00000000E+00
  0.00000000E+00  0.00000000E+00  0.00000000E+00
  0.00000000E+00  0.00000000E+00  0.00000000E+00
  0.00000000E+00  0.00000000E+00  0.00000000E+00
  0.00000000E+00  0.00000000E+00  0.00000000E+00
  0.00000000E+00  0.00000000E+00  0.00000000E+00
  0.00000000E+00  0.00000000E+00  0.00000000E+00
  0.00000000E+00  0.00000000E+00  0.00000000E+00
  0.00000000E+00  0.00000000E+00  0.00000000E+00
  0.00000000E+00  0.00000000E+00  0.00000000E+00
  0.00000000E+00  0.00000000E+00  0.00000000E+00
  0.00000000E+00  0.00000000E+00  0.00000000E+00
  0.00000000E+00  0.00000000E+00  0.00000000E+00
  0.00000000E+00  0.00000000E+00  0.00000000E+00
  0.00000000E+00  0.00000000E+00  0.00000000E+00
  0.00000000E+00  0.00000000E+00  0.00000000E+00
  0.00000000E+00  0.00000000E+00  0.00000000E+00
  0.00000000E+00  0.00000000E+00  0.00000000E+00
  0.00000000E+00  0.00000000E+00  0.00000000E+00
  0.00000000E+00  0.00000000E+00  0.00000000E+00
  0.00000000E+00  0.00000000E+00  0.00000000E+00
  0.00000000E+00  0.00000000E+00  0.00000000E+00
  0.00000000E+00  0.00000000E+00  0.00000000E+00
  0.00000000E+00  0.00000000E+00  0.00000000E+00
  0.00000000E+00  0.00000000E+00  0.00000000E+00
  0.00000000E+00  0.00000000E+00  0.00000000E+00
  0.00000000E+00  0.00000000E+00  0.00000000E+00
  0.00000000E+00  0.00000000E+00  0.00000000E+00
  0.00000000E+00  0.00000000E+00  0.00000000E+00
  0.00000000E+00  0.00000000E+00  0.00000000E+00
  0.00000000E+00  0.00000000E+00  0.00000000E+00
  0.00000000E+00  0.00000000E+00  0.00000000E+00
  0.00000000E+00  0.00000000E+00  0.00000000E+00
  0.00000000E+00  0.00000000E+00  0.00000000E+00
  0.00000000E+00  0.00000000E+00  0.00000000E+00
  0.00000000E+00  0.00000000E+00  0.00000000E+00
  0.00000000E+00  0.00000000E+00  0.00000000E+00
  0.00000000E+00  0.00000000E+00  0.00000000E+00
  0.00000000E+00  0.00000000E+00  0.00000000E+00
  0.00000000E+00  0.00000000E+00  0.00000000E+00
  0.00000000E+00  0.00000000E+00  0.00000000E+00
  0.00000000E+00  0.00000000E+00  0.00000000E+00
  0.00000000E+00  0.00000000E+00  0.00000000E+00
  0.00000000E+00  0.00000000E+00  0.00000000E+00
  0.00000000E+00  0.00000000E+00  0.00000000E+00
  0.00000000E+00  0.00000000E+00  0.00000000E+00
  0.00000000E+00  0.00000000E+00  0.00000000E+00
  0.00000000E+00  0.00000000E+00  0.00000000E+00
  0.00000000E+00  0.00000000E+00  0.00000000E+00
  0.00000000E+00  0.00000000E+00  0.00000000E+00
  0.00000000E+00  0.00000000E+00  0.00000000E+00
  0.00000000E+00  0.00000000E+00  0.00000000E+00
  0.00000000E+00  0.00000000E+00  0.00000000E+00
  0.00000000E+00  0.00000000E+00  0.00000000E+00
  0.00000000E+00  0.00000000E+00  0.00000000E+00
  0.00000000E+00  0.00000000E+00  0.00000000E+00
  0.00000000E+00  0.00000000E+00  0.00000000E+00
  0.00000000E+00  0.00000000E+00  0.00000000E+00
  0.00000000E+00  0.00000000E+00  0.00000000E+00
  0.00000000E+00  0.00000000E+00  0.00000000E+00
  0.00000000E+00  0.00000000E+00  0.00000000E+00
  0.00000000E+00  0.00000000E+00  0.00000000E+00
  0.00000000E+00  0.00000000E+00  0.00000000E+00
  0.00000000E+00  0.00000000E+00  0.00000000E+00
  0.00000000E+00  0.00000000E+00  0.00000000E+00
  0.00000000E+00  0.00000000E+00  0.00000000E+00
  0.00000000E+00  0.00000000E+00  0.00000000E+00
  0.00000000E+00  0.00000000E+00  0.00000000E+00
  0.00000000E+00  0.00000000E+00  0.00000000E+00
  0.00000000E+00  0.00000000E+00  0.00000000E+00
  0.00000000E+00  0.00000000E+00  0.00000000E+00
  0.00000000E+00  0.00000000E+00  0.00000000E+00
  0.00000000E+00  0.00000000E+00  0.00000000E+00
  0.00000000E+00  0.00000000E+00  0.00000000E+00
  0.00000000E+00  0.00000000E+00  0.00000000E+00
  0.00000000E+00  0.00000000E+00  0.00000000E+00
  0.00000000E+00  0.00000000E+00  0.00000000E+00
  0.00000000E+00  0.00000000E+00  0.00000000E+00
  0.00000000E+00  0.00000000E+00  0.00000000E+00
  0.00000000E+00  0.00000000E+00  0.00000000E+00
  0.00000000E+00  0.00000000E+00  0.00000000E+00
  0.00000000E+00  0.00000000E+00  0.00000000E+00
  0.00000000E+00  0.00000000E+00  0.00000000E+00
  0.00000000E+00  0.00000000E+00  0.00000000E+00
  0.00000000E+00  0.00000000E+00  0.00000000E+00
  0.00000000E+00  0.00000000E+00  0.00000000E+00
  0.00000000E+00  0.00000000E+00  0.00000000E+00
  0.00000000E+00  0.00000000E+00  0.00000000E+00
  0.00000000E+00  0.00000000E+00  0.00000000E+00
  0.00000000E+00  0.00000000E+00  0.00000000E+00
  0.00000000E+00  0.00000000E+00  0.00000000E+00
  0.00000000E+00  0.00000000E+00  0.00000000E+00
  0.00000000E+00  0.00000000E+00  0.00000000E+00
  0.00000000E+00  0.00000000E+00  0.00000000E+00
  0.00000000E+00  0.00000000E+00  0.00000000E+00
  0.00000000E+00  0.00000000E+00  0.00000000E+00
  0.00000000E+00  0.00000000E+00  0.00000000E+00
  0.00000000E+00  0.00000000E+00  0.00000000E+00
  0.00000000E+00  0.00000000E+00  0.00000000E+00
  0.00000000E+00  0.00000000E+00  0.00000000E+00
  0.00000000E+00  0.00000000E+00  0.00000000E+00
  0.00000000E+00  0.00000000E+00  0.00000000E+00
  0.00000000E+00  0.00000000E+00  0.00000000E+00
  0.00000000E+00  0.00000000E+00  0.00000000E+00
  0.00000000E+00  0.00000000E+00  0.00000000E+00
  0.00000000E+00  0.00000000E+00  0.00000000E+00
  0.00000000E+00  0.00000000E+00  0.00000000E+00
  0.00000000E+00  0.00000000E+00  0.00000000E+00
  0.00000000E+00  0.00000000E+00  0.00000000E+00
  0.00000000E+00  0.00000000E+00  0.00000000E+00
  0.00000000E+00  0.00000000E+00  0.00000000E+00
  0.00000000E+00  0.00000000E+00  0.00000000E+00
  0.00000000E+00  0.00000000E+00  0.00000000E+00
  0.00000000E+00  0.00000000E+00  0.00000000E+00
  0.00000000E+00  0.00000000E+00  0.00000000E+00
  0.00000000E+00  0.00000000E+00  0.00000000E+00
  0.00000000E+00  0.00000000E+00  0.00000000E+00
  0.00000000E+00  0.00000000E+00  0.00000000E+00
  0.00000000E+00  0.00000000E+00  0.00000000E+00
  0.00000000E+00  0.00000000E+00  0.00000000E+00
  0.00000000E+00  0.00000000E+00  0.00000000E+00
  0.00000000E+00  0.00000000E+00  0.00000000E+00
  0.00000000E+00  0.00000000E+00  0.00000000E+00
