Sr   Ti   O                             
   1.00000000000000     
    11.1989999999999998    0.0000000000000000    0.0000000000000000
     0.0000000000000000   11.1989999999999998    0.0000000000000000
     0.0000000000000000    0.0000000000000000   15.9830000000000005
   Sr   Ti   O 
    32    32    94
Direct
  0.9993025241360759  0.2510678491054725  0.1249144942968555
  0.0036789366231846  0.2516598419288410  0.6252170548293985
  0.9986916299404557  0.7503522345093891  0.1250525828189519
  0.0025250771501287  0.7490450681388344  0.6274469436606008
  0.4991151183439325  0.2515710185440320  0.1245756245385765
  0.4948113718899156  0.2425451857957398  0.6283216983670087
  0.4985112807319662  0.7495288560491432  0.1235100774003622
  0.5008705718706161  0.7574872752365022  0.6297055526404151
  0.0036789366231846  0.2516598419288410  0.3747829451706015
  0.9993025241360759  0.2510678491054725  0.8750855057031370
  0.0025250771501287  0.7490450681388344  0.3725530563393991
  0.9986916299404557  0.7503522345093891  0.8749474171810484
  0.4948113718899156  0.2425451857957398  0.3716783016329983
  0.4991151183439325  0.2515710185440320  0.8754243754614314
  0.5008705718706161  0.7574872752365022  0.3702944473595846
  0.4985112807319662  0.7495288560491432  0.8764899225996305
  0.2491060249204801  0.9994569414823772  0.1251844464043607
  0.2514263694166385  0.0006596161494091  0.6245607366007954
  0.2494569895637174  0.4996857493916003  0.1229950720616356
  0.2482602006387600  0.4970127189695988  0.6293718410845484
  0.7494547488488347  0.0009233569103109  0.1252459571423136
  0.7479924720424379  0.0046341876667515  0.6252368422029864
  0.7484333216052373  0.5010565027072841  0.1241711669311117
  0.7612537172895280  0.4987091215729112  0.6309571005762263
  0.2514263694166385  0.0006596161494091  0.3754392633992191
  0.2491060249204801  0.9994569414823772  0.8748155535956457
  0.2482602006387600  0.4970127189695988  0.3706281589154518
  0.2494569895637174  0.4996857493916003  0.8770049279383646
  0.7479924720424379  0.0046341876667515  0.3747631577970075
  0.7494547488488347  0.0009233569103109  0.8747540428576864
  0.7612537172895280  0.4987091215729112  0.3690428994237741
  0.7484333216052373  0.5010565027072841  0.8758288330688739
  0.9988955913222245  0.0001127028715933  0.0000000000000000
  0.0020760146462473  0.0017912250820473  0.5000000000000000
  0.9992818979581579  0.5002562775010804  0.0000000000000000
  0.0053007935742514  0.4999456629534703  0.5000000000000000
  0.4999711798690605  0.0004374773962171  0.0000000000000000
  0.5010109631617142  0.9998575388860889  0.5000000000000000
  0.4994038029885171  0.4998272329020148  0.0000000000000000
  0.2496653931217231  0.2492925229846136  0.0000000000000000
  0.2497934824601569  0.2481184448103418  0.5000000000000000
  0.2485339411216278  0.7513483976638087  0.0000000000000000
  0.2477907731380716  0.7512988622086638  0.5000000000000000
  0.7496913958866334  0.2505208945898409  0.0000000000000000
  0.7494072687910296  0.7512645621767432  0.0000000000000000
  0.2495375860423764  0.2494296968105532  0.2491868284942649
  0.2495375860423764  0.2494296968105532  0.7508131715057345
  0.2506796633741252  0.7496136638100104  0.2491710082946530
  0.2506796633741252  0.7496136638100104  0.7508289917053470
  0.7485109728214498  0.2521502726250481  0.2500788807098488
  0.7485109728214498  0.2521502726250481  0.7499211192901509
  0.7490901404914612  0.7498404369948741  0.2495573905334139
  0.7490901404914612  0.7498404369948741  0.7504426094665854
  0.9993155176510650  0.0005181277029187  0.2510282526068363
  0.9993155176510650  0.0005181277029187  0.7489717473931636
  0.0011560682987108  0.5006493462763257  0.2485009798059849
  0.0011560682987108  0.5006493462763257  0.7514990201940145
  0.5000852044901577  0.0003007261242289  0.2488444338656297
  0.5000852044901577  0.0003007261242289  0.7511555661343705
  0.4987859166149452  0.5019626312477499  0.2504123650867942
  0.4987859166149452  0.5019626312477499  0.7495876349132059
  0.7597958774009832  0.2509433136678240  0.5000000000000000
  0.4952770477703458  0.5001624340380971  0.5000000000000000
  0.7597236244459071  0.7574110958730291  0.5000000000000000
  0.1091138996625171  0.1396558322064640  0.2489608764126321
  0.1091138996625171  0.1396558322064640  0.7510391235873682
  0.1108442490750330  0.6403386429819822  0.2490522555961420
  0.1108442490750330  0.6403386429819822  0.7509477444038647
  0.6096340036471819  0.1410878789797988  0.2504852955911350
  0.6096340036471819  0.1410878789797988  0.7495147044088648
  0.6091823547364018  0.6409531015699710  0.2469881300267331
  0.6091823547364018  0.6409531015699710  0.7530118699732740
  0.3891111345163714  0.3606541225973591  0.2515391124562222
  0.3891111345163714  0.3606541225973591  0.7484608875437784
  0.3895118752541483  0.8609241544057316  0.2486742206840786
  0.3895118752541483  0.8609241544057316  0.7513257793159220
  0.8885141589526107  0.3619368011784033  0.2522934703320683
  0.8885141589526107  0.3619368011784033  0.7477065296679319
  0.8878001509122077  0.8607373896230048  0.2540631741961661
  0.8878001509122077  0.8607373896230048  0.7459368258038337
  0.3602892084545350  0.1103588553689882  0.2506618527597704
  0.3602892084545350  0.1103588553689882  0.7493381472402301
  0.3586511148286017  0.6105923136924229  0.2433323369715167
  0.3586511148286017  0.6105923136924229  0.7566676630284900
  0.8584954638773213  0.1124365769016770  0.2538019068211717
  0.8584954638773213  0.1124365769016770  0.7461980931788289
  0.8619993586608952  0.6128552344056863  0.2473842519043266
  0.8619993586608952  0.6128552344056863  0.7526157480956733
  0.1389345611169742  0.3888163020469724  0.2484836497821649
  0.1389345611169742  0.3888163020469724  0.7515163502178357
  0.1390493531433297  0.8893795543125584  0.2536492489755181
  0.1390493531433297  0.8893795543125584  0.7463507510244820
  0.6377209150907658  0.3920395276331943  0.2505091398970223
  0.6377209150907658  0.3920395276331943  0.7494908601029778
  0.6402051688345834  0.8904139022120532  0.2530086250787674
  0.6402051688345834  0.8904139022120532  0.7469913749212391
  0.3591521390560329  0.3900340933919845  0.0000000000000000
  0.3590141584217696  0.8912508624590073  0.0000000000000000
  0.3671898758536214  0.8801341719688319  0.5000000000000000
  0.8586719965591051  0.3909840412885235  0.0000000000000000
  0.8581429366058809  0.8919501025326642  0.0000000000000000
  0.8590391526402466  0.8896505309579491  0.5000000000000000
  0.1398149793693144  0.1086992003335275  0.0000000000000000
  0.1394681686645802  0.1116407605788015  0.5000000000000000
  0.1395598228637581  0.6102307833391856  0.0000000000000000
  0.1521546805501681  0.6050025198623382  0.5000000000000000
  0.6412646257780015  0.1098450571310924  0.0000000000000000
  0.6289700045213776  0.1242411534676855  0.5000000000000000
  0.6397164010873150  0.6104525491285165  0.0000000000000000
  0.1094619758061116  0.3592819777838863  0.0000000000000000
  0.1176005469863536  0.3623376147827491  0.5000000000000000
  0.1070741310353254  0.8604091359624504  0.0000000000000000
  0.1111832637947633  0.8566799951470693  0.5000000000000000
  0.6095034673514456  0.3593439216355498  0.0000000000000000
  0.6086129288828721  0.8596031173489184  0.0000000000000000
  0.6136564900805095  0.8592470681331950  0.5000000000000000
  0.3907811895667507  0.1405987819281822  0.0000000000000000
  0.3840000525229018  0.1327657025214914  0.5000000000000000
  0.3885784292403860  0.6404697869956051  0.0000000000000000
  0.8906710802989199  0.1415070189902917  0.0000000000000000
  0.8835052855875591  0.1355716693502703  0.5000000000000000
  0.8894600718645985  0.6412277347492146  0.0000000000000000
  0.9970732236549987  0.9990139417262538  0.1261768791334646
  1.0000365717403790  0.0011891125158394  0.6244983701360070
  0.9995917608161400  0.4990534777022529  0.1246243202347503
  0.0038180059084263  0.5030767225562189  0.6258601338145336
  0.5015423393336139  0.0003628724424629  0.1251786220238036
  0.4997834408798761  0.0005154798516149  0.6252496924461233
  0.4999647127453715  0.4983851874630047  0.1242783127031175
  0.4882341102962423  0.5141964532537548  0.6246606206064349
  1.0000365717403790  0.0011891125158394  0.3755016298639932
  0.9970732236549987  0.9990139417262538  0.8738231208665281
  0.0038180059084263  0.5030767225562189  0.3741398661854513
  0.9995917608161400  0.4990534777022529  0.8753756797652495
  0.4997834408798761  0.0005154798516149  0.3747503075538769
  0.5015423393336139  0.0003628724424629  0.8748213779761964
  0.4999647127453715  0.4983851874630047  0.8757216872968823
  0.2487142116010267  0.2482408525436922  0.3741684680057857
  0.2507880753340964  0.2490972545978841  0.8751423250789689
  0.2587615387557446  0.7424401211059759  0.3754912697707944
  0.2467869038066136  0.7545800086691609  0.8754863869067064
  0.7502026991235081  0.2512913916309263  0.8741015882130563
  0.7496510454458376  0.7532818584307605  0.8746575310646113
  0.2507880753340964  0.2490972545978841  0.1248576749210238
  0.2487142116010267  0.2482408525436922  0.6258315319942138
  0.2467869038066136  0.7545800086691609  0.1245136130932937
  0.2587615387557446  0.7424401211059759  0.6245087302292065
  0.7502026991235081  0.2512913916309263  0.1258984117869441
  0.7399914820119080  0.2598332343892629  0.6226813808302254
  0.7496510454458376  0.7532818584307605  0.1253424689353888
  0.7427200044001093  0.7376593499927206  0.6221612533955723
  0.7399914820119080  0.2598332343892629  0.3773186191697748
  0.8777827190690918  0.3821797758346284  0.5000000000000000
  0.4882341102962423  0.5141964532537548  0.3753393793935650
  0.3669151375080065  0.3828811590751895  0.5000000000000000
  0.8926659265601339  0.6400382021540908  0.5000000000000000
  0.7427200044001093  0.7376593499927206  0.3778387466044207
  0.6586056471882182  0.4812414945146335  0.5000000000000000
 
  0.00000000E+00  0.00000000E+00  0.00000000E+00
  0.00000000E+00  0.00000000E+00  0.00000000E+00
  0.00000000E+00  0.00000000E+00  0.00000000E+00
  0.00000000E+00  0.00000000E+00  0.00000000E+00
  0.00000000E+00  0.00000000E+00  0.00000000E+00
  0.00000000E+00  0.00000000E+00  0.00000000E+00
  0.00000000E+00  0.00000000E+00  0.00000000E+00
  0.00000000E+00  0.00000000E+00  0.00000000E+00
  0.00000000E+00  0.00000000E+00  0.00000000E+00
  0.00000000E+00  0.00000000E+00  0.00000000E+00
  0.00000000E+00  0.00000000E+00  0.00000000E+00
  0.00000000E+00  0.00000000E+00  0.00000000E+00
  0.00000000E+00  0.00000000E+00  0.00000000E+00
  0.00000000E+00  0.00000000E+00  0.00000000E+00
  0.00000000E+00  0.00000000E+00  0.00000000E+00
  0.00000000E+00  0.00000000E+00  0.00000000E+00
  0.00000000E+00  0.00000000E+00  0.00000000E+00
  0.00000000E+00  0.00000000E+00  0.00000000E+00
  0.00000000E+00  0.00000000E+00  0.00000000E+00
  0.00000000E+00  0.00000000E+00  0.00000000E+00
  0.00000000E+00  0.00000000E+00  0.00000000E+00
  0.00000000E+00  0.00000000E+00  0.00000000E+00
  0.00000000E+00  0.00000000E+00  0.00000000E+00
  0.00000000E+00  0.00000000E+00  0.00000000E+00
  0.00000000E+00  0.00000000E+00  0.00000000E+00
  0.00000000E+00  0.00000000E+00  0.00000000E+00
  0.00000000E+00  0.00000000E+00  0.00000000E+00
  0.00000000E+00  0.00000000E+00  0.00000000E+00
  0.00000000E+00  0.00000000E+00  0.00000000E+00
  0.00000000E+00  0.00000000E+00  0.00000000E+00
  0.00000000E+00  0.00000000E+00  0.00000000E+00
  0.00000000E+00  0.00000000E+00  0.00000000E+00
  0.00000000E+00  0.00000000E+00  0.00000000E+00
  0.00000000E+00  0.00000000E+00  0.00000000E+00
  0.00000000E+00  0.00000000E+00  0.00000000E+00
  0.00000000E+00  0.00000000E+00  0.00000000E+00
  0.00000000E+00  0.00000000E+00  0.00000000E+00
  0.00000000E+00  0.00000000E+00  0.00000000E+00
  0.00000000E+00  0.00000000E+00  0.00000000E+00
  0.00000000E+00  0.00000000E+00  0.00000000E+00
  0.00000000E+00  0.00000000E+00  0.00000000E+00
  0.00000000E+00  0.00000000E+00  0.00000000E+00
  0.00000000E+00  0.00000000E+00  0.00000000E+00
  0.00000000E+00  0.00000000E+00  0.00000000E+00
  0.00000000E+00  0.00000000E+00  0.00000000E+00
  0.00000000E+00  0.00000000E+00  0.00000000E+00
  0.00000000E+00  0.00000000E+00  0.00000000E+00
  0.00000000E+00  0.00000000E+00  0.00000000E+00
  0.00000000E+00  0.00000000E+00  0.00000000E+00
  0.00000000E+00  0.00000000E+00  0.00000000E+00
  0.00000000E+00  0.00000000E+00  0.00000000E+00
  0.00000000E+00  0.00000000E+00  0.00000000E+00
  0.00000000E+00  0.00000000E+00  0.00000000E+00
  0.00000000E+00  0.00000000E+00  0.00000000E+00
  0.00000000E+00  0.00000000E+00  0.00000000E+00
  0.00000000E+00  0.00000000E+00  0.00000000E+00
  0.00000000E+00  0.00000000E+00  0.00000000E+00
  0.00000000E+00  0.00000000E+00  0.00000000E+00
  0.00000000E+00  0.00000000E+00  0.00000000E+00
  0.00000000E+00  0.00000000E+00  0.00000000E+00
  0.00000000E+00  0.00000000E+00  0.00000000E+00
  0.00000000E+00  0.00000000E+00  0.00000000E+00
  0.00000000E+00  0.00000000E+00  0.00000000E+00
  0.00000000E+00  0.00000000E+00  0.00000000E+00
  0.00000000E+00  0.00000000E+00  0.00000000E+00
  0.00000000E+00  0.00000000E+00  0.00000000E+00
  0.00000000E+00  0.00000000E+00  0.00000000E+00
  0.00000000E+00  0.00000000E+00  0.00000000E+00
  0.00000000E+00  0.00000000E+00  0.00000000E+00
  0.00000000E+00  0.00000000E+00  0.00000000E+00
  0.00000000E+00  0.00000000E+00  0.00000000E+00
  0.00000000E+00  0.00000000E+00  0.00000000E+00
  0.00000000E+00  0.00000000E+00  0.00000000E+00
  0.00000000E+00  0.00000000E+00  0.00000000E+00
  0.00000000E+00  0.00000000E+00  0.00000000E+00
  0.00000000E+00  0.00000000E+00  0.00000000E+00
  0.00000000E+00  0.00000000E+00  0.00000000E+00
  0.00000000E+00  0.00000000E+00  0.00000000E+00
  0.00000000E+00  0.00000000E+00  0.00000000E+00
  0.00000000E+00  0.00000000E+00  0.00000000E+00
  0.00000000E+00  0.00000000E+00  0.00000000E+00
  0.00000000E+00  0.00000000E+00  0.00000000E+00
  0.00000000E+00  0.00000000E+00  0.00000000E+00
  0.00000000E+00  0.00000000E+00  0.00000000E+00
  0.00000000E+00  0.00000000E+00  0.00000000E+00
  0.00000000E+00  0.00000000E+00  0.00000000E+00
  0.00000000E+00  0.00000000E+00  0.00000000E+00
  0.00000000E+00  0.00000000E+00  0.00000000E+00
  0.00000000E+00  0.00000000E+00  0.00000000E+00
  0.00000000E+00  0.00000000E+00  0.00000000E+00
  0.00000000E+00  0.00000000E+00  0.00000000E+00
  0.00000000E+00  0.00000000E+00  0.00000000E+00
  0.00000000E+00  0.00000000E+00  0.00000000E+00
  0.00000000E+00  0.00000000E+00  0.00000000E+00
  0.00000000E+00  0.00000000E+00  0.00000000E+00
  0.00000000E+00  0.00000000E+00  0.00000000E+00
  0.00000000E+00  0.00000000E+00  0.00000000E+00
  0.00000000E+00  0.00000000E+00  0.00000000E+00
  0.00000000E+00  0.00000000E+00  0.00000000E+00
  0.00000000E+00  0.00000000E+00  0.00000000E+00
  0.00000000E+00  0.00000000E+00  0.00000000E+00
  0.00000000E+00  0.00000000E+00  0.00000000E+00
  0.00000000E+00  0.00000000E+00  0.00000000E+00
  0.00000000E+00  0.00000000E+00  0.00000000E+00
  0.00000000E+00  0.00000000E+00  0.00000000E+00
  0.00000000E+00  0.00000000E+00  0.00000000E+00
  0.00000000E+00  0.00000000E+00  0.00000000E+00
  0.00000000E+00  0.00000000E+00  0.00000000E+00
  0.00000000E+00  0.00000000E+00  0.00000000E+00
  0.00000000E+00  0.00000000E+00  0.00000000E+00
  0.00000000E+00  0.00000000E+00  0.00000000E+00
  0.00000000E+00  0.00000000E+00  0.00000000E+00
  0.00000000E+00  0.00000000E+00  0.00000000E+00
  0.00000000E+00  0.00000000E+00  0.00000000E+00
  0.00000000E+00  0.00000000E+00  0.00000000E+00
  0.00000000E+00  0.00000000E+00  0.00000000E+00
  0.00000000E+00  0.00000000E+00  0.00000000E+00
  0.00000000E+00  0.00000000E+00  0.00000000E+00
  0.00000000E+00  0.00000000E+00  0.00000000E+00
  0.00000000E+00  0.00000000E+00  0.00000000E+00
  0.00000000E+00  0.00000000E+00  0.00000000E+00
  0.00000000E+00  0.00000000E+00  0.00000000E+00
  0.00000000E+00  0.00000000E+00  0.00000000E+00
  0.00000000E+00  0.00000000E+00  0.00000000E+00
  0.00000000E+00  0.00000000E+00  0.00000000E+00
  0.00000000E+00  0.00000000E+00  0.00000000E+00
  0.00000000E+00  0.00000000E+00  0.00000000E+00
  0.00000000E+00  0.00000000E+00  0.00000000E+00
  0.00000000E+00  0.00000000E+00  0.00000000E+00
  0.00000000E+00  0.00000000E+00  0.00000000E+00
  0.00000000E+00  0.00000000E+00  0.00000000E+00
  0.00000000E+00  0.00000000E+00  0.00000000E+00
  0.00000000E+00  0.00000000E+00  0.00000000E+00
  0.00000000E+00  0.00000000E+00  0.00000000E+00
  0.00000000E+00  0.00000000E+00  0.00000000E+00
  0.00000000E+00  0.00000000E+00  0.00000000E+00
  0.00000000E+00  0.00000000E+00  0.00000000E+00
  0.00000000E+00  0.00000000E+00  0.00000000E+00
  0.00000000E+00  0.00000000E+00  0.00000000E+00
  0.00000000E+00  0.00000000E+00  0.00000000E+00
  0.00000000E+00  0.00000000E+00  0.00000000E+00
  0.00000000E+00  0.00000000E+00  0.00000000E+00
  0.00000000E+00  0.00000000E+00  0.00000000E+00
  0.00000000E+00  0.00000000E+00  0.00000000E+00
  0.00000000E+00  0.00000000E+00  0.00000000E+00
  0.00000000E+00  0.00000000E+00  0.00000000E+00
  0.00000000E+00  0.00000000E+00  0.00000000E+00
  0.00000000E+00  0.00000000E+00  0.00000000E+00
  0.00000000E+00  0.00000000E+00  0.00000000E+00
  0.00000000E+00  0.00000000E+00  0.00000000E+00
  0.00000000E+00  0.00000000E+00  0.00000000E+00
  0.00000000E+00  0.00000000E+00  0.00000000E+00
  0.00000000E+00  0.00000000E+00  0.00000000E+00
  0.00000000E+00  0.00000000E+00  0.00000000E+00
  0.00000000E+00  0.00000000E+00  0.00000000E+00
  0.00000000E+00  0.00000000E+00  0.00000000E+00
  0.00000000E+00  0.00000000E+00  0.00000000E+00
  0.00000000E+00  0.00000000E+00  0.00000000E+00
