SrTiFeO                                 
   1.00000000000000     
    11.1989999999999998    0.0000000000000000    0.0000000000000000
     0.0000000000000000   11.1989999999999998    0.0000000000000000
     0.0000000000000000    0.0000000000000000   15.9830000000000005
   Sr   Ti   O 
    32    32    94
Direct
 -0.0006090921676302  0.2501744194302718  0.1245724853489952
  0.0035230460309639  0.2497642637598399  0.6281191776136623
  0.0006090921676302  0.7498255805697283  0.1245724853489952
 -0.0035230460309639  0.7502357362401600  0.6281191776136623
  0.5002809741618867  0.2505038834452258  0.1239612693325683
  0.4955110852932993  0.2444870198512255  0.6287447048109231
  0.4997190258381133  0.7494961165547743  0.1239612693325683
  0.5044889147067007  0.7555129801487745  0.6287447048109231
  0.0035230460309639  0.2497642637598399  0.3718808223863375
 -0.0006090921676302  0.2501744194302718  0.8754275146510047
 -0.0035230460309639  0.7502357362401600  0.3718808223863375
  0.0006090921676302  0.7498255805697283  0.8754275146510047
  0.4955110852932993  0.2444870198512255  0.3712552951890766
  0.5002809741618867  0.2505038834452258  0.8760387306674318
  0.5044889147067007  0.7555129801487745  0.3712552951890766
  0.4997190258381133  0.7494961165547743  0.8760387306674318
  0.2491343677000446 -0.0007893453002102  0.1248364893353062
  0.2513503477121980  0.0008023554193196  0.6258045716456551
  0.2499055266552860  0.4997296466976648  0.1239353233521313
  0.2480519217451698  0.4966483930841717  0.6288308396091552
  0.7508656322999553  0.0007893453002102  0.1248364893353062
  0.7486496522878021 -0.0008023554193196  0.6258045716456551
  0.7500944733447140  0.5002703533023354  0.1239353233521313
  0.7519480782548301  0.5033516069158283  0.6288308396091552
  0.2513503477121980  0.0008023554193196  0.3741954283543449
  0.2491343677000446 -0.0007893453002102  0.8751635106646938
  0.2480519217451698  0.4966483930841717  0.3711691603908445
  0.2499055266552860  0.4997296466976648  0.8760646766478687
  0.7486496522878021 -0.0008023554193196  0.3741954283543449
  0.7508656322999553  0.0007893453002102  0.8751635106646938
  0.7519480782548301  0.5033516069158283  0.3711691603908445
  0.7500944733447140  0.5002703533023354  0.8760646766478687
  0.0000000000000000 -0.0000000000000000 -0.0000000000000000
  0.0000000000000000 -0.0000000000000000  0.5000000000000000
  0.0000000000000000  0.5000000000000000 -0.0000000000000000
  0.0000000000000000  0.5000000000000000  0.5000000000000000
  0.5000000000000000 -0.0000000000000000 -0.0000000000000000
  0.5000000000000000 -0.0000000000000000  0.5000000000000000
  0.5000000000000000  0.5000000000000000 -0.0000000000000000
  0.2500089966903940  0.2495460785854183 -0.0000000000000000
  0.2484155587066445  0.2491395140972465  0.5000000000000000
  0.2498657815491685  0.7499652810380817 -0.0000000000000000
  0.2413903757116082  0.7524854395731909  0.5000000000000000
  0.7501342184508315  0.2500347189619185 -0.0000000000000000
  0.7499910033096064  0.7504539214145817 -0.0000000000000000
  0.2498212452797420  0.2493944144836896  0.2487080289655340
  0.2498212452797420  0.2493944144836896  0.7512919710344659
  0.2511500230619517  0.7488699570385102  0.2500207357856449
  0.2511500230619517  0.7488699570385102  0.7499792642143551
  0.7488499769380484  0.2511300429614899  0.2500207357856449
  0.7488499769380484  0.2511300429614899  0.7499792642143551
  0.7501787547202580  0.7506055855163105  0.2487080289655340
  0.7501787547202580  0.7506055855163105  0.7512919710344659
  0.0000000000000000 -0.0000000000000000  0.2509290775127562
  0.0000000000000000 -0.0000000000000000  0.7490709224872442
  0.0000000000000000  0.5000000000000000  0.2494914919600579
  0.0000000000000000  0.5000000000000000  0.7505085080399421
  0.5000000000000000 -0.0000000000000000  0.2488054904094186
  0.5000000000000000 -0.0000000000000000  0.7511945095905812
  0.5000000000000000  0.5000000000000000  0.2494572425170594
  0.5000000000000000  0.5000000000000000  0.7505427574829405
  0.7586096242883918  0.2475145604268091  0.5000000000000000
  0.5000000000000000  0.5000000000000000  0.5000000000000000
  0.7515844412933556  0.7508604859027533  0.5000000000000000
  0.1102595824765864  0.1400226591306261  0.2484385595337504
  0.1102595824765864  0.1400226591306261  0.7515614404662494
  0.1104617887081738  0.6397645006670137  0.2514741158619712
  0.1104617887081738  0.6397645006670137  0.7485258841380290
  0.6088293498799341  0.1411021802944429  0.2498674878522798
  0.6088293498799341  0.1411021802944429  0.7501325121477200
  0.6094202956965965  0.6409601786627379  0.2502520436301386
  0.6094202956965965  0.6409601786627379  0.7497479563698616
  0.3905797043034032  0.3590398213372620  0.2502520436301386
  0.3905797043034032  0.3590398213372620  0.7497479563698616
  0.3911706501200659  0.8588978197055570  0.2498674878522798
  0.3911706501200659  0.8588978197055570  0.7501325121477200
  0.8895382112918261  0.3602354993329864  0.2514741158619712
  0.8895382112918261  0.3602354993329864  0.7485258841380290
  0.8897404175234136  0.8599773408693737  0.2484385595337504
  0.8897404175234136  0.8599773408693737  0.7515614404662494
  0.3594911310835906  0.1092902453089131  0.2510836229012594
  0.3594911310835906  0.1092902453089131  0.7489163770987407
  0.3603076851754746  0.6077127672020863  0.2481251980534743
  0.3603076851754746  0.6077127672020863  0.7518748019465255
  0.8580068926912796  0.1119160226535485  0.2525070754653486
  0.8580068926912796  0.1119160226535485  0.7474929245346520
  0.8603405698538451  0.6107848073415136  0.2494030181372164
  0.8603405698538451  0.6107848073415136  0.7505969818627836
  0.1396594301461549  0.3892151926584861  0.2494030181372164
  0.1396594301461549  0.3892151926584861  0.7505969818627836
  0.1419931073087206  0.8880839773464515  0.2525070754653486
  0.1419931073087206  0.8880839773464515  0.7474929245346520
  0.6396923148245254  0.3922872327979136  0.2481251980534743
  0.6396923148245254  0.3922872327979136  0.7518748019465255
  0.6405088689164093  0.8907097546910869  0.2510836229012594
  0.6405088689164093  0.8907097546910869  0.7489163770987407
  0.3596254446043782  0.3905936794814875 -0.0000000000000000
  0.3591891213500982  0.8904048488775226 -0.0000000000000000
  0.3663401633756867  0.8784660351439960  0.5000000000000000
  0.8594532342386504  0.3906439024422524 -0.0000000000000000
  0.8590645633298980  0.8907129206893644 -0.0000000000000000
  0.8574226289788043  0.8924243732233121  0.5000000000000000
  0.1409354366701022  0.1092870793106354 -0.0000000000000000
  0.1425773710211958  0.1075756267766877  0.5000000000000000
  0.1405467657613497  0.6093560975577478 -0.0000000000000000
  0.1499169819416128  0.6022981506748976  0.5000000000000000
  0.6408108786499015  0.1095951511224774 -0.0000000000000000
  0.6336598366243137  0.1215339648560037  0.5000000000000000
  0.6403745553956216  0.6094063205185124 -0.0000000000000000
  0.1094777704122212  0.3591054930612804 -0.0000000000000000
  0.1059598685410789  0.3563550906478458  0.5000000000000000
  0.1094602546006508  0.8592875453319953 -0.0000000000000000
  0.1095590813851677  0.8522225535606444  0.5000000000000000
  0.6095195279764758  0.3595517428778524 -0.0000000000000000
  0.6091986676667015  0.8594067113009931 -0.0000000000000000
  0.6135039072345468  0.8639303798937564  0.5000000000000000
  0.3908013323332989  0.1405932886990072 -0.0000000000000000
  0.3864960927654529  0.1360696201062434  0.5000000000000000
  0.3904804720235242  0.6404482571221478 -0.0000000000000000
  0.8905397453993493  0.1407124546680048 -0.0000000000000000
  0.8904409186148327  0.1477774464393558  0.5000000000000000
  0.8905222295877784  0.6408945069387197 -0.0000000000000000
  0.0000000000000000 -0.0000000000000000  0.1247766971129577
  0.0000000000000000 -0.0000000000000000  0.6280643960979927
  0.0000000000000000  0.5000000000000000  0.1251637084429436
  0.0000000000000000  0.5000000000000000  0.6245081115097092
  0.5000000000000000 -0.0000000000000000  0.1250854765315488
  0.5000000000000000 -0.0000000000000000  0.6248625222995509
  0.5000000000000000  0.5000000000000000  0.1245896453157653
  0.5000000000000000  0.5000000000000000  0.6233206341704998
  0.0000000000000000 -0.0000000000000000  0.3719356039020076
  0.0000000000000000 -0.0000000000000000  0.8752233028870422
  0.0000000000000000  0.5000000000000000  0.3754918884902909
  0.0000000000000000  0.5000000000000000  0.8748362915570564
  0.5000000000000000 -0.0000000000000000  0.3751374777004490
  0.5000000000000000 -0.0000000000000000  0.8749145234684511
  0.5000000000000000  0.5000000000000000  0.8754103546842348
  0.2487482688183872  0.2498151706064267  0.3747942996025632
  0.2512066637158210  0.2498128614719926  0.8751926284023547
  0.2615147263362930  0.7401060606505633  0.3772545997670966
  0.2496342686564302  0.7495049798762670  0.8747301107581127
  0.7503657313435697  0.2504950201237330  0.8747301107581127
  0.7487933362841795  0.7501871385280072  0.8751926284023547
  0.2512066637158210  0.2498128614719926  0.1248073715976453
  0.2487482688183872  0.2498151706064267  0.6252057003974369
  0.2496342686564302  0.7495049798762670  0.1252698892418874
  0.2615147263362930  0.7401060606505633  0.6227454002329035
  0.7503657313435697  0.2504950201237330  0.1252698892418874
  0.7384852736637068  0.2598939393494368  0.6227454002329035
  0.7487933362841795  0.7501871385280072  0.1248073715976453
  0.7512517311816126  0.7501848293935736  0.6252057003974369
  0.7384852736637068  0.2598939393494368  0.3772545997670966
  0.8500830180583874  0.3977018493251022  0.5000000000000000
  0.5000000000000000  0.5000000000000000  0.3766793658295002
  0.3632103210910018  0.3887680134624601  0.5000000000000000
  0.8940401314589214  0.6436449093521541  0.5000000000000000
  0.7512517311816126  0.7501848293935736  0.3747942996025632
  0.6367896789089981  0.6112319865375399  0.5000000000000000
 
  0.00000000E+00  0.00000000E+00  0.00000000E+00
  0.00000000E+00  0.00000000E+00  0.00000000E+00
  0.00000000E+00  0.00000000E+00  0.00000000E+00
  0.00000000E+00  0.00000000E+00  0.00000000E+00
  0.00000000E+00  0.00000000E+00  0.00000000E+00
  0.00000000E+00  0.00000000E+00  0.00000000E+00
  0.00000000E+00  0.00000000E+00  0.00000000E+00
  0.00000000E+00  0.00000000E+00  0.00000000E+00
  0.00000000E+00  0.00000000E+00  0.00000000E+00
  0.00000000E+00  0.00000000E+00  0.00000000E+00
  0.00000000E+00  0.00000000E+00  0.00000000E+00
  0.00000000E+00  0.00000000E+00  0.00000000E+00
  0.00000000E+00  0.00000000E+00  0.00000000E+00
  0.00000000E+00  0.00000000E+00  0.00000000E+00
  0.00000000E+00  0.00000000E+00  0.00000000E+00
  0.00000000E+00  0.00000000E+00  0.00000000E+00
  0.00000000E+00  0.00000000E+00  0.00000000E+00
  0.00000000E+00  0.00000000E+00  0.00000000E+00
  0.00000000E+00  0.00000000E+00  0.00000000E+00
  0.00000000E+00  0.00000000E+00  0.00000000E+00
  0.00000000E+00  0.00000000E+00  0.00000000E+00
  0.00000000E+00  0.00000000E+00  0.00000000E+00
  0.00000000E+00  0.00000000E+00  0.00000000E+00
  0.00000000E+00  0.00000000E+00  0.00000000E+00
  0.00000000E+00  0.00000000E+00  0.00000000E+00
  0.00000000E+00  0.00000000E+00  0.00000000E+00
  0.00000000E+00  0.00000000E+00  0.00000000E+00
  0.00000000E+00  0.00000000E+00  0.00000000E+00
  0.00000000E+00  0.00000000E+00  0.00000000E+00
  0.00000000E+00  0.00000000E+00  0.00000000E+00
  0.00000000E+00  0.00000000E+00  0.00000000E+00
  0.00000000E+00  0.00000000E+00  0.00000000E+00
  0.00000000E+00  0.00000000E+00  0.00000000E+00
  0.00000000E+00  0.00000000E+00  0.00000000E+00
  0.00000000E+00  0.00000000E+00  0.00000000E+00
  0.00000000E+00  0.00000000E+00  0.00000000E+00
  0.00000000E+00  0.00000000E+00  0.00000000E+00
  0.00000000E+00  0.00000000E+00  0.00000000E+00
  0.00000000E+00  0.00000000E+00  0.00000000E+00
  0.00000000E+00  0.00000000E+00  0.00000000E+00
  0.00000000E+00  0.00000000E+00  0.00000000E+00
  0.00000000E+00  0.00000000E+00  0.00000000E+00
  0.00000000E+00  0.00000000E+00  0.00000000E+00
  0.00000000E+00  0.00000000E+00  0.00000000E+00
  0.00000000E+00  0.00000000E+00  0.00000000E+00
  0.00000000E+00  0.00000000E+00  0.00000000E+00
  0.00000000E+00  0.00000000E+00  0.00000000E+00
  0.00000000E+00  0.00000000E+00  0.00000000E+00
  0.00000000E+00  0.00000000E+00  0.00000000E+00
  0.00000000E+00  0.00000000E+00  0.00000000E+00
  0.00000000E+00  0.00000000E+00  0.00000000E+00
  0.00000000E+00  0.00000000E+00  0.00000000E+00
  0.00000000E+00  0.00000000E+00  0.00000000E+00
  0.00000000E+00  0.00000000E+00  0.00000000E+00
  0.00000000E+00  0.00000000E+00  0.00000000E+00
  0.00000000E+00  0.00000000E+00  0.00000000E+00
  0.00000000E+00  0.00000000E+00  0.00000000E+00
  0.00000000E+00  0.00000000E+00  0.00000000E+00
  0.00000000E+00  0.00000000E+00  0.00000000E+00
  0.00000000E+00  0.00000000E+00  0.00000000E+00
  0.00000000E+00  0.00000000E+00  0.00000000E+00
  0.00000000E+00  0.00000000E+00  0.00000000E+00
  0.00000000E+00  0.00000000E+00  0.00000000E+00
  0.00000000E+00  0.00000000E+00  0.00000000E+00
  0.00000000E+00  0.00000000E+00  0.00000000E+00
  0.00000000E+00  0.00000000E+00  0.00000000E+00
  0.00000000E+00  0.00000000E+00  0.00000000E+00
  0.00000000E+00  0.00000000E+00  0.00000000E+00
  0.00000000E+00  0.00000000E+00  0.00000000E+00
  0.00000000E+00  0.00000000E+00  0.00000000E+00
  0.00000000E+00  0.00000000E+00  0.00000000E+00
  0.00000000E+00  0.00000000E+00  0.00000000E+00
  0.00000000E+00  0.00000000E+00  0.00000000E+00
  0.00000000E+00  0.00000000E+00  0.00000000E+00
  0.00000000E+00  0.00000000E+00  0.00000000E+00
  0.00000000E+00  0.00000000E+00  0.00000000E+00
  0.00000000E+00  0.00000000E+00  0.00000000E+00
  0.00000000E+00  0.00000000E+00  0.00000000E+00
  0.00000000E+00  0.00000000E+00  0.00000000E+00
  0.00000000E+00  0.00000000E+00  0.00000000E+00
  0.00000000E+00  0.00000000E+00  0.00000000E+00
  0.00000000E+00  0.00000000E+00  0.00000000E+00
  0.00000000E+00  0.00000000E+00  0.00000000E+00
  0.00000000E+00  0.00000000E+00  0.00000000E+00
  0.00000000E+00  0.00000000E+00  0.00000000E+00
  0.00000000E+00  0.00000000E+00  0.00000000E+00
  0.00000000E+00  0.00000000E+00  0.00000000E+00
  0.00000000E+00  0.00000000E+00  0.00000000E+00
  0.00000000E+00  0.00000000E+00  0.00000000E+00
  0.00000000E+00  0.00000000E+00  0.00000000E+00
  0.00000000E+00  0.00000000E+00  0.00000000E+00
  0.00000000E+00  0.00000000E+00  0.00000000E+00
  0.00000000E+00  0.00000000E+00  0.00000000E+00
  0.00000000E+00  0.00000000E+00  0.00000000E+00
  0.00000000E+00  0.00000000E+00  0.00000000E+00
  0.00000000E+00  0.00000000E+00  0.00000000E+00
  0.00000000E+00  0.00000000E+00  0.00000000E+00
  0.00000000E+00  0.00000000E+00  0.00000000E+00
  0.00000000E+00  0.00000000E+00  0.00000000E+00
  0.00000000E+00  0.00000000E+00  0.00000000E+00
  0.00000000E+00  0.00000000E+00  0.00000000E+00
  0.00000000E+00  0.00000000E+00  0.00000000E+00
  0.00000000E+00  0.00000000E+00  0.00000000E+00
  0.00000000E+00  0.00000000E+00  0.00000000E+00
  0.00000000E+00  0.00000000E+00  0.00000000E+00
  0.00000000E+00  0.00000000E+00  0.00000000E+00
  0.00000000E+00  0.00000000E+00  0.00000000E+00
  0.00000000E+00  0.00000000E+00  0.00000000E+00
  0.00000000E+00  0.00000000E+00  0.00000000E+00
  0.00000000E+00  0.00000000E+00  0.00000000E+00
  0.00000000E+00  0.00000000E+00  0.00000000E+00
  0.00000000E+00  0.00000000E+00  0.00000000E+00
  0.00000000E+00  0.00000000E+00  0.00000000E+00
  0.00000000E+00  0.00000000E+00  0.00000000E+00
  0.00000000E+00  0.00000000E+00  0.00000000E+00
  0.00000000E+00  0.00000000E+00  0.00000000E+00
  0.00000000E+00  0.00000000E+00  0.00000000E+00
  0.00000000E+00  0.00000000E+00  0.00000000E+00
  0.00000000E+00  0.00000000E+00  0.00000000E+00
  0.00000000E+00  0.00000000E+00  0.00000000E+00
  0.00000000E+00  0.00000000E+00  0.00000000E+00
  0.00000000E+00  0.00000000E+00  0.00000000E+00
  0.00000000E+00  0.00000000E+00  0.00000000E+00
  0.00000000E+00  0.00000000E+00  0.00000000E+00
  0.00000000E+00  0.00000000E+00  0.00000000E+00
  0.00000000E+00  0.00000000E+00  0.00000000E+00
  0.00000000E+00  0.00000000E+00  0.00000000E+00
  0.00000000E+00  0.00000000E+00  0.00000000E+00
  0.00000000E+00  0.00000000E+00  0.00000000E+00
  0.00000000E+00  0.00000000E+00  0.00000000E+00
  0.00000000E+00  0.00000000E+00  0.00000000E+00
  0.00000000E+00  0.00000000E+00  0.00000000E+00
  0.00000000E+00  0.00000000E+00  0.00000000E+00
  0.00000000E+00  0.00000000E+00  0.00000000E+00
  0.00000000E+00  0.00000000E+00  0.00000000E+00
  0.00000000E+00  0.00000000E+00  0.00000000E+00
  0.00000000E+00  0.00000000E+00  0.00000000E+00
  0.00000000E+00  0.00000000E+00  0.00000000E+00
  0.00000000E+00  0.00000000E+00  0.00000000E+00
  0.00000000E+00  0.00000000E+00  0.00000000E+00
  0.00000000E+00  0.00000000E+00  0.00000000E+00
  0.00000000E+00  0.00000000E+00  0.00000000E+00
  0.00000000E+00  0.00000000E+00  0.00000000E+00
  0.00000000E+00  0.00000000E+00  0.00000000E+00
  0.00000000E+00  0.00000000E+00  0.00000000E+00
  0.00000000E+00  0.00000000E+00  0.00000000E+00
  0.00000000E+00  0.00000000E+00  0.00000000E+00
  0.00000000E+00  0.00000000E+00  0.00000000E+00
  0.00000000E+00  0.00000000E+00  0.00000000E+00
  0.00000000E+00  0.00000000E+00  0.00000000E+00
  0.00000000E+00  0.00000000E+00  0.00000000E+00
  0.00000000E+00  0.00000000E+00  0.00000000E+00
  0.00000000E+00  0.00000000E+00  0.00000000E+00
  0.00000000E+00  0.00000000E+00  0.00000000E+00
  0.00000000E+00  0.00000000E+00  0.00000000E+00
  0.00000000E+00  0.00000000E+00  0.00000000E+00
  0.00000000E+00  0.00000000E+00  0.00000000E+00
  0.00000000E+00  0.00000000E+00  0.00000000E+00
