SrTiFeO                                 
   1.00000000000000     
    11.1989999999999998    0.0000000000000000    0.0000000000000000
     0.0000000000000000   11.1989999999999998    0.0000000000000000
     0.0000000000000000    0.0000000000000000   15.9830000000000005
   Sr   Ti   O 
    32    32    94
Direct
  0.9996775424962572  0.2500578495084645  0.1249265589953228
  0.0019933107281459  0.2504319671391892  0.6246364512289851
  0.9999317248950323  0.7497846762915670  0.1250725955106492
  0.0011313108812695  0.7513702048503506  0.6248680310308543
  0.4993551271261638  0.2489582846974407  0.1253333607257770
  0.4985794310289243  0.2387786875220901  0.6211141526631536
  0.4997167286808905  0.7500680824386232  0.1243149060963170
  0.5012460720748043  0.7573572009190183  0.6244086836442990
  0.9993423591446813  0.2496520509937026  0.3753115960564984
  0.0019999918051840  0.2512348257833562  0.8759043826474415
  0.0001086594139691  0.7501335296530686  0.3750032706589002
  0.0016088605472221  0.7503136200275551  0.8752869774257843
  0.5000694148480445  0.2481208159669652  0.3733665030936460
  0.4989429527239742  0.2477599499095407  0.8779698465928475
  0.4992896232441925  0.7515684581646016  0.3738996727168941
  0.5007801626573883  0.7502177828530813  0.8751305492742720
  0.2498312264516637  0.9997793678799531  0.1249882071849508
  0.2490627561928734  0.9988221457507112  0.6241750958968085
  0.2499415353565432  0.5002227098649451  0.1247816716292643
  0.2423309676856076  0.5009300176147257  0.6244212024045119
  0.7498422548933572  0.0002557443052707  0.1251146322439762
  0.7512341396947187  0.9973287955775358  0.6235986717304625
  0.7502341425973527  0.4994954822733564  0.1250034728971163
  0.7617252737386178  0.5034544749990183  0.6227008515685940
  0.2499219942806083  0.0001287732042830  0.3750285589466822
  0.2506922637435731  0.9989944668172454  0.8755959669565682
  0.2482076322314484  0.4997165108732096  0.3738583972990048
  0.2490033343503867  0.5011963439388419  0.8758595935697380
  0.7494534049021029  0.0003167976146140  0.3749081008917646
  0.7498211217282719  0.9966715965982433  0.8759804434356790
  0.7517435118302755  0.5003405954621838  0.3738870856835295
  0.7553024552854311  0.5030845887389277  0.8785432354430025
  0.0000473044649396  0.0002196808270009  0.9996400583747117
  0.9999586719392232  0.0001534310068942  0.4996126466234562
  0.0007012063566598  0.5000446791153998  0.0004721593310528
  0.0005043485749497  0.5000291337502555  0.4990200752809831
  0.5001070975535337  0.9997162784498081  0.0002367253865782
  0.4999567038079117  0.9994628442926238  0.4990355818986414
  0.5007680744159964  0.4994959743524218  0.9990139625593610
  0.2504596405926209  0.2503525770789357  0.0001603462464311
  0.2497659159167993  0.2500497427792169  0.5002026288328673
  0.2504865695919694  0.7499429802230684  0.9998967916907689
  0.2502005850842424  0.7499653269624128  0.5004119195178206
  0.7492640158304094  0.2506096964618560  0.0001020940077346
  0.7492431204513601  0.2509668960280396  0.5005356347489772
  0.7497783544842336  0.7497949635610341  0.0003404800819465
  0.2499851480189774  0.2502889809001239  0.2499714685191026
  0.2507968810470009  0.2490516696410450  0.7493029031779526
  0.2501670602833296  0.7496096262103985  0.2499364082409627
  0.2513714118777218  0.7486379980893612  0.7496326084168234
  0.7499643806883055  0.2499777813021914  0.2499273163705898
  0.7537689694830180  0.2432473344537682  0.7500780054004800
  0.7497247242986297  0.7497962903205232  0.2499427971496107
  0.7517526325559248  0.7499361833630032  0.7491028463190188
  0.9996487495614146  0.0003190260112186  0.2503619690711787
  0.0034390746718492  0.9983012828748787  0.7506061424133059
  0.9999844266485206  0.5000987168429243  0.2497871645108868
  0.0006339102418137  0.5009995119307593  0.7505804934900057
  0.5000282828128664  0.9998238391478620  0.2497197226030324
  0.4990168833947259  0.0001652378679146  0.7504984897297741
  0.4997085684314896  0.5003317969072755  0.2472864155204041
  0.4988867181668564  0.4987596784918789  0.7495171874123939
  0.4997669397058914  0.4999133087143866  0.4957070661769534
  0.7502478506128811  0.7501029930157624  0.5000378135935180
  0.1094058499251306  0.1410805597658125  0.2511362241107591
  0.1072037763629107  0.1422434902689714  0.7515598430200604
  0.1091110704426449  0.6411221782737675  0.2506642119949635
  0.1089347387728146  0.6408744706365410  0.7498051923125756
  0.6092717500907228  0.1410902946905883  0.2498879706874204
  0.6061425475965054  0.1449837486420460  0.7502329302685479
  0.6085019347085781  0.6410781026217183  0.2495330653194105
  0.3914264692902972  0.3592238614257681  0.2496997727417644
  0.3976111794172069  0.3546648705436795  0.7412114045616265
  0.3908482567609060  0.8592278605459531  0.2498251981781545
  0.3913942749929481  0.8584888377193387  0.7504755845727387
  0.8905086439372357  0.3592690437421543  0.2509683488038506
  0.8824080444582105  0.3642206474894074  0.7500566849927821
  0.8906124459767946  0.8593027567458021  0.2512486371894517
  0.8908747990394907  0.8597046571247352  0.7518832558192904
  0.3593031783957434  0.1094675703546566  0.2507521598478439
  0.3566762840048028  0.1065535808038394  0.7497493798166519
  0.3585706867352695  0.6087647998299511  0.2499161262038852
  0.3560785832923328  0.6103093125248026  0.7459193115663247
  0.8588793022119563  0.1094602642576625  0.2513791662700707
  0.8577544436522587  0.1068796322646549  0.7509450359463511
  0.8588875565883576  0.6091350268398814  0.2497067380788054
  0.8625625251883727  0.6116121358243738  0.7503403400828499
  0.1409039695100933  0.3910696300846533  0.2496057840750969
  0.1406976273223265  0.3900401995517454  0.7498418333202035
  0.1403677675384569  0.8908472304236730  0.2512223508931261
  0.1410035332048799  0.8920284518487224  0.7512424642201562
  0.6406588713067171  0.3913595527626089  0.2498881658867835
  0.6410647909188262  0.8906427144343689  0.2506766734784418
  0.6391007035018911  0.8882796711697113  0.7493787179350202
  0.3594452592184987  0.3907831636984984  0.0003738399835451
  0.3596453802179944  0.8904320482841270  0.0000677509161197
  0.3603782947242361  0.8895834423478237  0.4997393529024825
  0.8595988696592172  0.3905250625098998  0.0001858658261324
  0.8596891095394404  0.3902657023988648  0.4992945812941810
  0.8591415784276686  0.8902871602145808  0.9989086850809906
  0.8597117216540107  0.8906734186595047  0.4980500616877513
  0.1403202568068115  0.1101587088826047  0.9988486882721416
  0.1394693243993496  0.1101664758889524  0.4986450441622726
  0.1406664515349297  0.6094923366176327  0.0000973248410547
  0.1400728534110981  0.6100150679574384  0.4995602984922665
  0.6408255216193711  0.1093814879321107  0.9990090752645060
  0.6396072337314240  0.1107078027654823  0.5013339292015666
  0.6412147894735326  0.6090582694851729  0.0016439108120057
  0.1097652505500361  0.3593301080240944  0.9999446409226393
  0.1100937352853895  0.3601263705782128  0.4999508899407396
  0.1092591287427441  0.8600129439009173  0.0006780797104905
  0.1094626930906608  0.8604004081373841  0.4980622079166772
  0.6091759489359143  0.3582259274628689  0.0048252914968890
  0.6094277788176775  0.8591261665521299  0.9995078799390905
  0.6101691207649593  0.8598784320399133  0.4996056769047117
  0.3903225326017734  0.1402153216433419  0.0002041709111357
  0.3892474059444974  0.1393594609636046  0.4986684222289122
  0.3908542496164252  0.6407605766888388  0.9989594027753451
  0.3910162020818608  0.6386476477168840  0.5082303502811023
  0.8896477433725342  0.1411248060047200  0.9969622539296555
  0.8888379887885355  0.1411235324496968  0.5028418677608606
  0.8902916969272072  0.6403791266978841  0.9987123387117131
  0.9985690695000329  0.0017723916472923  0.1250292014758614
  0.0004601642675042  0.9991252888494895  0.6252078151557633
  0.9997705755604349  0.5004422502576746  0.1249223799238953
  0.0003175769496205  0.4989721620973052  0.6248941776996684
  0.5007330539772996  0.0000790689850561  0.1248985254989543
  0.4996840711512572  0.9996338491972427  0.6248786201502331
  0.4983845476314006  0.5017513472103725  0.1252912337309378
  0.9985132550827707  0.0023460526239592  0.3752393594053285
  0.0003349176106709  0.9995871882185092  0.8752277263823069
  0.9999660912260419  0.5005117278366749  0.3749378933261179
  0.0009391309521244  0.4988823549025717  0.8750680022519133
  0.5009841502720997  0.0000996422652979  0.3749418071221440
  0.5001916319567433  0.9997725985912290  0.8748517832206412
  0.5068653799814525  0.4957334317265279  0.8767419751084626
  0.2523550840792305  0.2542337266337694  0.3756747501961308
  0.2538770715848595  0.2532829762508736  0.8739467718762638
  0.2537205589457643  0.7475800166096290  0.3757591315050131
  0.2494537487025604  0.7497690636640009  0.8751889304744043
  0.7473672571459398  0.2512540170865735  0.3761969745812971
  0.7419306366724662  0.2593445781061612  0.8734248841580464
  0.7476716570649821  0.7456199845808565  0.3757456900636308
  0.7446246000760385  0.7464233986988229  0.8738500300038889
  0.2498036637736129  0.2491495694110851  0.1249928365892280
  0.2453690354880785  0.2451881758303462  0.6248226001123275
  0.2498884799686290  0.7500976097615557  0.1251892191168691
  0.2448241658139989  0.7551783881655532  0.6246259412842321
  0.7524195813840771  0.2480742542546558  0.1252868534567337
  0.7448776509454318  0.2566649867985003  0.6271723397841665
  0.7509763152146341  0.7509772508266245  0.1249359284427948
  0.6171456651805730  0.6283877239475907  0.7381655466154933
  0.4983150696328433  0.5020937172853143  0.3749850188949025
  0.6075923930180699  0.3617560088191332  0.5041909305756502
  0.3614055402854773  0.3911774828083381  0.5080271868883494
  0.7555897135514565  0.7558057287765119  0.6245289247422966
  0.8894708207382899  0.6393927655976313  0.5007248683250206
  0.6382284407059785  0.6088612327566045  0.5080990386584706
 
  0.00000000E+00  0.00000000E+00  0.00000000E+00
  0.00000000E+00  0.00000000E+00  0.00000000E+00
  0.00000000E+00  0.00000000E+00  0.00000000E+00
  0.00000000E+00  0.00000000E+00  0.00000000E+00
  0.00000000E+00  0.00000000E+00  0.00000000E+00
  0.00000000E+00  0.00000000E+00  0.00000000E+00
  0.00000000E+00  0.00000000E+00  0.00000000E+00
  0.00000000E+00  0.00000000E+00  0.00000000E+00
  0.00000000E+00  0.00000000E+00  0.00000000E+00
  0.00000000E+00  0.00000000E+00  0.00000000E+00
  0.00000000E+00  0.00000000E+00  0.00000000E+00
  0.00000000E+00  0.00000000E+00  0.00000000E+00
  0.00000000E+00  0.00000000E+00  0.00000000E+00
  0.00000000E+00  0.00000000E+00  0.00000000E+00
  0.00000000E+00  0.00000000E+00  0.00000000E+00
  0.00000000E+00  0.00000000E+00  0.00000000E+00
  0.00000000E+00  0.00000000E+00  0.00000000E+00
  0.00000000E+00  0.00000000E+00  0.00000000E+00
  0.00000000E+00  0.00000000E+00  0.00000000E+00
  0.00000000E+00  0.00000000E+00  0.00000000E+00
  0.00000000E+00  0.00000000E+00  0.00000000E+00
  0.00000000E+00  0.00000000E+00  0.00000000E+00
  0.00000000E+00  0.00000000E+00  0.00000000E+00
  0.00000000E+00  0.00000000E+00  0.00000000E+00
  0.00000000E+00  0.00000000E+00  0.00000000E+00
  0.00000000E+00  0.00000000E+00  0.00000000E+00
  0.00000000E+00  0.00000000E+00  0.00000000E+00
  0.00000000E+00  0.00000000E+00  0.00000000E+00
  0.00000000E+00  0.00000000E+00  0.00000000E+00
  0.00000000E+00  0.00000000E+00  0.00000000E+00
  0.00000000E+00  0.00000000E+00  0.00000000E+00
  0.00000000E+00  0.00000000E+00  0.00000000E+00
  0.00000000E+00  0.00000000E+00  0.00000000E+00
  0.00000000E+00  0.00000000E+00  0.00000000E+00
  0.00000000E+00  0.00000000E+00  0.00000000E+00
  0.00000000E+00  0.00000000E+00  0.00000000E+00
  0.00000000E+00  0.00000000E+00  0.00000000E+00
  0.00000000E+00  0.00000000E+00  0.00000000E+00
  0.00000000E+00  0.00000000E+00  0.00000000E+00
  0.00000000E+00  0.00000000E+00  0.00000000E+00
  0.00000000E+00  0.00000000E+00  0.00000000E+00
  0.00000000E+00  0.00000000E+00  0.00000000E+00
  0.00000000E+00  0.00000000E+00  0.00000000E+00
  0.00000000E+00  0.00000000E+00  0.00000000E+00
  0.00000000E+00  0.00000000E+00  0.00000000E+00
  0.00000000E+00  0.00000000E+00  0.00000000E+00
  0.00000000E+00  0.00000000E+00  0.00000000E+00
  0.00000000E+00  0.00000000E+00  0.00000000E+00
  0.00000000E+00  0.00000000E+00  0.00000000E+00
  0.00000000E+00  0.00000000E+00  0.00000000E+00
  0.00000000E+00  0.00000000E+00  0.00000000E+00
  0.00000000E+00  0.00000000E+00  0.00000000E+00
  0.00000000E+00  0.00000000E+00  0.00000000E+00
  0.00000000E+00  0.00000000E+00  0.00000000E+00
  0.00000000E+00  0.00000000E+00  0.00000000E+00
  0.00000000E+00  0.00000000E+00  0.00000000E+00
  0.00000000E+00  0.00000000E+00  0.00000000E+00
  0.00000000E+00  0.00000000E+00  0.00000000E+00
  0.00000000E+00  0.00000000E+00  0.00000000E+00
  0.00000000E+00  0.00000000E+00  0.00000000E+00
  0.00000000E+00  0.00000000E+00  0.00000000E+00
  0.00000000E+00  0.00000000E+00  0.00000000E+00
  0.00000000E+00  0.00000000E+00  0.00000000E+00
  0.00000000E+00  0.00000000E+00  0.00000000E+00
  0.00000000E+00  0.00000000E+00  0.00000000E+00
  0.00000000E+00  0.00000000E+00  0.00000000E+00
  0.00000000E+00  0.00000000E+00  0.00000000E+00
  0.00000000E+00  0.00000000E+00  0.00000000E+00
  0.00000000E+00  0.00000000E+00  0.00000000E+00
  0.00000000E+00  0.00000000E+00  0.00000000E+00
  0.00000000E+00  0.00000000E+00  0.00000000E+00
  0.00000000E+00  0.00000000E+00  0.00000000E+00
  0.00000000E+00  0.00000000E+00  0.00000000E+00
  0.00000000E+00  0.00000000E+00  0.00000000E+00
  0.00000000E+00  0.00000000E+00  0.00000000E+00
  0.00000000E+00  0.00000000E+00  0.00000000E+00
  0.00000000E+00  0.00000000E+00  0.00000000E+00
  0.00000000E+00  0.00000000E+00  0.00000000E+00
  0.00000000E+00  0.00000000E+00  0.00000000E+00
  0.00000000E+00  0.00000000E+00  0.00000000E+00
  0.00000000E+00  0.00000000E+00  0.00000000E+00
  0.00000000E+00  0.00000000E+00  0.00000000E+00
  0.00000000E+00  0.00000000E+00  0.00000000E+00
  0.00000000E+00  0.00000000E+00  0.00000000E+00
  0.00000000E+00  0.00000000E+00  0.00000000E+00
  0.00000000E+00  0.00000000E+00  0.00000000E+00
  0.00000000E+00  0.00000000E+00  0.00000000E+00
  0.00000000E+00  0.00000000E+00  0.00000000E+00
  0.00000000E+00  0.00000000E+00  0.00000000E+00
  0.00000000E+00  0.00000000E+00  0.00000000E+00
  0.00000000E+00  0.00000000E+00  0.00000000E+00
  0.00000000E+00  0.00000000E+00  0.00000000E+00
  0.00000000E+00  0.00000000E+00  0.00000000E+00
  0.00000000E+00  0.00000000E+00  0.00000000E+00
  0.00000000E+00  0.00000000E+00  0.00000000E+00
  0.00000000E+00  0.00000000E+00  0.00000000E+00
  0.00000000E+00  0.00000000E+00  0.00000000E+00
  0.00000000E+00  0.00000000E+00  0.00000000E+00
  0.00000000E+00  0.00000000E+00  0.00000000E+00
  0.00000000E+00  0.00000000E+00  0.00000000E+00
  0.00000000E+00  0.00000000E+00  0.00000000E+00
  0.00000000E+00  0.00000000E+00  0.00000000E+00
  0.00000000E+00  0.00000000E+00  0.00000000E+00
  0.00000000E+00  0.00000000E+00  0.00000000E+00
  0.00000000E+00  0.00000000E+00  0.00000000E+00
  0.00000000E+00  0.00000000E+00  0.00000000E+00
  0.00000000E+00  0.00000000E+00  0.00000000E+00
  0.00000000E+00  0.00000000E+00  0.00000000E+00
  0.00000000E+00  0.00000000E+00  0.00000000E+00
  0.00000000E+00  0.00000000E+00  0.00000000E+00
  0.00000000E+00  0.00000000E+00  0.00000000E+00
  0.00000000E+00  0.00000000E+00  0.00000000E+00
  0.00000000E+00  0.00000000E+00  0.00000000E+00
  0.00000000E+00  0.00000000E+00  0.00000000E+00
  0.00000000E+00  0.00000000E+00  0.00000000E+00
  0.00000000E+00  0.00000000E+00  0.00000000E+00
  0.00000000E+00  0.00000000E+00  0.00000000E+00
  0.00000000E+00  0.00000000E+00  0.00000000E+00
  0.00000000E+00  0.00000000E+00  0.00000000E+00
  0.00000000E+00  0.00000000E+00  0.00000000E+00
  0.00000000E+00  0.00000000E+00  0.00000000E+00
  0.00000000E+00  0.00000000E+00  0.00000000E+00
  0.00000000E+00  0.00000000E+00  0.00000000E+00
  0.00000000E+00  0.00000000E+00  0.00000000E+00
  0.00000000E+00  0.00000000E+00  0.00000000E+00
  0.00000000E+00  0.00000000E+00  0.00000000E+00
  0.00000000E+00  0.00000000E+00  0.00000000E+00
  0.00000000E+00  0.00000000E+00  0.00000000E+00
  0.00000000E+00  0.00000000E+00  0.00000000E+00
  0.00000000E+00  0.00000000E+00  0.00000000E+00
  0.00000000E+00  0.00000000E+00  0.00000000E+00
  0.00000000E+00  0.00000000E+00  0.00000000E+00
  0.00000000E+00  0.00000000E+00  0.00000000E+00
  0.00000000E+00  0.00000000E+00  0.00000000E+00
  0.00000000E+00  0.00000000E+00  0.00000000E+00
  0.00000000E+00  0.00000000E+00  0.00000000E+00
  0.00000000E+00  0.00000000E+00  0.00000000E+00
  0.00000000E+00  0.00000000E+00  0.00000000E+00
  0.00000000E+00  0.00000000E+00  0.00000000E+00
  0.00000000E+00  0.00000000E+00  0.00000000E+00
  0.00000000E+00  0.00000000E+00  0.00000000E+00
  0.00000000E+00  0.00000000E+00  0.00000000E+00
  0.00000000E+00  0.00000000E+00  0.00000000E+00
  0.00000000E+00  0.00000000E+00  0.00000000E+00
  0.00000000E+00  0.00000000E+00  0.00000000E+00
  0.00000000E+00  0.00000000E+00  0.00000000E+00
  0.00000000E+00  0.00000000E+00  0.00000000E+00
  0.00000000E+00  0.00000000E+00  0.00000000E+00
  0.00000000E+00  0.00000000E+00  0.00000000E+00
  0.00000000E+00  0.00000000E+00  0.00000000E+00
  0.00000000E+00  0.00000000E+00  0.00000000E+00
  0.00000000E+00  0.00000000E+00  0.00000000E+00
  0.00000000E+00  0.00000000E+00  0.00000000E+00
  0.00000000E+00  0.00000000E+00  0.00000000E+00
  0.00000000E+00  0.00000000E+00  0.00000000E+00
  0.00000000E+00  0.00000000E+00  0.00000000E+00
  0.00000000E+00  0.00000000E+00  0.00000000E+00
  0.00000000E+00  0.00000000E+00  0.00000000E+00
