SrTiFeO                                 
   1.00000000000000     
    11.1989999999999998    0.0000000000000000    0.0000000000000000
     0.0000000000000000   11.1989999999999998    0.0000000000000000
     0.0000000000000000    0.0000000000000000   15.9830000000000005
   Sr   Ti   Fe   O 
    32    31     1    94
Direct
  0.9999610501895803  0.2508560759770984  0.1246509858314657
  0.0040992348626610  0.2506152864293996  0.6276963655581429
  0.9995953310179766  0.7487965537297654  0.1247171803447157
  0.9916146306958951  0.7498682505574025  0.6266818224679994
  0.5000345821431567  0.2503358665034329  0.1242117622258969
  0.4954731807999599  0.2448393742959651  0.6278921364115403
  0.5004285864810176  0.7497386281311917  0.1243784309643584
  0.5090596720198305  0.7550907826421724  0.6264718684176668
  0.0040992348626610  0.2506152864293996  0.3723036344418570
  0.9999610501895803  0.2508560759770984  0.8753490141685343
  0.9916146306958951  0.7498682505574025  0.3733181775320006
  0.9995953310179766  0.7487965537297654  0.8752828196552843
  0.4954731807999599  0.2448393742959651  0.3721078635884597
  0.5000345821431567  0.2503358665034329  0.8757882377741032
  0.5090596720198305  0.7550907826421724  0.3735281315823332
  0.5004285864810176  0.7497386281311917  0.8756215690356415
  0.2490831217764510  0.9990649656266423  0.1249910915219031
  0.2518610893820755  0.0019003962559219  0.6253603632348638
  0.2503543915396666  0.4994207199644379  0.1239230799792874
  0.2484051518630073  0.4960124221079847  0.6284987706001185
  0.7509194363547477  0.0001502140258283  0.1251663478257601
  0.7470470702025348  0.9946501371534389  0.6242537539316875
  0.7493410897659897  0.5009251618882143  0.1242659260687453
  0.7516953116910439  0.5068017960142557  0.6264504367682956
  0.2518610893820755  0.0019003962559219  0.3746396367651363
  0.2490831217764510  0.9990649656266423  0.8750089084780970
  0.2484051518630073  0.4960124221079847  0.3715012293998814
  0.2503543915396666  0.4994207199644379  0.8760769200207126
  0.7470470702025348  0.9946501371534389  0.3757462460683125
  0.7509194363547477  0.0001502140258283  0.8748336521742399
  0.7516953116910439  0.5068017960142557  0.3735495632317044
  0.7493410897659897  0.5009251618882143  0.8757340739312547
  0.0000657169864394  0.0002290952966450  0.0000000000000000
  0.9983671174698538  0.9989853747867149  0.5000000000000000
  0.9999845924177723  0.4998034217320987  0.0000000000000000
  0.0003711908511780  0.5016277677041766  0.5000000000000000
  0.4997226361058311  0.0000395446895591  0.0000000000000000
  0.4999998392526671  0.9996843374510327  0.5000000000000000
  0.5000061170224971  0.4998134164281339  0.0000000000000000
  0.2500431877098732  0.2494547469950732  0.0000000000000000
  0.2481778423585341  0.2489866433931746  0.5000000000000000
  0.2496434053314959  0.7500549667695162  0.0000000000000000
  0.2411058083096143  0.7528612637335362  0.5000000000000000
  0.7501568983182456  0.2496961893551966  0.0000000000000000
  0.7499470752162983  0.7504609623583258  0.0000000000000000
  0.2499108171506175  0.2493789447064600  0.2485261045770091
  0.2499108171506175  0.2493789447064600  0.7514738954229909
  0.2510373819108958  0.7487138684708049  0.2505603742242871
  0.2510373819108958  0.7487138684708049  0.7494396257757130
  0.7491144834181751  0.2511833165430987  0.2505115187851357
  0.7491144834181751  0.2511833165430987  0.7494884812148713
  0.7499615092783130  0.7503440345096570  0.2495467262927736
  0.7499615092783130  0.7503440345096570  0.7504532737072265
  0.9999655613724741  0.9999162967838338  0.2504129211723192
  0.9999655613724741  0.9999162967838338  0.7495870788276879
  0.0000068858426813  0.4998789909007218  0.2496738632225634
  0.0000068858426813  0.4998789909007218  0.7503261367774366
  0.4997122018319657  0.9999800857397425  0.2488717744115500
  0.4997122018319657  0.9999800857397425  0.7511282255884500
  0.4999170586269471  0.4999756836607949  0.2497095999404315
  0.4999170586269471  0.4999756836607949  0.7502904000595685
  0.7591874042789721  0.2475392283765490  0.5000000000000000
  0.4996591748546920  0.4999799517138341  0.5000000000000000
  0.7509329949213338  0.7496648538087429  0.5000000000000000
  0.1093426491491338  0.1402767690271902  0.2488305113011889
  0.1093426491491338  0.1402767690271902  0.7511694886988111
  0.1100438469815002  0.6405125441077326  0.2516267046399088
  0.1100438469815002  0.6405125441077326  0.7483732953600912
  0.6087516808548947  0.1416073155210005  0.2495416519630363
  0.6087516808548947  0.1416073155210005  0.7504583480369637
  0.6082581345011486  0.6401589222180927  0.2482823509953509
  0.6082581345011486  0.6401589222180927  0.7517176490046490
  0.3905446686206662  0.3582829504772191  0.2494062441547341
  0.3905446686206662  0.3582829504772191  0.7505937558452659
  0.3910606005137012  0.8585831353401889  0.2500590661872849
  0.3910606005137012  0.8585831353401889  0.7499409338127150
  0.8903543231672150  0.3590975590072356  0.2505672488753270
  0.8903543231672150  0.3590975590072356  0.7494327511246731
  0.8911936932159644  0.8610612938581119  0.2470446084571849
  0.8911936932159644  0.8610612938581119  0.7529553915428151
  0.3586525786516896  0.1090432528142945  0.2493690859357851
  0.3586525786516896  0.1090432528142945  0.7506309140642148
  0.3590997905203827  0.6077125899010870  0.2476861508861105
  0.3590997905203827  0.6077125899010870  0.7523138491138894
  0.8584556452669134  0.1106948222250847  0.2547795025294603
  0.8584556452669134  0.1106948222250847  0.7452204974705398
  0.8610645362656389  0.6091431423123393  0.2474562898212525
  0.8610645362656389  0.6091431423123393  0.7525437101787475
  0.1404261360926009  0.3893900307218486  0.2482246307976376
  0.1404261360926009  0.3893900307218486  0.7517753692023624
  0.1415415823636399  0.8893485252874999  0.2539450201540167
  0.1415415823636399  0.8893485252874999  0.7460549798459832
  0.6404186471919510  0.3919260144526939  0.2486748730563976
  0.6404186471919510  0.3919260144526939  0.7513251269436024
  0.6393591037012275  0.8917769622737849  0.2483218141104153
  0.6393591037012275  0.8917769622737849  0.7516781858895847
  0.3592488085396639  0.3902391625825398  0.0000000000000000
  0.3587918265085214  0.8904957696960822  0.0000000000000000
  0.3633196700599451  0.8805255785242819  0.5000000000000000
  0.8594056496433533  0.3904098846568808  0.0000000000000000
  0.8597697683045898  0.8915720803653533  0.0000000000000000
  0.8621879970559181  0.8989199870450424  0.5000000000000000
  0.1411517025301096  0.1087662353868712  0.0000000000000000
  0.1415006047905438  0.1063537671438813  0.5000000000000000
  0.1407750637708023  0.6094788494739699  0.0000000000000000
  0.1539505190984575  0.6012841160739235  0.5000000000000000
  0.6409742593967278  0.1094205901392038  0.0000000000000000
  0.6323436284012013  0.1257900628046453  0.5000000000000000
  0.6398659689149440  0.6091463071794316  0.0000000000000000
  0.1094298770988611  0.3588514826265471  0.0000000000000000
  0.1076440929532840  0.3548262303067417  0.5000000000000000
  0.1089210954543051  0.8594448043494796  0.0000000000000000
  0.1071348281863792  0.8535577969063777  0.5000000000000000
  0.6101009248576917  0.3589186045649344  0.0000000000000000
  0.6086640599672956  0.8599786817156337  0.0000000000000000
  0.6094328870109219  0.8728825605964086  0.5000000000000000
  0.3910167561965483  0.1409950120779926  0.0000000000000000
  0.3848574784281252  0.1372044335517138  0.5000000000000000
  0.3898623202306145  0.6407360964129907  0.0000000000000000
  0.8910279807730335  0.1407514424689327  0.0000000000000000
  0.8931130358993991  0.1465723455859521  0.5000000000000000
  0.8910195601244497  0.6401542333826984  0.0000000000000000
  0.0007163740120615  0.0015148423202011  0.1254983328279084
  0.0015108029822266  0.0004692694842812  0.6246152295782398
  0.0013043429486116  0.4994433273469667  0.1246824746541184
  0.0021018933257671  0.4972381941360836  0.6257997930736225
  0.4986731086867179  0.0007444373969459  0.1245395690229303
  0.4982325730319277  0.0024581641265851  0.6261708135668691
  0.4994355446989850  0.4987193633411713  0.1243407883649873
  0.4976841094284539  0.4990039667294748  0.6241913962936245
  0.0015108029822266  0.0004692694842812  0.3753847704217602
  0.0007163740120615  0.0015148423202011  0.8745016671720917
  0.0021018933257671  0.4972381941360836  0.3742002069263773
  0.0013043429486116  0.4994433273469667  0.8753175253458817
  0.4982325730319277  0.0024581641265851  0.3738291864331308
  0.4986731086867179  0.0007444373969459  0.8754604309770697
  0.4994355446989850  0.4987193633411713  0.8756592116350127
  0.2487563587120963  0.2491909995671422  0.3739783391558720
  0.2502099874047078  0.2492612590228181  0.8756157249045331
  0.2614814249300024  0.7407929630965766  0.3777649051835925
  0.2485438539623764  0.7509251640839422  0.8744489127596766
  0.7513080030704063  0.2490375227941003  0.8744329106898375
  0.7496503159358205  0.7501740213667077  0.8766957325032345
  0.2502099874047078  0.2492612590228181  0.1243842750954669
  0.2487563587120963  0.2491909995671422  0.6260216608441280
  0.2485438539623764  0.7509251640839422  0.1255510872403234
  0.2614814249300024  0.7407929630965766  0.6222350948164075
  0.7513080030704063  0.2490375227941003  0.1255670893101624
  0.7400516056401226  0.2602790879825431  0.6223505118576064
  0.7496503159358205  0.7501740213667077  0.1233042674967655
  0.7511690472508830  0.7508710508040126  0.6320201208399634
  0.7400516056401226  0.2602790879825431  0.3776494881423937
  0.8514266589351969  0.3962210881804079  0.5000000000000000
  0.4976841094284539  0.4990039667294748  0.3758086037063755
  0.3626720519213047  0.3874453636711457  0.5000000000000000
  0.9039706417049200  0.6389735291118050  0.5000000000000000
  0.7511690472508830  0.7508710508040126  0.3679798791600367
  0.6330576952433894  0.6068475072993706  0.5000000000000000
 
  0.00000000E+00  0.00000000E+00  0.00000000E+00
  0.00000000E+00  0.00000000E+00  0.00000000E+00
  0.00000000E+00  0.00000000E+00  0.00000000E+00
  0.00000000E+00  0.00000000E+00  0.00000000E+00
  0.00000000E+00  0.00000000E+00  0.00000000E+00
  0.00000000E+00  0.00000000E+00  0.00000000E+00
  0.00000000E+00  0.00000000E+00  0.00000000E+00
  0.00000000E+00  0.00000000E+00  0.00000000E+00
  0.00000000E+00  0.00000000E+00  0.00000000E+00
  0.00000000E+00  0.00000000E+00  0.00000000E+00
  0.00000000E+00  0.00000000E+00  0.00000000E+00
  0.00000000E+00  0.00000000E+00  0.00000000E+00
  0.00000000E+00  0.00000000E+00  0.00000000E+00
  0.00000000E+00  0.00000000E+00  0.00000000E+00
  0.00000000E+00  0.00000000E+00  0.00000000E+00
  0.00000000E+00  0.00000000E+00  0.00000000E+00
  0.00000000E+00  0.00000000E+00  0.00000000E+00
  0.00000000E+00  0.00000000E+00  0.00000000E+00
  0.00000000E+00  0.00000000E+00  0.00000000E+00
  0.00000000E+00  0.00000000E+00  0.00000000E+00
  0.00000000E+00  0.00000000E+00  0.00000000E+00
  0.00000000E+00  0.00000000E+00  0.00000000E+00
  0.00000000E+00  0.00000000E+00  0.00000000E+00
  0.00000000E+00  0.00000000E+00  0.00000000E+00
  0.00000000E+00  0.00000000E+00  0.00000000E+00
  0.00000000E+00  0.00000000E+00  0.00000000E+00
  0.00000000E+00  0.00000000E+00  0.00000000E+00
  0.00000000E+00  0.00000000E+00  0.00000000E+00
  0.00000000E+00  0.00000000E+00  0.00000000E+00
  0.00000000E+00  0.00000000E+00  0.00000000E+00
  0.00000000E+00  0.00000000E+00  0.00000000E+00
  0.00000000E+00  0.00000000E+00  0.00000000E+00
  0.00000000E+00  0.00000000E+00  0.00000000E+00
  0.00000000E+00  0.00000000E+00  0.00000000E+00
  0.00000000E+00  0.00000000E+00  0.00000000E+00
  0.00000000E+00  0.00000000E+00  0.00000000E+00
  0.00000000E+00  0.00000000E+00  0.00000000E+00
  0.00000000E+00  0.00000000E+00  0.00000000E+00
  0.00000000E+00  0.00000000E+00  0.00000000E+00
  0.00000000E+00  0.00000000E+00  0.00000000E+00
  0.00000000E+00  0.00000000E+00  0.00000000E+00
  0.00000000E+00  0.00000000E+00  0.00000000E+00
  0.00000000E+00  0.00000000E+00  0.00000000E+00
  0.00000000E+00  0.00000000E+00  0.00000000E+00
  0.00000000E+00  0.00000000E+00  0.00000000E+00
  0.00000000E+00  0.00000000E+00  0.00000000E+00
  0.00000000E+00  0.00000000E+00  0.00000000E+00
  0.00000000E+00  0.00000000E+00  0.00000000E+00
  0.00000000E+00  0.00000000E+00  0.00000000E+00
  0.00000000E+00  0.00000000E+00  0.00000000E+00
  0.00000000E+00  0.00000000E+00  0.00000000E+00
  0.00000000E+00  0.00000000E+00  0.00000000E+00
  0.00000000E+00  0.00000000E+00  0.00000000E+00
  0.00000000E+00  0.00000000E+00  0.00000000E+00
  0.00000000E+00  0.00000000E+00  0.00000000E+00
  0.00000000E+00  0.00000000E+00  0.00000000E+00
  0.00000000E+00  0.00000000E+00  0.00000000E+00
  0.00000000E+00  0.00000000E+00  0.00000000E+00
  0.00000000E+00  0.00000000E+00  0.00000000E+00
  0.00000000E+00  0.00000000E+00  0.00000000E+00
  0.00000000E+00  0.00000000E+00  0.00000000E+00
  0.00000000E+00  0.00000000E+00  0.00000000E+00
  0.00000000E+00  0.00000000E+00  0.00000000E+00
  0.00000000E+00  0.00000000E+00  0.00000000E+00
  0.00000000E+00  0.00000000E+00  0.00000000E+00
  0.00000000E+00  0.00000000E+00  0.00000000E+00
  0.00000000E+00  0.00000000E+00  0.00000000E+00
  0.00000000E+00  0.00000000E+00  0.00000000E+00
  0.00000000E+00  0.00000000E+00  0.00000000E+00
  0.00000000E+00  0.00000000E+00  0.00000000E+00
  0.00000000E+00  0.00000000E+00  0.00000000E+00
  0.00000000E+00  0.00000000E+00  0.00000000E+00
  0.00000000E+00  0.00000000E+00  0.00000000E+00
  0.00000000E+00  0.00000000E+00  0.00000000E+00
  0.00000000E+00  0.00000000E+00  0.00000000E+00
  0.00000000E+00  0.00000000E+00  0.00000000E+00
  0.00000000E+00  0.00000000E+00  0.00000000E+00
  0.00000000E+00  0.00000000E+00  0.00000000E+00
  0.00000000E+00  0.00000000E+00  0.00000000E+00
  0.00000000E+00  0.00000000E+00  0.00000000E+00
  0.00000000E+00  0.00000000E+00  0.00000000E+00
  0.00000000E+00  0.00000000E+00  0.00000000E+00
  0.00000000E+00  0.00000000E+00  0.00000000E+00
  0.00000000E+00  0.00000000E+00  0.00000000E+00
  0.00000000E+00  0.00000000E+00  0.00000000E+00
  0.00000000E+00  0.00000000E+00  0.00000000E+00
  0.00000000E+00  0.00000000E+00  0.00000000E+00
  0.00000000E+00  0.00000000E+00  0.00000000E+00
  0.00000000E+00  0.00000000E+00  0.00000000E+00
  0.00000000E+00  0.00000000E+00  0.00000000E+00
  0.00000000E+00  0.00000000E+00  0.00000000E+00
  0.00000000E+00  0.00000000E+00  0.00000000E+00
  0.00000000E+00  0.00000000E+00  0.00000000E+00
  0.00000000E+00  0.00000000E+00  0.00000000E+00
  0.00000000E+00  0.00000000E+00  0.00000000E+00
  0.00000000E+00  0.00000000E+00  0.00000000E+00
  0.00000000E+00  0.00000000E+00  0.00000000E+00
  0.00000000E+00  0.00000000E+00  0.00000000E+00
  0.00000000E+00  0.00000000E+00  0.00000000E+00
  0.00000000E+00  0.00000000E+00  0.00000000E+00
  0.00000000E+00  0.00000000E+00  0.00000000E+00
  0.00000000E+00  0.00000000E+00  0.00000000E+00
  0.00000000E+00  0.00000000E+00  0.00000000E+00
  0.00000000E+00  0.00000000E+00  0.00000000E+00
  0.00000000E+00  0.00000000E+00  0.00000000E+00
  0.00000000E+00  0.00000000E+00  0.00000000E+00
  0.00000000E+00  0.00000000E+00  0.00000000E+00
  0.00000000E+00  0.00000000E+00  0.00000000E+00
  0.00000000E+00  0.00000000E+00  0.00000000E+00
  0.00000000E+00  0.00000000E+00  0.00000000E+00
  0.00000000E+00  0.00000000E+00  0.00000000E+00
  0.00000000E+00  0.00000000E+00  0.00000000E+00
  0.00000000E+00  0.00000000E+00  0.00000000E+00
  0.00000000E+00  0.00000000E+00  0.00000000E+00
  0.00000000E+00  0.00000000E+00  0.00000000E+00
  0.00000000E+00  0.00000000E+00  0.00000000E+00
  0.00000000E+00  0.00000000E+00  0.00000000E+00
  0.00000000E+00  0.00000000E+00  0.00000000E+00
  0.00000000E+00  0.00000000E+00  0.00000000E+00
  0.00000000E+00  0.00000000E+00  0.00000000E+00
  0.00000000E+00  0.00000000E+00  0.00000000E+00
  0.00000000E+00  0.00000000E+00  0.00000000E+00
  0.00000000E+00  0.00000000E+00  0.00000000E+00
  0.00000000E+00  0.00000000E+00  0.00000000E+00
  0.00000000E+00  0.00000000E+00  0.00000000E+00
  0.00000000E+00  0.00000000E+00  0.00000000E+00
  0.00000000E+00  0.00000000E+00  0.00000000E+00
  0.00000000E+00  0.00000000E+00  0.00000000E+00
  0.00000000E+00  0.00000000E+00  0.00000000E+00
  0.00000000E+00  0.00000000E+00  0.00000000E+00
  0.00000000E+00  0.00000000E+00  0.00000000E+00
  0.00000000E+00  0.00000000E+00  0.00000000E+00
  0.00000000E+00  0.00000000E+00  0.00000000E+00
  0.00000000E+00  0.00000000E+00  0.00000000E+00
  0.00000000E+00  0.00000000E+00  0.00000000E+00
  0.00000000E+00  0.00000000E+00  0.00000000E+00
  0.00000000E+00  0.00000000E+00  0.00000000E+00
  0.00000000E+00  0.00000000E+00  0.00000000E+00
  0.00000000E+00  0.00000000E+00  0.00000000E+00
  0.00000000E+00  0.00000000E+00  0.00000000E+00
  0.00000000E+00  0.00000000E+00  0.00000000E+00
  0.00000000E+00  0.00000000E+00  0.00000000E+00
  0.00000000E+00  0.00000000E+00  0.00000000E+00
  0.00000000E+00  0.00000000E+00  0.00000000E+00
  0.00000000E+00  0.00000000E+00  0.00000000E+00
  0.00000000E+00  0.00000000E+00  0.00000000E+00
  0.00000000E+00  0.00000000E+00  0.00000000E+00
  0.00000000E+00  0.00000000E+00  0.00000000E+00
  0.00000000E+00  0.00000000E+00  0.00000000E+00
  0.00000000E+00  0.00000000E+00  0.00000000E+00
  0.00000000E+00  0.00000000E+00  0.00000000E+00
  0.00000000E+00  0.00000000E+00  0.00000000E+00
  0.00000000E+00  0.00000000E+00  0.00000000E+00
  0.00000000E+00  0.00000000E+00  0.00000000E+00
  0.00000000E+00  0.00000000E+00  0.00000000E+00
  0.00000000E+00  0.00000000E+00  0.00000000E+00
  0.00000000E+00  0.00000000E+00  0.00000000E+00
  0.00000000E+00  0.00000000E+00  0.00000000E+00
