SrTiFeO                                 
   1.00000000000000     
    11.1989999999999998    0.0000000000000000    0.0000000000000000
     0.0000000000000000   11.1989999999999998    0.0000000000000000
     0.0000000000000000    0.0000000000000000   15.9830000000000005
   Sr   Ti   Fe   O 
    32    29     3    94
Direct
  0.9991505793926130  0.2500297408637952  0.1246711181440593
  0.9996115793122896  0.2413810104917050  0.6276270052471919
  0.9987071997690986  0.7493190938903834  0.1245200323327429
  0.0051249906589388  0.7586203415489239  0.6292942667313099
  0.5003594632814139  0.2495711548751349  0.1250569348529259
  0.5007039005534688  0.2425772520343000  0.6265337706894583
  0.5011118960065578  0.7497220701379792  0.1254845144214833
  0.4976483918654012  0.7575624080712942  0.6259052185005122
  0.9996081606669375  0.2429292010759307  0.3732659871605525
  0.9990541281608318  0.2499989960029649  0.8746138075452963
  0.0041381533352141  0.7560780595198381  0.3721094967557554
  0.9990385768121689  0.7495008248092064  0.8747899678431170
  0.5011968551145615  0.2520895965985993  0.3754184564778121
  0.4994954461692739  0.2497287846782194  0.8746388721412568
  0.4988338216732511  0.7483721023887453  0.3758362748955372
  0.5013335465824231  0.7498528308237873  0.8749373730115567
  0.2495529276874924  0.0002485727665411  0.1249045903951932
  0.2480801382662966 -0.0000167907376266  0.6252349985748261
  0.2488292224907346  0.4989579615354954  0.1256975987702313
  0.2467268718302109  0.5030717431577583  0.6254528207569072
  0.7499829489190908  0.9983302473130110  0.1256318722175554
  0.7547009289559070  0.9992666130690226  0.6246244388208569
  0.7490293929793604  0.5004314549296376  0.1241955699342594
  0.7531532486585281  0.5001734101190268  0.6282124999457591
  0.2503259198641610  0.0003603924210425  0.3754588941143019
  0.2500098390423641  0.0003945799527573  0.8739886645112706
  0.2587000206672949  0.5004123954830664  0.3766103697424302
  0.2488814432100856  0.5002979473770940  0.8744413532559300
  0.7522664127963538  0.9999715478234845  0.3768418112328659
  0.7498460242333105  0.9976854672493864  0.8735478420531850
  0.7433950642355124  0.5005532354597686  0.3745233793666944
  0.7493632765624272  0.4998203344832876  0.8762082306697561
  0.0001050254810105  0.9998364843650279  0.9996480208694193
  0.0004305982653876  0.9989617430866355  0.4994395742522891
  0.0004386626703128  0.4993333947005115  0.0001222229962244
  0.0066707616281523  0.4870032728087036  0.4993377082654364
  0.5002473323516600  0.9995024811239038  0.0000301300739674
  0.5000803729052888  0.0005642248835089  0.4995876392063109
  0.4994855567347116  0.5000511481766745  0.0022442077924565
  0.2498248249698910  0.2508099729733393  0.9998097244904414
  0.2563278360679738  0.2481327469298785  0.5010267248737046
  0.2503931970579881  0.7498990740637045  1.0000671045983054
  0.2517223242233915  0.7501971051726563  0.5007998096686478
  0.7495445147342025  0.2498017478058541  0.9999381932584970
  0.7468902183353944  0.2519117659058226  0.5014566524440033
  0.7489458072724829  0.7498973833986904  0.9998860762651131
  0.2505570498099098  0.2505497672974095  0.2504315720311449
  0.2514102666458020  0.2520036080264782  0.7482146509881232
  0.2508111396821431  0.7493896114884229  0.2496064573950267
  0.2521481191276376  0.7486211791684910  0.7498083892970225
  0.7495011986608481  0.2507056587267097  0.2501281994091863
  0.7486253586307353  0.2512975631108277  0.7493539516800137
  0.7507724735183450  0.7487620768953636  0.2523689326379579
  0.7497558570175592  0.7475188971318126  0.7467065595003815
  0.0000319109654935  1.0000619237376629  0.2497220992742933
  0.0001518375655068  0.0002042432689695  0.7525434672162173
  0.9987144473471044  0.5009428747663470  0.2507417376073753
  0.9988178123952816  0.5008736936153235  0.7501760389940948
  0.5005083882187358  0.9999576904815217  0.2506196990334336
  0.5006240793919625  0.9998906402116667  0.7501161551463308
  0.4996249072055204  0.5001313988994810  0.2500424950892450
  0.5000564508763000  0.5001327561285258  0.7594073599322955
  0.5039763815361820  0.5012138723055994  0.4965846319667730
  0.7384496299254276  0.7571474133886272  0.5011286181957020
  0.1094179948293064  0.1408957880072642  0.2497956473409936
  0.1112548762107470  0.1391884118638687  0.7538709290167747
  0.1085289253312100  0.6411599832599842  0.2502131483972729
  0.1119728858619749  0.6380793251823661  0.7500106818035611
  0.6091265619822370  0.1408646465888824  0.2501006635489325
  0.6120484920383893  0.1373582776561305  0.7508370060431703
  0.6092221085937025  0.6416146097370040  0.2500226338497257
  0.3895649340927917  0.3583784060059480  0.2461950528477072
  0.3879249838053794  0.3658581885746626  0.7375625028228854
  0.3913927265774393  0.8587531075592397  0.2504329761160974
  0.3889230870136318  0.8621041388716515  0.7508393388730485
  0.8914679890363089  0.3589824456803392  0.2518826068678466
  0.8888241336040501  0.3618936584481030  0.7479919241781535
  0.8912270493867310  0.8595594860454121  0.2487630331908236
  0.8895370330643224  0.8614556184786198  0.7541048048885534
  0.3588951600654036  0.1091301717120800  0.2486487770760087
  0.3625779198185082  0.1128763920195674  0.7512450530000042
  0.3581401514327636  0.6093237926782055  0.2463081486034150
  0.3647600556157894  0.6116314399890400  0.7393745845417287
  0.8592290274427024  0.1097709008109020  0.2511324222483626
  0.8616548533287597  0.1112478059628697  0.7527037169773126
  0.8589024093226373  0.6084984987364734  0.2443427931889058
  0.8613733086685933  0.6100448767245022  0.7561442498972769
  0.1391516631523618  0.3923733644042017  0.2566822598960974
  0.1364444541551856  0.3899590997990908  0.7439267923273413
  0.1407482879432482  0.8899247073913703  0.2523530486445313
  0.1387371590662466  0.8884553647567981  0.7518029549854199
  0.6408893321171016  0.3901485119929355  0.2475317323143592
  0.6414732345289011  0.8902125422827418  0.2546882015738997
  0.6388734850612487  0.8872131980770108  0.7451461794331833
  0.3584970184305434  0.3915162940384719  0.0011027538617288
  0.3587994292355495  0.8914275769924321  0.9992899851877226
  0.3594543266213872  0.8911761441295228  0.4998575681406590
  0.8593562568625989  0.3908415253277874  1.0000138316918614
  0.8561946923350771  0.3981846044037799  0.5003643103610924
  0.8592082754770491  0.8901415347141506  0.9988384688827745
  0.8683062456388408  0.8796915868258812  0.4980616829728062
  0.1415558072733002  0.1096896622053329  0.9981910075015168
  0.1392810901293401  0.1094510791402687  0.4977613859164956
  0.1408565733239426  0.6088160945351501  0.9999183824173004
  0.1265266281375434  0.6160987553182470  0.4995895241579097
  0.6409419378792425  0.1091632852627398  0.9992297649701999
  0.6412028247294105  0.1080672992601670  0.5004159037137552
  0.6408257153303977  0.6087592624765403  0.0005415854386816
  0.1087863156348860  0.3585858997153156  0.9991645296544004
  0.1060619384263313  0.3567189675331332  0.4993634912056250
  0.1095346201114042  0.8587426808194931  0.9985732132741092
  0.1133517194626542  0.8629418648205944  0.4977915614421707
  0.6088785539778738  0.3585876190209779  0.0005944249691068
  0.6081907686460143  0.8591012733728726  0.9998735962177754
  0.6059458009640363  0.8615292137517315  0.4997062691794871
  0.3907714286061031  0.1410495416311981  0.9997152805334001
  0.3920284850285686  0.1406372342083669  0.4998578078186546
  0.3911310630615381  0.6416916483964809  0.0010801951360170
  0.3866077615476976  0.6401122648161557  0.5101879882773281
  0.8904903138794324  0.1408571776740880  0.9989237033384846
  0.8895895422331812  0.1386901233678637  0.4982973451904347
  0.8905369226418126  0.6397648249739455  0.9992603219171848
  0.0011214637674966  0.0002253008484762  0.1244613807274308
  0.9999964494747203  0.0008483268298129  0.6260206911213785
  0.0028450251570334  0.4971378902948419  0.1254790333941732
  0.9881260199832147  0.5152381829864247  0.6208464035123494
  0.5019283512722865  0.9986481893700541  0.1252765246168046
  0.4974194730617802  0.0015345024112745  0.6249707440869885
  0.5010391874295050  0.5004661347698397  0.1239290094527612
  0.9992624682610495  0.0008585389686142  0.3735876966387277
  0.0006120147398598 -0.0000185610961621  0.8763513740696641
  0.9848029407445007  0.5152560277606263  0.3790334228286465
  0.0029731313331487  0.4970441614063549  0.8745331092755179
  0.4978382058108280  0.0022877806113225  0.3751366189582544
  0.5020438843580103  0.9984548469269284  0.8747315758593163
  0.4997941917279564  0.5001310392480869  0.8768151333406008
  0.2537971616998251  0.2510218253561892  0.3753609975696190
  0.2538967903590653  0.2576726742223618  0.8733661855289284
  0.2551254011101883  0.7447620664612816  0.3754048636040132
  0.2538936433540048  0.7451369510457267  0.8742053578778700
  0.7460587996558492  0.2528842609631678  0.3759111593744883
  0.7474334635530362  0.2555416557677620  0.8741137488726765
  0.7608589200541557  0.7395336218560369  0.3761233037027848
  0.7424728717601886  0.7481152396048849  0.8741237616470378
  0.2458416570684583  0.2514505108982000  0.1248276183495531
  0.2428394191852088  0.2394461656023026  0.6250433444519270
  0.2481152051866596  0.7524864158691424  0.1247334062935220
  0.2441812529518916  0.7561505629519044  0.6255107560555230
  0.7515250092171637  0.2490289639480055  0.1249049999153721
  0.7571451844267079  0.2424931474839610  0.6254835032153266
  0.7484139902438849  0.7526842505654076  0.1245340043527924
  0.6345646182433815  0.3873947183039012  0.7402557819224783
  0.6111192485718293  0.6347087551464136  0.7369188837992892
  0.4952324157449727  0.4979544773073018  0.3690276321424319
  0.6093980998345496  0.3560196647877306  0.5105801329883347
  0.3530384326629352  0.3873148018399104  0.5091766469664162
  0.7704243034395520  0.7481059147286608  0.6246954382024668
  0.6550202548097556  0.6093892016655709  0.5079331718604027
 
  0.00000000E+00  0.00000000E+00  0.00000000E+00
  0.00000000E+00  0.00000000E+00  0.00000000E+00
  0.00000000E+00  0.00000000E+00  0.00000000E+00
  0.00000000E+00  0.00000000E+00  0.00000000E+00
  0.00000000E+00  0.00000000E+00  0.00000000E+00
  0.00000000E+00  0.00000000E+00  0.00000000E+00
  0.00000000E+00  0.00000000E+00  0.00000000E+00
  0.00000000E+00  0.00000000E+00  0.00000000E+00
  0.00000000E+00  0.00000000E+00  0.00000000E+00
  0.00000000E+00  0.00000000E+00  0.00000000E+00
  0.00000000E+00  0.00000000E+00  0.00000000E+00
  0.00000000E+00  0.00000000E+00  0.00000000E+00
  0.00000000E+00  0.00000000E+00  0.00000000E+00
  0.00000000E+00  0.00000000E+00  0.00000000E+00
  0.00000000E+00  0.00000000E+00  0.00000000E+00
  0.00000000E+00  0.00000000E+00  0.00000000E+00
  0.00000000E+00  0.00000000E+00  0.00000000E+00
  0.00000000E+00  0.00000000E+00  0.00000000E+00
  0.00000000E+00  0.00000000E+00  0.00000000E+00
  0.00000000E+00  0.00000000E+00  0.00000000E+00
  0.00000000E+00  0.00000000E+00  0.00000000E+00
  0.00000000E+00  0.00000000E+00  0.00000000E+00
  0.00000000E+00  0.00000000E+00  0.00000000E+00
  0.00000000E+00  0.00000000E+00  0.00000000E+00
  0.00000000E+00  0.00000000E+00  0.00000000E+00
  0.00000000E+00  0.00000000E+00  0.00000000E+00
  0.00000000E+00  0.00000000E+00  0.00000000E+00
  0.00000000E+00  0.00000000E+00  0.00000000E+00
  0.00000000E+00  0.00000000E+00  0.00000000E+00
  0.00000000E+00  0.00000000E+00  0.00000000E+00
  0.00000000E+00  0.00000000E+00  0.00000000E+00
  0.00000000E+00  0.00000000E+00  0.00000000E+00
  0.00000000E+00  0.00000000E+00  0.00000000E+00
  0.00000000E+00  0.00000000E+00  0.00000000E+00
  0.00000000E+00  0.00000000E+00  0.00000000E+00
  0.00000000E+00  0.00000000E+00  0.00000000E+00
  0.00000000E+00  0.00000000E+00  0.00000000E+00
  0.00000000E+00  0.00000000E+00  0.00000000E+00
  0.00000000E+00  0.00000000E+00  0.00000000E+00
  0.00000000E+00  0.00000000E+00  0.00000000E+00
  0.00000000E+00  0.00000000E+00  0.00000000E+00
  0.00000000E+00  0.00000000E+00  0.00000000E+00
  0.00000000E+00  0.00000000E+00  0.00000000E+00
  0.00000000E+00  0.00000000E+00  0.00000000E+00
  0.00000000E+00  0.00000000E+00  0.00000000E+00
  0.00000000E+00  0.00000000E+00  0.00000000E+00
  0.00000000E+00  0.00000000E+00  0.00000000E+00
  0.00000000E+00  0.00000000E+00  0.00000000E+00
  0.00000000E+00  0.00000000E+00  0.00000000E+00
  0.00000000E+00  0.00000000E+00  0.00000000E+00
  0.00000000E+00  0.00000000E+00  0.00000000E+00
  0.00000000E+00  0.00000000E+00  0.00000000E+00
  0.00000000E+00  0.00000000E+00  0.00000000E+00
  0.00000000E+00  0.00000000E+00  0.00000000E+00
  0.00000000E+00  0.00000000E+00  0.00000000E+00
  0.00000000E+00  0.00000000E+00  0.00000000E+00
  0.00000000E+00  0.00000000E+00  0.00000000E+00
  0.00000000E+00  0.00000000E+00  0.00000000E+00
  0.00000000E+00  0.00000000E+00  0.00000000E+00
  0.00000000E+00  0.00000000E+00  0.00000000E+00
  0.00000000E+00  0.00000000E+00  0.00000000E+00
  0.00000000E+00  0.00000000E+00  0.00000000E+00
  0.00000000E+00  0.00000000E+00  0.00000000E+00
  0.00000000E+00  0.00000000E+00  0.00000000E+00
  0.00000000E+00  0.00000000E+00  0.00000000E+00
  0.00000000E+00  0.00000000E+00  0.00000000E+00
  0.00000000E+00  0.00000000E+00  0.00000000E+00
  0.00000000E+00  0.00000000E+00  0.00000000E+00
  0.00000000E+00  0.00000000E+00  0.00000000E+00
  0.00000000E+00  0.00000000E+00  0.00000000E+00
  0.00000000E+00  0.00000000E+00  0.00000000E+00
  0.00000000E+00  0.00000000E+00  0.00000000E+00
  0.00000000E+00  0.00000000E+00  0.00000000E+00
  0.00000000E+00  0.00000000E+00  0.00000000E+00
  0.00000000E+00  0.00000000E+00  0.00000000E+00
  0.00000000E+00  0.00000000E+00  0.00000000E+00
  0.00000000E+00  0.00000000E+00  0.00000000E+00
  0.00000000E+00  0.00000000E+00  0.00000000E+00
  0.00000000E+00  0.00000000E+00  0.00000000E+00
  0.00000000E+00  0.00000000E+00  0.00000000E+00
  0.00000000E+00  0.00000000E+00  0.00000000E+00
  0.00000000E+00  0.00000000E+00  0.00000000E+00
  0.00000000E+00  0.00000000E+00  0.00000000E+00
  0.00000000E+00  0.00000000E+00  0.00000000E+00
  0.00000000E+00  0.00000000E+00  0.00000000E+00
  0.00000000E+00  0.00000000E+00  0.00000000E+00
  0.00000000E+00  0.00000000E+00  0.00000000E+00
  0.00000000E+00  0.00000000E+00  0.00000000E+00
  0.00000000E+00  0.00000000E+00  0.00000000E+00
  0.00000000E+00  0.00000000E+00  0.00000000E+00
  0.00000000E+00  0.00000000E+00  0.00000000E+00
  0.00000000E+00  0.00000000E+00  0.00000000E+00
  0.00000000E+00  0.00000000E+00  0.00000000E+00
  0.00000000E+00  0.00000000E+00  0.00000000E+00
  0.00000000E+00  0.00000000E+00  0.00000000E+00
  0.00000000E+00  0.00000000E+00  0.00000000E+00
  0.00000000E+00  0.00000000E+00  0.00000000E+00
  0.00000000E+00  0.00000000E+00  0.00000000E+00
  0.00000000E+00  0.00000000E+00  0.00000000E+00
  0.00000000E+00  0.00000000E+00  0.00000000E+00
  0.00000000E+00  0.00000000E+00  0.00000000E+00
  0.00000000E+00  0.00000000E+00  0.00000000E+00
  0.00000000E+00  0.00000000E+00  0.00000000E+00
  0.00000000E+00  0.00000000E+00  0.00000000E+00
  0.00000000E+00  0.00000000E+00  0.00000000E+00
  0.00000000E+00  0.00000000E+00  0.00000000E+00
  0.00000000E+00  0.00000000E+00  0.00000000E+00
  0.00000000E+00  0.00000000E+00  0.00000000E+00
  0.00000000E+00  0.00000000E+00  0.00000000E+00
  0.00000000E+00  0.00000000E+00  0.00000000E+00
  0.00000000E+00  0.00000000E+00  0.00000000E+00
  0.00000000E+00  0.00000000E+00  0.00000000E+00
  0.00000000E+00  0.00000000E+00  0.00000000E+00
  0.00000000E+00  0.00000000E+00  0.00000000E+00
  0.00000000E+00  0.00000000E+00  0.00000000E+00
  0.00000000E+00  0.00000000E+00  0.00000000E+00
  0.00000000E+00  0.00000000E+00  0.00000000E+00
  0.00000000E+00  0.00000000E+00  0.00000000E+00
  0.00000000E+00  0.00000000E+00  0.00000000E+00
  0.00000000E+00  0.00000000E+00  0.00000000E+00
  0.00000000E+00  0.00000000E+00  0.00000000E+00
  0.00000000E+00  0.00000000E+00  0.00000000E+00
  0.00000000E+00  0.00000000E+00  0.00000000E+00
  0.00000000E+00  0.00000000E+00  0.00000000E+00
  0.00000000E+00  0.00000000E+00  0.00000000E+00
  0.00000000E+00  0.00000000E+00  0.00000000E+00
  0.00000000E+00  0.00000000E+00  0.00000000E+00
  0.00000000E+00  0.00000000E+00  0.00000000E+00
  0.00000000E+00  0.00000000E+00  0.00000000E+00
  0.00000000E+00  0.00000000E+00  0.00000000E+00
  0.00000000E+00  0.00000000E+00  0.00000000E+00
  0.00000000E+00  0.00000000E+00  0.00000000E+00
  0.00000000E+00  0.00000000E+00  0.00000000E+00
  0.00000000E+00  0.00000000E+00  0.00000000E+00
  0.00000000E+00  0.00000000E+00  0.00000000E+00
  0.00000000E+00  0.00000000E+00  0.00000000E+00
  0.00000000E+00  0.00000000E+00  0.00000000E+00
  0.00000000E+00  0.00000000E+00  0.00000000E+00
  0.00000000E+00  0.00000000E+00  0.00000000E+00
  0.00000000E+00  0.00000000E+00  0.00000000E+00
  0.00000000E+00  0.00000000E+00  0.00000000E+00
  0.00000000E+00  0.00000000E+00  0.00000000E+00
  0.00000000E+00  0.00000000E+00  0.00000000E+00
  0.00000000E+00  0.00000000E+00  0.00000000E+00
  0.00000000E+00  0.00000000E+00  0.00000000E+00
  0.00000000E+00  0.00000000E+00  0.00000000E+00
  0.00000000E+00  0.00000000E+00  0.00000000E+00
  0.00000000E+00  0.00000000E+00  0.00000000E+00
  0.00000000E+00  0.00000000E+00  0.00000000E+00
  0.00000000E+00  0.00000000E+00  0.00000000E+00
  0.00000000E+00  0.00000000E+00  0.00000000E+00
  0.00000000E+00  0.00000000E+00  0.00000000E+00
  0.00000000E+00  0.00000000E+00  0.00000000E+00
  0.00000000E+00  0.00000000E+00  0.00000000E+00
  0.00000000E+00  0.00000000E+00  0.00000000E+00
  0.00000000E+00  0.00000000E+00  0.00000000E+00
  0.00000000E+00  0.00000000E+00  0.00000000E+00
  0.00000000E+00  0.00000000E+00  0.00000000E+00
