Sr   Ti   Fe   O                        
   1.00000000000000     
    11.1989999999999998    0.0000000000000000    0.0000000000000000
     0.0000000000000000   11.1989999999999998    0.0000000000000000
     0.0000000000000000    0.0000000000000000   15.9830000000000005
   Sr   Ti   Fe   O 
    32    29     3    94
Direct
  0.9995592045804147  0.2497849362382987  0.1243073388105432
  0.0005985439983328  0.2428029174934510  0.6289728380282050
  0.9980086835784050  0.7503793063655485  0.1250131988238388
  0.0059572530688043  0.7574440705968682  0.6297357570724086
  0.4999005863196140  0.2502324638450860  0.1254731068834555
  0.5022021898651551  0.2432360698069138  0.6252123998778742
  0.5011826951182962  0.7503016354077814  0.1242310362132989
  0.4964811963446504  0.7494237647161557  0.6262829482339417
  0.0009275736365624  0.2439938348498751  0.3727586142609580
  0.9999402295917165  0.2502492216840147  0.8749268095909860
  0.0043746791067242  0.7547878848400984  0.3738476333090291
  0.9987326009840524  0.7496208183436149  0.8746368426710320
  0.5008913742785711  0.2445034433231015  0.3727905830708949
  0.5001020335317337  0.2501015518677999  0.8737060085033880
  0.4960141029022200  0.7489772610503626  0.3733321084712780
  0.5023472755230916  0.7501287729120401  0.8754086099838657
  0.2503587467670905  0.0007625900886908  0.1246428643365045
  0.2491522954793644  0.9997064459846893  0.6252616079711190
  0.2491395137345302  0.5003009560770147  0.1257820873733583
  0.2442468933022068  0.5037414316141452  0.6268239930162255
  0.7492975045317628  0.9977116202424665  0.1252814980568663
  0.7547582147857870 -0.0010182498369225  0.6246889171238540
  0.7492073355104348  0.5000158945640054  0.1232602786833196
  0.7550600674761406  0.4969925322571287  0.6347673234468051
  0.2492672675736081  0.9996753608351316  0.3751225050453313
  0.2504034191830006  0.0004875989123402  0.8737613657739669
  0.2515559213814215  0.5029698542950758  0.3764516827105377
  0.2501841931806024  0.5006132400966303  0.8747909335787366
  0.7533293037403768  0.0002664766299285  0.3757024902941414
  0.7506785217896631  0.9978398981560050  0.8736484649789040
  0.7497034894027594  0.4924891534262482  0.3674629940893349
  0.7486328648747514  0.5005647236940811  0.8760045309773580
  1.0001274173322701  0.9998035672164535  0.9998511518189255
 -0.0006050124948613  1.0010645717865909  0.4998416241358816
  0.0008055507968877  0.4992274995398983  1.0001914569712766
  0.0038834570465849  0.4871651961155691  0.5000221682972993
  0.5005970826911057  0.9997807694854697  0.9997087148022060
  0.5017896945645849  0.9948774585054024  0.4998181006587548
  0.4989474535155990  0.4996785599774421  0.0017186832133350
  0.2505250435747572  0.2510928269545235  0.9998798676199177
  0.2559875483853125  0.2444855732407819  0.5011024797115435
  0.2503671073513626  0.7499461484923068  0.9999958090426553
  0.2484613499196668  0.7520211282944500  0.4997828646326459
  0.7499942469664960  0.2496303971473832  0.9997885509442069
  0.7457115105594979  0.2504852794187724  0.5000312610358018
  0.7500930757630352  0.7505666900712279  1.0001103409213450
  0.2503949351330433  0.2509806021070785  0.2505778010031358
  0.2530253262236947  0.2524971814522202  0.7484488742059077
  0.2491170004362176  0.7503202401096121  0.2493870399867902
  0.2529247987348616  0.7486393492839712  0.7500525049011941
  0.7503263190128167  0.2483078018043619  0.2490691050048138
  0.7485715269788631  0.2504211997267621  0.7500334179930902
  0.7501348446232330  0.7470310145386885  0.2533713766482432
  0.7503285984717556  0.7477513205260377  0.7476202695203481
  0.0003715730786838  1.0000018064101304  0.2496592025258105
  0.0009305898813215  1.0004644496096067  0.7518853464286643
  0.9992979349301853  0.5006476668929322  0.2499337111354129
  0.9999835581413347  0.5006275247893687  0.7513891594700348
  0.5001457221971790  0.9987335619373428  0.2503069273860794
  0.5008855128532521  0.9994154341159994  0.7494821007535521
  0.5002677397138621  0.5007107792900537  0.2500009387736289
  0.5011375927502180  0.5009534472305162  0.7596306075004357
  0.4927582178326223  0.4908107830573432  0.4932413755731274
  0.7449202950021320  0.7573801469482622  0.5026942375458163
  0.1105468472711154  0.1413765430883899  0.2486063208083887
  0.1126239220724837  0.1390138845522509  0.7545905421234327
  0.1083081393878251  0.6408695612195799  0.2495445490926866
  0.1135006883660651  0.6375217706494759  0.7502892491327599
  0.6108965685980305  0.1384512927989886  0.2487728398343466
  0.6125793124130675  0.1372791694205879  0.7508402225660938
  0.6094114462552338  0.6403603285557885  0.2456659867783295
  0.3904323671774523  0.3612777113350537  0.2521127328642634
  0.3889196378235277  0.3660307724519871  0.7372435162142955
  0.3900504099721564  0.8595048090412603  0.2492912404737803
  0.3883031993025423  0.8629103424434122  0.7514897043169442
  0.8901314169023342  0.3598055290829559  0.2515190248718044
  0.8888432178151219  0.3618343668545679  0.7489005440555281
  0.8893807110347588  0.8589551489496585  0.2546839478764053
  0.8899830417718433  0.8626461879427684  0.7521785963881621
  0.3604053056844344  0.1108118076960700  0.2489856564132445
  0.3634624880736866  0.1134020304604233  0.7517329628058963
  0.3586331967871270  0.6098065885541072  0.2515905343411428
  0.3660668150801554  0.6119611435599839  0.7403789182574898
  0.8602597918618317  0.1091629962953277  0.2483710892500274
  0.8620483896007054  0.1122293478949686  0.7508419081425173
  0.8593398822099424  0.6079745322814932  0.2440748835896539
  0.8646104854415955  0.6112276790412909  0.7584638856707877
  0.1393145866490652  0.3919412633459645  0.2551458249658602
  0.1376521816186423  0.3894716271775587  0.7456734235158028
  0.1394558492999234  0.8907736556752999  0.2483831286917506
  0.1389198417930352  0.8875935578956101  0.7506259065678701
  0.6396691237508622  0.3882335899792519  0.2477006083169040
  0.6406109873469449  0.8876285279932026  0.2565420397052312
  0.6399883264065721  0.8876910802100060  0.7446766830995103
  0.3581911031087220  0.3918067394676695  0.0022659781846153
  0.3590524971682156  0.8913629085779350  0.9995203721402015
  0.3546436558063545  0.8925923860732505  0.4995896688885227
  0.8595114939598585  0.3908362732857297  0.9997222210634988
  0.8482993339594247  0.4077828931079864  0.4997960006447306
  0.8598907307169334  0.8910455294000569  1.0001470017001250
  0.8669550474464286  0.8927492583170935  0.4968064056637869
  0.1419258894053464  0.1100076925127204  0.9995119343717549
  0.1427561253832026  0.1109400531017676  0.4981887260855992
  0.1411407340160539  0.6087488737514544  0.9999849414331268
  0.1155323281356016  0.6218368569815540  0.4990665654293117
  0.6413770110906158  0.1090405868316342  0.9997309814407886
  0.6456710072948132  0.1022173960125022  0.5001766575833636
  0.6404340153165907  0.6094016479283041  0.0006247546502005
  0.1091909377212868  0.3580101345503609  0.9999964803036296
  0.1053680575123760  0.3581737795543642  0.4996154219961141
  0.1099031111415532  0.8587915244825856  0.9989046081861588
  0.1100258660685681  0.8650729204756439  0.4997169289732120
  0.6091422217522978  0.3591595841762540  0.0009679846277218
  0.6088861425065517  0.8593145925722122  1.0005791229589063
  0.5945926811155776  0.8532456343670460  0.4994786353621344
  0.3913720022524380  0.1411129709232085  1.0001033686102536
  0.3930593023667207  0.1419865198743561  0.4998805468180582
  0.3913167044202754  0.6415127778213258  0.0011903511988000
  0.3714402951358093  0.6345737048059021  0.4949848275593074
  0.8912102829986910  0.1410381687894583  0.9992459744541816
  0.8940078926977274  0.1474084932537869  0.4998864732589429
  0.8908565122285435  0.6396320806581406  1.0000956916039239
  0.9996292006187342  0.9986403985013450  0.1246845449375595
  0.0014025294124979  0.0033814356687093  0.6262715449576637
  0.0029429569523876  0.4965959401971063  0.1252468915163028
  0.9918937507793144  0.5106978721754116  0.6226721275671904
  0.5022428001616263  0.9978307690356717  0.1254225269774434
  0.4972860850116239  0.0030003267073242  0.6251480368820348
  0.4982536974779932  0.4993452195442815  0.1254322451496863
  0.0024821124843403  0.0051875768410399  0.3732095313109505
  1.0004468176138148  0.9998023757288417  0.8761757861647723
  0.9883511566795531  0.5109148269372663  0.3774841706491502
  0.0044800324016036  0.4961998188510214  0.8754023352390542
  0.4971759434065898  0.0025056380048761  0.3746072570632283
  0.5028466486885380  0.9981804093450838  0.8748949744213746
  0.4957756908583726  0.4974099740140973  0.8778817823769368
  0.2527130331009277  0.2524289376696642  0.3760115551589025
  0.2552619415439642  0.2577434086968768  0.8741149784942879
  0.2449038353790928  0.7536749446449234  0.3731818063501152
  0.2538867444532308  0.7454811504178601  0.8743032761827507
  0.7517365404904800  0.2477080737396775  0.3740824359764788
  0.7488317448670680  0.2530387550270397  0.8746488629062525
  0.7526320850633205  0.7239205988069917  0.3795233942982478
  0.7485506166052351  0.7532687060519488  0.8760315815444886
  0.2497721084098336  0.2532188667907441  0.1258169886742533
  0.2435296544494985  0.2412459643447521  0.6251675151527649
  0.2495442033005483  0.7500296867179582  0.1246267291944866
  0.2467344450977450  0.7518622386823178  0.6247302413579372
  0.7517692878974415  0.2497572422476700  0.1244349749018338
  0.7509277464257913  0.2480339530925305  0.6245380677526414
  0.7507712925216266  0.7543551711706903  0.1257538389933054
  0.6355102224264603  0.3875101473846068  0.7459226222888053
  0.6141758822508500  0.6373159870289913  0.7509633477721657
  0.5099541655381779  0.5077495305256792  0.3736818483326720
  0.6026981319278706  0.3463358736379890  0.4970607022373200
  0.3540880741753077  0.3905202819508889  0.5107629596273860
  0.7703827498425806  0.7397268791545559  0.6249828203849305
  0.5849487897253347  0.5739017712506006  0.5660570094663933
 
  0.00000000E+00  0.00000000E+00  0.00000000E+00
  0.00000000E+00  0.00000000E+00  0.00000000E+00
  0.00000000E+00  0.00000000E+00  0.00000000E+00
  0.00000000E+00  0.00000000E+00  0.00000000E+00
  0.00000000E+00  0.00000000E+00  0.00000000E+00
  0.00000000E+00  0.00000000E+00  0.00000000E+00
  0.00000000E+00  0.00000000E+00  0.00000000E+00
  0.00000000E+00  0.00000000E+00  0.00000000E+00
  0.00000000E+00  0.00000000E+00  0.00000000E+00
  0.00000000E+00  0.00000000E+00  0.00000000E+00
  0.00000000E+00  0.00000000E+00  0.00000000E+00
  0.00000000E+00  0.00000000E+00  0.00000000E+00
  0.00000000E+00  0.00000000E+00  0.00000000E+00
  0.00000000E+00  0.00000000E+00  0.00000000E+00
  0.00000000E+00  0.00000000E+00  0.00000000E+00
  0.00000000E+00  0.00000000E+00  0.00000000E+00
  0.00000000E+00  0.00000000E+00  0.00000000E+00
  0.00000000E+00  0.00000000E+00  0.00000000E+00
  0.00000000E+00  0.00000000E+00  0.00000000E+00
  0.00000000E+00  0.00000000E+00  0.00000000E+00
  0.00000000E+00  0.00000000E+00  0.00000000E+00
  0.00000000E+00  0.00000000E+00  0.00000000E+00
  0.00000000E+00  0.00000000E+00  0.00000000E+00
  0.00000000E+00  0.00000000E+00  0.00000000E+00
  0.00000000E+00  0.00000000E+00  0.00000000E+00
  0.00000000E+00  0.00000000E+00  0.00000000E+00
  0.00000000E+00  0.00000000E+00  0.00000000E+00
  0.00000000E+00  0.00000000E+00  0.00000000E+00
  0.00000000E+00  0.00000000E+00  0.00000000E+00
  0.00000000E+00  0.00000000E+00  0.00000000E+00
  0.00000000E+00  0.00000000E+00  0.00000000E+00
  0.00000000E+00  0.00000000E+00  0.00000000E+00
  0.00000000E+00  0.00000000E+00  0.00000000E+00
  0.00000000E+00  0.00000000E+00  0.00000000E+00
  0.00000000E+00  0.00000000E+00  0.00000000E+00
  0.00000000E+00  0.00000000E+00  0.00000000E+00
  0.00000000E+00  0.00000000E+00  0.00000000E+00
  0.00000000E+00  0.00000000E+00  0.00000000E+00
  0.00000000E+00  0.00000000E+00  0.00000000E+00
  0.00000000E+00  0.00000000E+00  0.00000000E+00
  0.00000000E+00  0.00000000E+00  0.00000000E+00
  0.00000000E+00  0.00000000E+00  0.00000000E+00
  0.00000000E+00  0.00000000E+00  0.00000000E+00
  0.00000000E+00  0.00000000E+00  0.00000000E+00
  0.00000000E+00  0.00000000E+00  0.00000000E+00
  0.00000000E+00  0.00000000E+00  0.00000000E+00
  0.00000000E+00  0.00000000E+00  0.00000000E+00
  0.00000000E+00  0.00000000E+00  0.00000000E+00
  0.00000000E+00  0.00000000E+00  0.00000000E+00
  0.00000000E+00  0.00000000E+00  0.00000000E+00
  0.00000000E+00  0.00000000E+00  0.00000000E+00
  0.00000000E+00  0.00000000E+00  0.00000000E+00
  0.00000000E+00  0.00000000E+00  0.00000000E+00
  0.00000000E+00  0.00000000E+00  0.00000000E+00
  0.00000000E+00  0.00000000E+00  0.00000000E+00
  0.00000000E+00  0.00000000E+00  0.00000000E+00
  0.00000000E+00  0.00000000E+00  0.00000000E+00
  0.00000000E+00  0.00000000E+00  0.00000000E+00
  0.00000000E+00  0.00000000E+00  0.00000000E+00
  0.00000000E+00  0.00000000E+00  0.00000000E+00
  0.00000000E+00  0.00000000E+00  0.00000000E+00
  0.00000000E+00  0.00000000E+00  0.00000000E+00
  0.00000000E+00  0.00000000E+00  0.00000000E+00
  0.00000000E+00  0.00000000E+00  0.00000000E+00
  0.00000000E+00  0.00000000E+00  0.00000000E+00
  0.00000000E+00  0.00000000E+00  0.00000000E+00
  0.00000000E+00  0.00000000E+00  0.00000000E+00
  0.00000000E+00  0.00000000E+00  0.00000000E+00
  0.00000000E+00  0.00000000E+00  0.00000000E+00
  0.00000000E+00  0.00000000E+00  0.00000000E+00
  0.00000000E+00  0.00000000E+00  0.00000000E+00
  0.00000000E+00  0.00000000E+00  0.00000000E+00
  0.00000000E+00  0.00000000E+00  0.00000000E+00
  0.00000000E+00  0.00000000E+00  0.00000000E+00
  0.00000000E+00  0.00000000E+00  0.00000000E+00
  0.00000000E+00  0.00000000E+00  0.00000000E+00
  0.00000000E+00  0.00000000E+00  0.00000000E+00
  0.00000000E+00  0.00000000E+00  0.00000000E+00
  0.00000000E+00  0.00000000E+00  0.00000000E+00
  0.00000000E+00  0.00000000E+00  0.00000000E+00
  0.00000000E+00  0.00000000E+00  0.00000000E+00
  0.00000000E+00  0.00000000E+00  0.00000000E+00
  0.00000000E+00  0.00000000E+00  0.00000000E+00
  0.00000000E+00  0.00000000E+00  0.00000000E+00
  0.00000000E+00  0.00000000E+00  0.00000000E+00
  0.00000000E+00  0.00000000E+00  0.00000000E+00
  0.00000000E+00  0.00000000E+00  0.00000000E+00
  0.00000000E+00  0.00000000E+00  0.00000000E+00
  0.00000000E+00  0.00000000E+00  0.00000000E+00
  0.00000000E+00  0.00000000E+00  0.00000000E+00
  0.00000000E+00  0.00000000E+00  0.00000000E+00
  0.00000000E+00  0.00000000E+00  0.00000000E+00
  0.00000000E+00  0.00000000E+00  0.00000000E+00
  0.00000000E+00  0.00000000E+00  0.00000000E+00
  0.00000000E+00  0.00000000E+00  0.00000000E+00
  0.00000000E+00  0.00000000E+00  0.00000000E+00
  0.00000000E+00  0.00000000E+00  0.00000000E+00
  0.00000000E+00  0.00000000E+00  0.00000000E+00
  0.00000000E+00  0.00000000E+00  0.00000000E+00
  0.00000000E+00  0.00000000E+00  0.00000000E+00
  0.00000000E+00  0.00000000E+00  0.00000000E+00
  0.00000000E+00  0.00000000E+00  0.00000000E+00
  0.00000000E+00  0.00000000E+00  0.00000000E+00
  0.00000000E+00  0.00000000E+00  0.00000000E+00
  0.00000000E+00  0.00000000E+00  0.00000000E+00
  0.00000000E+00  0.00000000E+00  0.00000000E+00
  0.00000000E+00  0.00000000E+00  0.00000000E+00
  0.00000000E+00  0.00000000E+00  0.00000000E+00
  0.00000000E+00  0.00000000E+00  0.00000000E+00
  0.00000000E+00  0.00000000E+00  0.00000000E+00
  0.00000000E+00  0.00000000E+00  0.00000000E+00
  0.00000000E+00  0.00000000E+00  0.00000000E+00
  0.00000000E+00  0.00000000E+00  0.00000000E+00
  0.00000000E+00  0.00000000E+00  0.00000000E+00
  0.00000000E+00  0.00000000E+00  0.00000000E+00
  0.00000000E+00  0.00000000E+00  0.00000000E+00
  0.00000000E+00  0.00000000E+00  0.00000000E+00
  0.00000000E+00  0.00000000E+00  0.00000000E+00
  0.00000000E+00  0.00000000E+00  0.00000000E+00
  0.00000000E+00  0.00000000E+00  0.00000000E+00
  0.00000000E+00  0.00000000E+00  0.00000000E+00
  0.00000000E+00  0.00000000E+00  0.00000000E+00
  0.00000000E+00  0.00000000E+00  0.00000000E+00
  0.00000000E+00  0.00000000E+00  0.00000000E+00
  0.00000000E+00  0.00000000E+00  0.00000000E+00
  0.00000000E+00  0.00000000E+00  0.00000000E+00
  0.00000000E+00  0.00000000E+00  0.00000000E+00
  0.00000000E+00  0.00000000E+00  0.00000000E+00
  0.00000000E+00  0.00000000E+00  0.00000000E+00
  0.00000000E+00  0.00000000E+00  0.00000000E+00
  0.00000000E+00  0.00000000E+00  0.00000000E+00
  0.00000000E+00  0.00000000E+00  0.00000000E+00
  0.00000000E+00  0.00000000E+00  0.00000000E+00
  0.00000000E+00  0.00000000E+00  0.00000000E+00
  0.00000000E+00  0.00000000E+00  0.00000000E+00
  0.00000000E+00  0.00000000E+00  0.00000000E+00
  0.00000000E+00  0.00000000E+00  0.00000000E+00
  0.00000000E+00  0.00000000E+00  0.00000000E+00
  0.00000000E+00  0.00000000E+00  0.00000000E+00
  0.00000000E+00  0.00000000E+00  0.00000000E+00
  0.00000000E+00  0.00000000E+00  0.00000000E+00
  0.00000000E+00  0.00000000E+00  0.00000000E+00
  0.00000000E+00  0.00000000E+00  0.00000000E+00
  0.00000000E+00  0.00000000E+00  0.00000000E+00
  0.00000000E+00  0.00000000E+00  0.00000000E+00
  0.00000000E+00  0.00000000E+00  0.00000000E+00
  0.00000000E+00  0.00000000E+00  0.00000000E+00
  0.00000000E+00  0.00000000E+00  0.00000000E+00
  0.00000000E+00  0.00000000E+00  0.00000000E+00
  0.00000000E+00  0.00000000E+00  0.00000000E+00
  0.00000000E+00  0.00000000E+00  0.00000000E+00
  0.00000000E+00  0.00000000E+00  0.00000000E+00
  0.00000000E+00  0.00000000E+00  0.00000000E+00
  0.00000000E+00  0.00000000E+00  0.00000000E+00
  0.00000000E+00  0.00000000E+00  0.00000000E+00
  0.00000000E+00  0.00000000E+00  0.00000000E+00
  0.00000000E+00  0.00000000E+00  0.00000000E+00
  0.00000000E+00  0.00000000E+00  0.00000000E+00
