SrTiFeO                                 
   1.00000000000000     
    11.1989999999999998    0.0000000000000000    0.0000000000000000
     0.0000000000000000   11.1989999999999998    0.0000000000000000
     0.0000000000000000    0.0000000000000000   15.9830000000000005
   Sr   Ti   Fe   O 
    32    30     2    94
Direct
  0.0003267235592100  0.2497168589270822  0.1248994261586879
  0.0011166637286243  0.2497590689072686  0.6245825277269167
  0.9978798604316937  0.7497143393521640  0.1260030622156235
  0.0054620928008523  0.7483857157670361  0.6215726825341280
  0.4994805053579811  0.2518402822525211  0.1253200360334677
  0.5010616982002229  0.2454474931235238  0.6253869176554385
  0.5008649019606399  0.7507260460418922  0.1239409442324803
  0.4924531693136404  0.7558997251663053  0.6238552592492678
  0.0001844757657177  0.2485764354471647  0.3750400961584643
  0.0011261705329125  0.2507972872405397  0.8760909474717128
  0.9950906727894893  0.7481121763287482  0.3768572701437947
  0.0054559175594184  0.7501983688067868  0.8765541663926368
  0.5024059204013951  0.2456463873914640  0.3746035661739357
  0.4993337800265391  0.2539825733998016  0.8737109253089134
  0.4996356770551423  0.7523144875980728  0.3701925759039206
  0.4940494041375955  0.7540769691110475  0.8793768330080769
  0.2496732764407900  0.0002831410729178  0.1251005738413122
  0.2488833362713758  1.0002409310927305  0.6254174722730833
  0.2521201395683063  0.5002856606478360  0.1239969377843763
  0.2445379071991479  0.5016142842329639  0.6284273174658720
  0.7505194946420191  0.9981597177474786  0.1246799639665322
  0.7489383017997771  0.0045525068764761  0.6246130823445615
  0.7491350980393601  0.4992739539581079  0.1260590557675196
  0.7575468306863600  0.4941002748336938  0.6261447407507322
  0.2488738294670875  0.9992027127594603  0.3739090525282882
  0.2498155242342821  0.0014235645528353  0.8749599038415352
  0.2445440824405817  0.4998016311932127  0.3734458336073629
  0.2549093272105113  0.5018878236712518  0.8731427298562061
  0.7506662199734608  0.9960174266001987  0.3762890746910873
  0.7475940795986049  0.0043536126085361  0.8753964338260649
  0.7559505958624048  0.4959230308889533  0.3706231669919230
  0.7503643229448576  0.4976855124019276  0.8798074240960798
  0.9993577723256025 -0.0003503037134065  0.9995706968266062
  0.9974327833707044  0.9983433585741869  0.5002827829980551
  0.0010687076089772  0.4998247079402786  0.0000365462772502
  0.9986712530132347  0.5001557776335200  0.5000636043693925
  0.4999363016794285  0.0014213046259740  0.0002128375832043
  0.5004911123765650  0.9973434841813480  0.4996110250253374
  0.5007236838163198  0.5010676513767846  0.9977432451426538
  0.2507508557768663  0.2508947246635829  0.9996038284689118
  0.2460273258824026  0.2442548162774753  0.5003004644676921
  0.2494999878283071  0.7501102761519943  0.0009289829370960
  0.2500347190394730  0.7512665012675308  0.4987411652314931
  0.7500695634018538  0.2498586067625866  0.0005158288296761
  0.7511751537457620  0.2495999718916366  0.4994746626573365
  0.7492373349055507  0.7491759158043135  0.0006657063989699
  0.2506422276743976  0.2503503037134067  0.2504293031733936
  0.2525672166292962  0.2516566414258135  0.7497172170019449
  0.2489312923910227  0.7501752920597209  0.2499634537227497
  0.2513287469867657  0.7498442223664800  0.7499363956306072
  0.7500636983205722  0.2485786953740259  0.2497871624167957
  0.7495088876234350  0.2526565158186515  0.7503889749746626
  0.7492763161836802  0.7489323486232154  0.2522567548573465
  0.7610695809246844  0.7559177998647955  0.7496586806596127
  0.9992491442231338  0.9991052753364166  0.2503961715310890
  0.0039726741175975  0.0057451837225245  0.7496995355323079
  0.0005000121716930  0.4998897238480058  0.2490710170629040
  0.9999652809605278  0.4987334987324688  0.7512588347685065
  0.4999304365981460  0.0001413932374133  0.2494841711703240
  0.4988248462542373  1.0004000281083634  0.7505253373426637
  0.5007626650944493  0.5008240841956865  0.2493342936010301
  0.4889304190753154  0.4940822001352053  0.5003413193403873
  0.4994851311134166  0.4960712383221354  0.7459365807498909
  0.7505148688865836  0.7539287616778650  0.5040634192501091
  0.1097648266733095  0.1407178548311526  0.2485671444500183
  0.1072405244164631  0.1423019147147019  0.7522543763548653
  0.1090356945387593  0.6408406054374390  0.2506955137079131
  0.1094336595898038  0.6402148352280125  0.7496759806907332
  0.6087293413367976  0.1408932725698547  0.2491919862583726
  0.6098067919014619  0.1394608384256868  0.7506151553246568
  0.6092848520398380  0.6402504584467620  0.2416554269530960
  0.3916506072167412  0.3610291119540457  0.2573100288025069
  0.3877179873341334  0.3528436165504873  0.7454389578660372
  0.3895734346879062  0.8602131367096649  0.2493898381884237
  0.3877737860648983  0.8631300682217263  0.7507393794202810
  0.8905509425304842  0.3594837755927988  0.2511183434486334
  0.8942035551828421  0.3559919448332802  0.7490265582173368
  0.8905847276797020  0.8588938613078801  0.2532318251585960
  0.8923260534943199  0.8561350636251988  0.7450600073082158
  0.3593818354145558  0.1102100996839011  0.2498702947484909
  0.3580898138874687  0.1075489275686889  0.7499883247793740
  0.3592720793425895  0.6096502850654094  0.2525798460980773
  0.3673016051628641  0.6189158212909603  0.7471476598951954
  0.8587843428091630  0.1086410716298490  0.2498960521266113
  0.8578286538617017  0.1058971929393407  0.7498210573473807
  0.8600941399221350  0.6082057520869896  0.2474403930241703
  0.8543220250254399  0.6041905028179586  0.7531556697121736
  0.1409101132703360  0.3909722642851743  0.2490775715407376
  0.1417443709308393  0.3919650656371222  0.7510450991015649
  0.1402663635476535  0.8911263825229112  0.2490317087528038
  0.1396739277746260  0.8908878076420623  0.7505169828305944
  0.6410325110520959  0.3901292908151865  0.2506803665871756
  0.6395899230461350  0.8908826538987259  0.2499409054060318
  0.6356267621059644  0.8818637372571138  0.7514412876022842
  0.3594152723202986  0.3911061386921202  0.9967681748414042
  0.3594490574695158  0.8905162244072009  0.9988816565513664
  0.3557964448171565  0.8940080551667207  0.5009734417826632
  0.8604265653120922  0.3897868632903346  0.0006101618115763
  0.8622262139351022  0.3868699317782739  0.4992606205797187
  0.8583493927832588  0.8889708880459540  0.9926899711974930
  0.8622820126658658  0.8971563834495132  0.5045610421339628
  0.1402351733266907  0.1092821451688475  0.0014328555499818
  0.1427594755835369  0.1076980852852981  0.4977456236451351
  0.1409643054612406  0.6091593945625610  0.9993044862920869
  0.1405663404101961  0.6097851647719875  0.5003240193092668
  0.6412706586632024  0.1091067274301452  0.0008080137416275
  0.6401932080985381  0.1105391615743134  0.4993848446753426
  0.6407151479601620  0.6097495415532380  0.0083445730469040
  0.1097336364523465  0.3588736174770881  0.0009682912471962
  0.1103260722253740  0.3591121923579387  0.4994830171694057
  0.1090898867296640  0.8590277357148263  0.0009224284592623
  0.1082556290691608  0.8580349343628781  0.4989549008984350
  0.6104100769538650  0.3591173461012670  0.0000590945939681
  0.6089674889479041  0.8598707091848142  0.9993196334128247
  0.6018980650532846  0.8561848601413229  0.5000461638776806
  0.3912156571908370  0.1413589283701510  1.0001039478733882
  0.3921713461382980  0.1441028070606595  0.5001789426526193
  0.3899058600778574  0.6417942479130104  0.0025596069758297
  0.3956779749745598  0.6458094971820414  0.4968443302878268
  0.8906181645854431  0.1397899003160988  0.0001297052515090
  0.8919101861125309  0.1424510724313112  0.5000116752206265
  0.8907279206574102  0.6403497149345906  0.9974201539019230
  0.9957411098569902  0.9968020995653211  0.1244429312655140
  0.0056100757316971  0.0042524343304788  0.6256066931840526
  0.0007730706551997  0.5001372730303144  0.1245265031988181
  0.0023718906522099  0.4992704607497993  0.6259587548733091
  0.4988911013672625 -0.0001550766059262  0.1247288031718841
  0.5009293638085567  0.0022321323245558  0.6254561939656484
  0.4940673350549716  0.4934749943990270  0.1269961327366951
  0.0001840312915386  0.0014296934530039  0.3745249936880038
  1.0004705233999021  0.9986827036788999  0.8745506617021500
  0.0009053856307939  0.5010200613777908  0.3745993506432260
  0.0016301150764134  0.4980086920556507  0.8753293483205435
  0.4988062173182993  0.0013190087638912  0.3745817303823134
  0.5001839263822345  0.0015819037466463  0.8753311534679844
  0.5068542462515371  0.5104015750287983  0.8784690208463040
  0.2495294766000976  0.2513172963210990  0.3754493382978497
  0.2498159687084614  0.2485703065469962  0.8754750063119962
  0.2483698849235867  0.7519913079443501  0.3746706516794561
  0.2490946143692061  0.7489799386222092  0.8754006493567732
  0.7498160736177655  0.2484180962533608  0.3746688465320150
  0.7511937826816940  0.2486809912361087  0.8754182696176861
  0.7431457537484629  0.7395984249712017  0.3715309791536963
  0.7326937930669627  0.7349350153439612  0.8709559924261805
  0.2542588901430100  0.2531979004346788  0.1255570687344862
  0.2443899242683029  0.2457475656695212  0.6243933068159474
  0.2492269293448001  0.7498627269696851  0.1254734968011818
  0.2476281093477900  0.7507295392502005  0.6240412451266909
  0.7511088986327373  0.2501550766059262  0.1252711968281159
  0.7490706361914433  0.2477678676754440  0.6245438060343516
  0.7559326649450286  0.7565250056009738  0.1230038672633050
  0.6481019349467154  0.3938151398586770  0.7499538361223193
  0.5173062069330373  0.5150649846560388  0.3790440075738203
  0.6143732378940356  0.3681362627428867  0.4985587123977156
  0.3576739465056802  0.3938649363748012  0.5049399926917842
  0.7217849012209020  0.7227815737807990  0.6358684844857178
  0.8826983948371362  0.6310841787090397  0.5028523401048046
  0.5282150987790980  0.5272184262192010  0.6141315155142822
 
  0.00000000E+00  0.00000000E+00  0.00000000E+00
  0.00000000E+00  0.00000000E+00  0.00000000E+00
  0.00000000E+00  0.00000000E+00  0.00000000E+00
  0.00000000E+00  0.00000000E+00  0.00000000E+00
  0.00000000E+00  0.00000000E+00  0.00000000E+00
  0.00000000E+00  0.00000000E+00  0.00000000E+00
  0.00000000E+00  0.00000000E+00  0.00000000E+00
  0.00000000E+00  0.00000000E+00  0.00000000E+00
  0.00000000E+00  0.00000000E+00  0.00000000E+00
  0.00000000E+00  0.00000000E+00  0.00000000E+00
  0.00000000E+00  0.00000000E+00  0.00000000E+00
  0.00000000E+00  0.00000000E+00  0.00000000E+00
  0.00000000E+00  0.00000000E+00  0.00000000E+00
  0.00000000E+00  0.00000000E+00  0.00000000E+00
  0.00000000E+00  0.00000000E+00  0.00000000E+00
  0.00000000E+00  0.00000000E+00  0.00000000E+00
  0.00000000E+00  0.00000000E+00  0.00000000E+00
  0.00000000E+00  0.00000000E+00  0.00000000E+00
  0.00000000E+00  0.00000000E+00  0.00000000E+00
  0.00000000E+00  0.00000000E+00  0.00000000E+00
  0.00000000E+00  0.00000000E+00  0.00000000E+00
  0.00000000E+00  0.00000000E+00  0.00000000E+00
  0.00000000E+00  0.00000000E+00  0.00000000E+00
  0.00000000E+00  0.00000000E+00  0.00000000E+00
  0.00000000E+00  0.00000000E+00  0.00000000E+00
  0.00000000E+00  0.00000000E+00  0.00000000E+00
  0.00000000E+00  0.00000000E+00  0.00000000E+00
  0.00000000E+00  0.00000000E+00  0.00000000E+00
  0.00000000E+00  0.00000000E+00  0.00000000E+00
  0.00000000E+00  0.00000000E+00  0.00000000E+00
  0.00000000E+00  0.00000000E+00  0.00000000E+00
  0.00000000E+00  0.00000000E+00  0.00000000E+00
  0.00000000E+00  0.00000000E+00  0.00000000E+00
  0.00000000E+00  0.00000000E+00  0.00000000E+00
  0.00000000E+00  0.00000000E+00  0.00000000E+00
  0.00000000E+00  0.00000000E+00  0.00000000E+00
  0.00000000E+00  0.00000000E+00  0.00000000E+00
  0.00000000E+00  0.00000000E+00  0.00000000E+00
  0.00000000E+00  0.00000000E+00  0.00000000E+00
  0.00000000E+00  0.00000000E+00  0.00000000E+00
  0.00000000E+00  0.00000000E+00  0.00000000E+00
  0.00000000E+00  0.00000000E+00  0.00000000E+00
  0.00000000E+00  0.00000000E+00  0.00000000E+00
  0.00000000E+00  0.00000000E+00  0.00000000E+00
  0.00000000E+00  0.00000000E+00  0.00000000E+00
  0.00000000E+00  0.00000000E+00  0.00000000E+00
  0.00000000E+00  0.00000000E+00  0.00000000E+00
  0.00000000E+00  0.00000000E+00  0.00000000E+00
  0.00000000E+00  0.00000000E+00  0.00000000E+00
  0.00000000E+00  0.00000000E+00  0.00000000E+00
  0.00000000E+00  0.00000000E+00  0.00000000E+00
  0.00000000E+00  0.00000000E+00  0.00000000E+00
  0.00000000E+00  0.00000000E+00  0.00000000E+00
  0.00000000E+00  0.00000000E+00  0.00000000E+00
  0.00000000E+00  0.00000000E+00  0.00000000E+00
  0.00000000E+00  0.00000000E+00  0.00000000E+00
  0.00000000E+00  0.00000000E+00  0.00000000E+00
  0.00000000E+00  0.00000000E+00  0.00000000E+00
  0.00000000E+00  0.00000000E+00  0.00000000E+00
  0.00000000E+00  0.00000000E+00  0.00000000E+00
  0.00000000E+00  0.00000000E+00  0.00000000E+00
  0.00000000E+00  0.00000000E+00  0.00000000E+00
  0.00000000E+00  0.00000000E+00  0.00000000E+00
  0.00000000E+00  0.00000000E+00  0.00000000E+00
  0.00000000E+00  0.00000000E+00  0.00000000E+00
  0.00000000E+00  0.00000000E+00  0.00000000E+00
  0.00000000E+00  0.00000000E+00  0.00000000E+00
  0.00000000E+00  0.00000000E+00  0.00000000E+00
  0.00000000E+00  0.00000000E+00  0.00000000E+00
  0.00000000E+00  0.00000000E+00  0.00000000E+00
  0.00000000E+00  0.00000000E+00  0.00000000E+00
  0.00000000E+00  0.00000000E+00  0.00000000E+00
  0.00000000E+00  0.00000000E+00  0.00000000E+00
  0.00000000E+00  0.00000000E+00  0.00000000E+00
  0.00000000E+00  0.00000000E+00  0.00000000E+00
  0.00000000E+00  0.00000000E+00  0.00000000E+00
  0.00000000E+00  0.00000000E+00  0.00000000E+00
  0.00000000E+00  0.00000000E+00  0.00000000E+00
  0.00000000E+00  0.00000000E+00  0.00000000E+00
  0.00000000E+00  0.00000000E+00  0.00000000E+00
  0.00000000E+00  0.00000000E+00  0.00000000E+00
  0.00000000E+00  0.00000000E+00  0.00000000E+00
  0.00000000E+00  0.00000000E+00  0.00000000E+00
  0.00000000E+00  0.00000000E+00  0.00000000E+00
  0.00000000E+00  0.00000000E+00  0.00000000E+00
  0.00000000E+00  0.00000000E+00  0.00000000E+00
  0.00000000E+00  0.00000000E+00  0.00000000E+00
  0.00000000E+00  0.00000000E+00  0.00000000E+00
  0.00000000E+00  0.00000000E+00  0.00000000E+00
  0.00000000E+00  0.00000000E+00  0.00000000E+00
  0.00000000E+00  0.00000000E+00  0.00000000E+00
  0.00000000E+00  0.00000000E+00  0.00000000E+00
  0.00000000E+00  0.00000000E+00  0.00000000E+00
  0.00000000E+00  0.00000000E+00  0.00000000E+00
  0.00000000E+00  0.00000000E+00  0.00000000E+00
  0.00000000E+00  0.00000000E+00  0.00000000E+00
  0.00000000E+00  0.00000000E+00  0.00000000E+00
  0.00000000E+00  0.00000000E+00  0.00000000E+00
  0.00000000E+00  0.00000000E+00  0.00000000E+00
  0.00000000E+00  0.00000000E+00  0.00000000E+00
  0.00000000E+00  0.00000000E+00  0.00000000E+00
  0.00000000E+00  0.00000000E+00  0.00000000E+00
  0.00000000E+00  0.00000000E+00  0.00000000E+00
  0.00000000E+00  0.00000000E+00  0.00000000E+00
  0.00000000E+00  0.00000000E+00  0.00000000E+00
  0.00000000E+00  0.00000000E+00  0.00000000E+00
  0.00000000E+00  0.00000000E+00  0.00000000E+00
  0.00000000E+00  0.00000000E+00  0.00000000E+00
  0.00000000E+00  0.00000000E+00  0.00000000E+00
  0.00000000E+00  0.00000000E+00  0.00000000E+00
  0.00000000E+00  0.00000000E+00  0.00000000E+00
  0.00000000E+00  0.00000000E+00  0.00000000E+00
  0.00000000E+00  0.00000000E+00  0.00000000E+00
  0.00000000E+00  0.00000000E+00  0.00000000E+00
  0.00000000E+00  0.00000000E+00  0.00000000E+00
  0.00000000E+00  0.00000000E+00  0.00000000E+00
  0.00000000E+00  0.00000000E+00  0.00000000E+00
  0.00000000E+00  0.00000000E+00  0.00000000E+00
  0.00000000E+00  0.00000000E+00  0.00000000E+00
  0.00000000E+00  0.00000000E+00  0.00000000E+00
  0.00000000E+00  0.00000000E+00  0.00000000E+00
  0.00000000E+00  0.00000000E+00  0.00000000E+00
  0.00000000E+00  0.00000000E+00  0.00000000E+00
  0.00000000E+00  0.00000000E+00  0.00000000E+00
  0.00000000E+00  0.00000000E+00  0.00000000E+00
  0.00000000E+00  0.00000000E+00  0.00000000E+00
  0.00000000E+00  0.00000000E+00  0.00000000E+00
  0.00000000E+00  0.00000000E+00  0.00000000E+00
  0.00000000E+00  0.00000000E+00  0.00000000E+00
  0.00000000E+00  0.00000000E+00  0.00000000E+00
  0.00000000E+00  0.00000000E+00  0.00000000E+00
  0.00000000E+00  0.00000000E+00  0.00000000E+00
  0.00000000E+00  0.00000000E+00  0.00000000E+00
  0.00000000E+00  0.00000000E+00  0.00000000E+00
  0.00000000E+00  0.00000000E+00  0.00000000E+00
  0.00000000E+00  0.00000000E+00  0.00000000E+00
  0.00000000E+00  0.00000000E+00  0.00000000E+00
  0.00000000E+00  0.00000000E+00  0.00000000E+00
  0.00000000E+00  0.00000000E+00  0.00000000E+00
  0.00000000E+00  0.00000000E+00  0.00000000E+00
  0.00000000E+00  0.00000000E+00  0.00000000E+00
  0.00000000E+00  0.00000000E+00  0.00000000E+00
  0.00000000E+00  0.00000000E+00  0.00000000E+00
  0.00000000E+00  0.00000000E+00  0.00000000E+00
  0.00000000E+00  0.00000000E+00  0.00000000E+00
  0.00000000E+00  0.00000000E+00  0.00000000E+00
  0.00000000E+00  0.00000000E+00  0.00000000E+00
  0.00000000E+00  0.00000000E+00  0.00000000E+00
  0.00000000E+00  0.00000000E+00  0.00000000E+00
  0.00000000E+00  0.00000000E+00  0.00000000E+00
  0.00000000E+00  0.00000000E+00  0.00000000E+00
  0.00000000E+00  0.00000000E+00  0.00000000E+00
  0.00000000E+00  0.00000000E+00  0.00000000E+00
  0.00000000E+00  0.00000000E+00  0.00000000E+00
  0.00000000E+00  0.00000000E+00  0.00000000E+00
  0.00000000E+00  0.00000000E+00  0.00000000E+00
  0.00000000E+00  0.00000000E+00  0.00000000E+00
  0.00000000E+00  0.00000000E+00  0.00000000E+00
