SrTiFeO                                 
   1.00000000000000     
    11.1989999999999998    0.0000000000000000    0.0000000000000000
     0.0000000000000000   11.1989999999999998    0.0000000000000000
     0.0000000000000000    0.0000000000000000   15.9830000000000005
   Sr   Ti   Fe   O 
    32    30     2    94
Direct
  0.0003111801243428  0.2499053208651160  0.1250193620060105
  0.0002626017516139  0.2492668084164559  0.6234952734109063
  0.9992637211176593  0.7499552997671883  0.1260451562365470
  0.0033246255623017  0.7510147487782732  0.6211049981785228
  0.5003825189294884  0.2496081489619105  0.1242292613133066
  0.4991742711680749  0.2398749998333262  0.6232054805092002
  0.5016462045763777  0.7511102256804775  0.1250647065929577
  0.4974751969886619  0.7631347872686732  0.6207135156917735
  0.0001372100425129  0.2492646999825523  0.3759494479971393
 -0.0000053420965046  0.2513880229339747  0.8754649239946030
  0.9961838717475696  0.7496032006737474  0.3764654387586124
  0.0074045977408172  0.7498383302773786  0.8765211729993958
  0.5000328364803923  0.2447933605610162  0.3734032402191202
  0.4986210829343410  0.2480417592178644  0.8753383265080288
  0.5023368624469353  0.7542589828087370  0.3740219598810691
  0.4952449400955686  0.7564547721880226  0.8794034315535564
  0.2494582280968959  0.9998942270473355  0.1252169337296712
  0.2483523701125487  0.0001390690457479  0.6239040619890484
  0.2502045980613081  0.4997464331891059  0.1231666176851708
  0.2418728678658368  0.5016747335963225  0.6252889559335646
  0.7504586301154288  0.9989581621129733  0.1252340528176474
  0.7494901184480739  0.0022995449681381  0.6235015502127422
  0.7518343962628737  0.4994661396520527  0.1263151860812158
  0.7627595570391219  0.4993637110129376  0.6205580071951106
  0.2494664892749860 -0.0007519593149505  0.3756201315876971
  0.2498228809314726  0.0013804317652913  0.8747886194634830
  0.2450099909602313  0.4997331829306760  0.3734124922505231
  0.2479654747542050  0.5012884326537087  0.8750392499293043
  0.7507245153380590  0.9961297712616146  0.3774671227909941
  0.7485671940778394  0.0055076595980450  0.8757202591327493
  0.7544137947762982  0.5022243594324403  0.3742388848093901
  0.7519842065368476  0.4984412259655635  0.8784478269992516
  0.9995376313583139  0.0000644699108618  0.9993955876963282
  0.9980006780740803  0.9983686557867792  0.4997965365020776
  0.0001736412298213  0.5004040003883284  0.0002004886827375
  0.9994102527410986  0.5012455977978139  0.4992433053697122
  0.4999699323246828  0.0009141235375561  0.0004395758426314
  0.5012931728054929  0.9989747253023481  0.4989439453452273
  0.5017042641257261  0.5021397353680477  0.9979866385783185
  0.2505548324037060  0.2508318414372514  0.9993985061957904
  0.2492339588328563  0.2491985597756392  0.5007026707012779
  0.2505604173424494  0.7499032642492000  0.0006938028373009
  0.2500383698059274  0.7496097438719286  0.4998339043599052
  0.7494444978915906  0.2508304447378442  0.0001946861354092
  0.7497038946244460  0.2500101205873282  0.5000531825333135
  0.7493156363226592  0.7491264206849715  0.0007713044174572
  0.2508332708701622  0.2504813161861330  0.2499965197702921
  0.2517504558586481  0.2513892951295781  0.7483480148035008
  0.2505298646204674  0.7493487687443607  0.2500240836295554
  0.2529729481108245  0.7497539407432493  0.7482234555280699
  0.7496009093834158  0.2501379603626038  0.2501495673298184
  0.7484361114538558  0.2541095339006856  0.7485631192580691
  0.7499176093379896  0.7499882372389719  0.2519414329469909
  0.7631202404817001  0.7578886905274024  0.7508544358563577
  0.9993644837982322  0.9994666743177761  0.2508299898742885
  0.0039823448751340  0.0062518732914349  0.7505834111172915
  0.0003831069338878  0.4999736931410794  0.2496292585542066
  0.9999992222866106  0.4989196434976986  0.7505726127156817
  0.4998376483802009 -0.0000359122655714  0.2495491060427670
  0.4988932632823619  0.0005341268977711  0.7505806295866924
  0.4996104764996325  0.4993917723857788  0.2446090894474222
  0.4996929767195916  0.4995143703408325  0.4898338404531412
  0.4945005714394655  0.4909202919628902  0.7566562914703852
  0.7475456578134945  0.7477996009926573  0.5021269296204590
  0.1097097522459737  0.1408054844118823  0.2511963949743760
  0.1074033986051389  0.1421310542737741  0.7526848061205973
  0.1095229987510044  0.6409798364482860  0.2515339147997047
  0.1127165153761843  0.6382323510215544  0.7492736118825380
  0.6085642543794257  0.1412380074680691  0.2488843709293247
  0.6098814868584499  0.1399544402827305  0.7501640509194735
  0.6081672868100673  0.6402963065787483  0.2481339753464947
  0.3924571717467378  0.3580406946942090  0.2498121874520013
  0.3871382174328153  0.3544099181303503  0.7373864593050827
  0.3911132131740027  0.8586853403144915  0.2496912997821315
  0.3881789461096231  0.8632442220597688  0.7502064730013420
  0.8908971909678981  0.3592571048493481  0.2507062444805496
  0.8922979225400487  0.3578247127242760  0.7497233451728532
  0.8907166085207803  0.8592843546027704  0.2513715054190207
  0.8940719420668161  0.8575445264623834  0.7501319492024694
  0.3585207401801008  0.1090928309280547  0.2506389382963187
  0.3585738372765555  0.1082051023010806  0.7495544215118626
  0.3587550655331406  0.6075108702870466  0.2485553031560058
  0.3765750745955659  0.6180323310973045  0.7356420384429244
  0.8586359334370586  0.1097271173186813  0.2514537290366529
  0.8581915999016054  0.1074115105525352  0.7511573556520912
  0.8595974618665183  0.6092364160570459  0.2490086705669873
  0.8539619687010861  0.6060609914523281  0.7518326947160124
  0.1412931550290099  0.3910837533005792  0.2490343904329529
  0.1404476890122266  0.3908400526685284  0.7508269681834455
  0.1409537063320594  0.8905204104104809  0.2516648990265447
  0.1404987081282256  0.8904598027355554  0.7523755118919104
  0.6410900514192682  0.3922565658870642  0.2499898391253891
  0.6402285713136110  0.8907740718302241  0.2508628069436292
  0.6350961672002570  0.8803445845447165  0.7519904705478384
  0.3606170116897608  0.3924017137321868  0.9958288173605989
  0.3596988618756436  0.8905658820931337  0.9984239041173731
  0.3622072277137461  0.8872523583493062  0.5011461134898801
  0.8602829530947962  0.3903419288563502  0.0001102771448020
  0.8618820230435533  0.3872360289889044  0.4988485167095861
  0.8588329845553933  0.8894573286525292  0.9943470431734091
  0.8622195690560311  0.8874925879253026  0.5055744995499738
  0.1402352647713896  0.1103179540048616  0.9999682836137449
  0.1384224645788608  0.1110048043902987  0.4956551664451541
  0.1409195471367085  0.6098176625291228  0.9992879817884440
  0.1388232307260324  0.6113775770151985  0.4994825310790043
  0.6404849164097199  0.1102261220817522  0.0002426260204990
  0.6384708173026378  0.1119219604374558  0.4997620870642828
  0.6423903408607430  0.6099050497930316  0.0091632284354287
  0.1104178326526136  0.3601874357450794  0.9998400567981911
  0.1124390980582728  0.3620060945502864  0.4996158221036258
  0.1100978863497446  0.8596206432872692  0.9990080595093069
  0.1117655041069673  0.8608200081175559  0.4969622364817918
  0.6092218243921601  0.3597596685340571  0.9994828693418725
  0.6095347431183520  0.8601678580469753 -0.0002979570937703
  0.6103408434727334  0.8626399350281621  0.4993342743511919
  0.3908406119392176  0.1413814510282824  0.9999490279653784
  0.3884281820233290  0.1385732333752695  0.4995391708487454
  0.3910378813914166  0.6421278889708210  0.0034822265195730
  0.3894887655423542  0.6340720957997664  0.5110210552944737
  0.8895735891562773  0.1403577930739363  0.9987711955489939
  0.8882077792954746  0.1384837905146540  0.4983258310853663
  0.8909092224980169  0.6412419464086633  0.9982160982474941
  0.9980241459817737  0.9987412471365563  0.1246378580425690
  0.0036930233218129  0.0019745480901693  0.6255867370347766
  0.0003610187385733  0.5010246739170147  0.1246546588813989
  0.0006333027359694  0.4993783143864309  0.6254394932182611
  0.4990208353570216 -0.0002416960400235  0.1247238110970231
  0.5014874224775075  0.0002110970883528  0.6252761222351271
  0.4976392102829905  0.4963230834365396  0.1248327849314364
  0.9967111395670664  0.9982063663283613  0.3750009678721158
  0.0007111694368167  0.0003402009930476  0.8750481625479251
 -0.0000458925638149  0.5002644309349280  0.3746338382145430
  0.0013719054001154  0.4999963051732794  0.8750288634029618
  0.4990107015550867  0.0005487125374529  0.3745306256172358
  0.5003005005121496  0.0023438591298950  0.8752358610857267
  0.5131344098449275  0.5185448502758820  0.8782448367341827
  0.2545920062771823  0.2568020716732067  0.3757563806450340
  0.2530353335543380  0.2512091782940683  0.8741229924952618
  0.2571885506797208  0.7458433573937973  0.3759830328205052
  0.2542732739452410  0.7434604438580626  0.8738618867325549
  0.7441101810354543  0.2538114038664641  0.3758586326707413
  0.7463667814661115  0.2538448347514429  0.8738816239447100
  0.7477606531442157  0.7454820965491398  0.3747490474986006
  0.7344298734628097  0.7359699692830893  0.8719189691908554
  0.2514526128691122  0.2513765320923244  0.1244962482145117
  0.2399614983298869  0.2406264445606845  0.6242607160308259
  0.2482684349216627  0.7515841031742017  0.1252517861500724
  0.2429477864171525  0.7557133455093126  0.6242298458222898
  0.7507122733391018  0.2508535041249216  0.1249932386702957
  0.7543565993464535  0.2446775402127634  0.6245580078473506
  0.7538642698672057  0.7554163587591601  0.1247139911968412
  0.6433817955016331  0.3991194398741819  0.7399329893475548
  0.4974910799057604  0.4991407613347332  0.3743897542638338
  0.6082633161826303  0.3633036971293214  0.5101335239642606
  0.3652400340255804  0.3901440115828190  0.5138976268801295
  0.7345147485088287  0.7369677818257643  0.6331283697664789
  0.8880105439733490  0.6358340431759764  0.5022381859154837
  0.6315838139846438  0.6054553465996493  0.5090972880427461
 
  0.00000000E+00  0.00000000E+00  0.00000000E+00
  0.00000000E+00  0.00000000E+00  0.00000000E+00
  0.00000000E+00  0.00000000E+00  0.00000000E+00
  0.00000000E+00  0.00000000E+00  0.00000000E+00
  0.00000000E+00  0.00000000E+00  0.00000000E+00
  0.00000000E+00  0.00000000E+00  0.00000000E+00
  0.00000000E+00  0.00000000E+00  0.00000000E+00
  0.00000000E+00  0.00000000E+00  0.00000000E+00
  0.00000000E+00  0.00000000E+00  0.00000000E+00
  0.00000000E+00  0.00000000E+00  0.00000000E+00
  0.00000000E+00  0.00000000E+00  0.00000000E+00
  0.00000000E+00  0.00000000E+00  0.00000000E+00
  0.00000000E+00  0.00000000E+00  0.00000000E+00
  0.00000000E+00  0.00000000E+00  0.00000000E+00
  0.00000000E+00  0.00000000E+00  0.00000000E+00
  0.00000000E+00  0.00000000E+00  0.00000000E+00
  0.00000000E+00  0.00000000E+00  0.00000000E+00
  0.00000000E+00  0.00000000E+00  0.00000000E+00
  0.00000000E+00  0.00000000E+00  0.00000000E+00
  0.00000000E+00  0.00000000E+00  0.00000000E+00
  0.00000000E+00  0.00000000E+00  0.00000000E+00
  0.00000000E+00  0.00000000E+00  0.00000000E+00
  0.00000000E+00  0.00000000E+00  0.00000000E+00
  0.00000000E+00  0.00000000E+00  0.00000000E+00
  0.00000000E+00  0.00000000E+00  0.00000000E+00
  0.00000000E+00  0.00000000E+00  0.00000000E+00
  0.00000000E+00  0.00000000E+00  0.00000000E+00
  0.00000000E+00  0.00000000E+00  0.00000000E+00
  0.00000000E+00  0.00000000E+00  0.00000000E+00
  0.00000000E+00  0.00000000E+00  0.00000000E+00
  0.00000000E+00  0.00000000E+00  0.00000000E+00
  0.00000000E+00  0.00000000E+00  0.00000000E+00
  0.00000000E+00  0.00000000E+00  0.00000000E+00
  0.00000000E+00  0.00000000E+00  0.00000000E+00
  0.00000000E+00  0.00000000E+00  0.00000000E+00
  0.00000000E+00  0.00000000E+00  0.00000000E+00
  0.00000000E+00  0.00000000E+00  0.00000000E+00
  0.00000000E+00  0.00000000E+00  0.00000000E+00
  0.00000000E+00  0.00000000E+00  0.00000000E+00
  0.00000000E+00  0.00000000E+00  0.00000000E+00
  0.00000000E+00  0.00000000E+00  0.00000000E+00
  0.00000000E+00  0.00000000E+00  0.00000000E+00
  0.00000000E+00  0.00000000E+00  0.00000000E+00
  0.00000000E+00  0.00000000E+00  0.00000000E+00
  0.00000000E+00  0.00000000E+00  0.00000000E+00
  0.00000000E+00  0.00000000E+00  0.00000000E+00
  0.00000000E+00  0.00000000E+00  0.00000000E+00
  0.00000000E+00  0.00000000E+00  0.00000000E+00
  0.00000000E+00  0.00000000E+00  0.00000000E+00
  0.00000000E+00  0.00000000E+00  0.00000000E+00
  0.00000000E+00  0.00000000E+00  0.00000000E+00
  0.00000000E+00  0.00000000E+00  0.00000000E+00
  0.00000000E+00  0.00000000E+00  0.00000000E+00
  0.00000000E+00  0.00000000E+00  0.00000000E+00
  0.00000000E+00  0.00000000E+00  0.00000000E+00
  0.00000000E+00  0.00000000E+00  0.00000000E+00
  0.00000000E+00  0.00000000E+00  0.00000000E+00
  0.00000000E+00  0.00000000E+00  0.00000000E+00
  0.00000000E+00  0.00000000E+00  0.00000000E+00
  0.00000000E+00  0.00000000E+00  0.00000000E+00
  0.00000000E+00  0.00000000E+00  0.00000000E+00
  0.00000000E+00  0.00000000E+00  0.00000000E+00
  0.00000000E+00  0.00000000E+00  0.00000000E+00
  0.00000000E+00  0.00000000E+00  0.00000000E+00
  0.00000000E+00  0.00000000E+00  0.00000000E+00
  0.00000000E+00  0.00000000E+00  0.00000000E+00
  0.00000000E+00  0.00000000E+00  0.00000000E+00
  0.00000000E+00  0.00000000E+00  0.00000000E+00
  0.00000000E+00  0.00000000E+00  0.00000000E+00
  0.00000000E+00  0.00000000E+00  0.00000000E+00
  0.00000000E+00  0.00000000E+00  0.00000000E+00
  0.00000000E+00  0.00000000E+00  0.00000000E+00
  0.00000000E+00  0.00000000E+00  0.00000000E+00
  0.00000000E+00  0.00000000E+00  0.00000000E+00
  0.00000000E+00  0.00000000E+00  0.00000000E+00
  0.00000000E+00  0.00000000E+00  0.00000000E+00
  0.00000000E+00  0.00000000E+00  0.00000000E+00
  0.00000000E+00  0.00000000E+00  0.00000000E+00
  0.00000000E+00  0.00000000E+00  0.00000000E+00
  0.00000000E+00  0.00000000E+00  0.00000000E+00
  0.00000000E+00  0.00000000E+00  0.00000000E+00
  0.00000000E+00  0.00000000E+00  0.00000000E+00
  0.00000000E+00  0.00000000E+00  0.00000000E+00
  0.00000000E+00  0.00000000E+00  0.00000000E+00
  0.00000000E+00  0.00000000E+00  0.00000000E+00
  0.00000000E+00  0.00000000E+00  0.00000000E+00
  0.00000000E+00  0.00000000E+00  0.00000000E+00
  0.00000000E+00  0.00000000E+00  0.00000000E+00
  0.00000000E+00  0.00000000E+00  0.00000000E+00
  0.00000000E+00  0.00000000E+00  0.00000000E+00
  0.00000000E+00  0.00000000E+00  0.00000000E+00
  0.00000000E+00  0.00000000E+00  0.00000000E+00
  0.00000000E+00  0.00000000E+00  0.00000000E+00
  0.00000000E+00  0.00000000E+00  0.00000000E+00
  0.00000000E+00  0.00000000E+00  0.00000000E+00
  0.00000000E+00  0.00000000E+00  0.00000000E+00
  0.00000000E+00  0.00000000E+00  0.00000000E+00
  0.00000000E+00  0.00000000E+00  0.00000000E+00
  0.00000000E+00  0.00000000E+00  0.00000000E+00
  0.00000000E+00  0.00000000E+00  0.00000000E+00
  0.00000000E+00  0.00000000E+00  0.00000000E+00
  0.00000000E+00  0.00000000E+00  0.00000000E+00
  0.00000000E+00  0.00000000E+00  0.00000000E+00
  0.00000000E+00  0.00000000E+00  0.00000000E+00
  0.00000000E+00  0.00000000E+00  0.00000000E+00
  0.00000000E+00  0.00000000E+00  0.00000000E+00
  0.00000000E+00  0.00000000E+00  0.00000000E+00
  0.00000000E+00  0.00000000E+00  0.00000000E+00
  0.00000000E+00  0.00000000E+00  0.00000000E+00
  0.00000000E+00  0.00000000E+00  0.00000000E+00
  0.00000000E+00  0.00000000E+00  0.00000000E+00
  0.00000000E+00  0.00000000E+00  0.00000000E+00
  0.00000000E+00  0.00000000E+00  0.00000000E+00
  0.00000000E+00  0.00000000E+00  0.00000000E+00
  0.00000000E+00  0.00000000E+00  0.00000000E+00
  0.00000000E+00  0.00000000E+00  0.00000000E+00
  0.00000000E+00  0.00000000E+00  0.00000000E+00
  0.00000000E+00  0.00000000E+00  0.00000000E+00
  0.00000000E+00  0.00000000E+00  0.00000000E+00
  0.00000000E+00  0.00000000E+00  0.00000000E+00
  0.00000000E+00  0.00000000E+00  0.00000000E+00
  0.00000000E+00  0.00000000E+00  0.00000000E+00
  0.00000000E+00  0.00000000E+00  0.00000000E+00
  0.00000000E+00  0.00000000E+00  0.00000000E+00
  0.00000000E+00  0.00000000E+00  0.00000000E+00
  0.00000000E+00  0.00000000E+00  0.00000000E+00
  0.00000000E+00  0.00000000E+00  0.00000000E+00
  0.00000000E+00  0.00000000E+00  0.00000000E+00
  0.00000000E+00  0.00000000E+00  0.00000000E+00
  0.00000000E+00  0.00000000E+00  0.00000000E+00
  0.00000000E+00  0.00000000E+00  0.00000000E+00
  0.00000000E+00  0.00000000E+00  0.00000000E+00
  0.00000000E+00  0.00000000E+00  0.00000000E+00
  0.00000000E+00  0.00000000E+00  0.00000000E+00
  0.00000000E+00  0.00000000E+00  0.00000000E+00
  0.00000000E+00  0.00000000E+00  0.00000000E+00
  0.00000000E+00  0.00000000E+00  0.00000000E+00
  0.00000000E+00  0.00000000E+00  0.00000000E+00
  0.00000000E+00  0.00000000E+00  0.00000000E+00
  0.00000000E+00  0.00000000E+00  0.00000000E+00
  0.00000000E+00  0.00000000E+00  0.00000000E+00
  0.00000000E+00  0.00000000E+00  0.00000000E+00
  0.00000000E+00  0.00000000E+00  0.00000000E+00
  0.00000000E+00  0.00000000E+00  0.00000000E+00
  0.00000000E+00  0.00000000E+00  0.00000000E+00
  0.00000000E+00  0.00000000E+00  0.00000000E+00
  0.00000000E+00  0.00000000E+00  0.00000000E+00
  0.00000000E+00  0.00000000E+00  0.00000000E+00
  0.00000000E+00  0.00000000E+00  0.00000000E+00
  0.00000000E+00  0.00000000E+00  0.00000000E+00
  0.00000000E+00  0.00000000E+00  0.00000000E+00
  0.00000000E+00  0.00000000E+00  0.00000000E+00
  0.00000000E+00  0.00000000E+00  0.00000000E+00
  0.00000000E+00  0.00000000E+00  0.00000000E+00
  0.00000000E+00  0.00000000E+00  0.00000000E+00
  0.00000000E+00  0.00000000E+00  0.00000000E+00
  0.00000000E+00  0.00000000E+00  0.00000000E+00
  0.00000000E+00  0.00000000E+00  0.00000000E+00
