SrTiFeO                                 
   1.00000000000000     
    11.1989999999999998    0.0000000000000000    0.0000000000000000
     0.0000000000000000   11.1989999999999998    0.0000000000000000
     0.0000000000000000    0.0000000000000000   15.9830000000000005
   Sr   Ti   Fe   O 
    32    31     1    94
Direct
  1.0000539181719741  0.2498640766994276  0.1255708865485939
  0.0015583137287546  0.2492653227409108  0.6237385516108889
  0.0006370412710829  0.7499976180359150  0.1262124323637820
  0.0089100701975094  0.7507471977930027  0.6231434539559561
  0.5000815672054510  0.2489467926613027  0.1248199060209843
  0.4984802806997909  0.2420211465603163  0.6231073846062631
  0.4987933827618898  0.7511959758808223  0.1257968549890216
  0.4914723748127547  0.7563169971407043  0.6233791272237235
  0.0006364231280867  0.2495309355742612  0.3766387893760743
  0.9991876908348480  0.2503892992353876  0.8750612861329088
  0.9979377309682210  0.7500836793141147  0.3773204787988160
  0.0046151089030399  0.7501743019968138  0.8755404952856966
  0.5010056961420779  0.2473384928558917  0.3751205789519770
  0.4995832891176927  0.2472278671630180  0.8744585019827930
  0.5005764973843012  0.7527864020877768  0.3753794504899275
  0.4946881512364886  0.7523305469244098  0.8783095292398669
  0.2493307327971773  0.9999598112829821  0.1251557753936899
  0.2488830912471615  0.0012596466818808  0.6230496503146994
  0.2494031855666439  0.5001305403128999  0.1250239739237088
  0.2425551913967655  0.4986225793579157  0.6241782048928317
  0.7505775659577992  0.0008619360299825  0.1264137380103579
  0.7517793755370795  0.0083894529064477  0.6237124742860352
  0.7503309410994313  0.4986612478597198  0.1257804333374182
  0.7566672218275530  0.4912525873574877  0.6241698431067428
  0.2498544430775613  0.9997578607424160  0.3759102310743072
  0.2491595924996061  0.9999981215140218  0.8741237744527132
  0.2474298076738660  0.4998929486957907  0.3759903935928818
  0.2479701112139783  0.5006919044615507  0.8754309498134568
  0.7513837067927825  0.9970991843039821  0.3780779058907616
  0.7496406646109701  0.0045292406900243  0.8764493163763090
  0.7525848493444196  0.5014897538941018  0.3748128602961153
  0.7518408196279770  0.4949878540601386  0.8770243175402344
  0.9990826314448871  0.9992998425810167  0.9996771888352964
  0.9982024374582450  0.9987963617181563  0.5004432273851316
  0.9996122781573171  0.5005752306376701  0.0001703260355716
  0.9980418090352913  0.5020299814620982  0.5005242605052281
  0.5003387536763141  0.9995672909992548  0.0002352309476154
  0.5016496181294974  0.9980770526454128  0.5002620405000883
  0.5003382631531184  0.5002190545327664  0.0007970736223226
  0.2502598720185955  0.2503951895866465  0.9992106567091520
  0.2500931296895064  0.2497711587741454  0.4998654735877707
  0.2499839549130474  0.7497130855350098  0.0005008976972059
  0.2498473162157868  0.7501087033539482  0.4996191046604751
  0.7496315829844664  0.2500801360735040  0.0004899971718579
  0.7501911442897071  0.2501970335778882  0.4997441520149135
  0.7496813717264779  0.7495775468632901  0.0051168557352290
  0.2507848171211883  0.2504302747335644  0.2505824870552105
  0.2492422503188058  0.2496899121048485  0.7499771893976972
  0.2500178082900014  0.7496249543712385  0.2504539990221390
  0.2502251752800465  0.7499865795393783  0.7495203089998982
  0.7498849144283880  0.2500918238259578  0.2505420598472532
  0.7500267865117548  0.2496954124419072  0.7497500289832895
  0.7496256818256766  0.7494294314589640  0.2523620499270166
  0.7487019123692935  0.7487346157709530  0.7577186763164432
  0.9995956586420343  0.9994332593088801  0.2508448163887706
  0.9997274974293535  0.0002419552090777  0.7493563543030098
  0.9997275486899457  0.5004818322688205  0.2500587560425221
  0.0003682356721103  0.4997856148721480  0.7494975894946191
  0.5008093046688588  0.9996772009430015  0.2500732051777039
  0.4995295746790590  0.9995312238517852  0.7492466122628891
  0.5003884255657115  0.5003941770571368  0.2477347514887450
  0.5005232489184598  0.4999499265413314  0.7520653531735784
  0.5015177381399818  0.5012218102984858  0.4959897408345055
  0.7481776332999214  0.7481926847853455  0.4988686872820541
  0.1099719681028683  0.1410980291528185  0.2517486201345114
  0.1109925658703086  0.1391792270676554  0.7563082860154501
  0.1086298113705344  0.6412510175099970  0.2505355276600996
  0.1124487954846324  0.6377659302911763  0.7496616337952098
  0.6085589764880078  0.1412778471882145  0.2490709704436100
  0.6122248627593595  0.1369283776013872  0.7496752963601518
  0.6070025891342671  0.6410574543417595  0.2465635921607650
  0.3923646067435311  0.3589660965471488  0.2497425587941797
  0.3912768924566049  0.3639643148067339  0.7412369822607149
  0.3914279172111257  0.8587079079394567  0.2506617041576874
  0.3884074997898319  0.8615728888983837  0.7519781169383780
  0.8913633027917718  0.3590043276067738  0.2511619877898654
  0.8880386943524352  0.3623285993162600  0.7510531211015942
  0.8912497932917550  0.8585659437356549  0.2489068364013383
  0.8830860593294170  0.8585165343678308  0.7365384225881628
  0.3592837829864547  0.1091368847769602  0.2508665104108075
  0.3617289261076949  0.1117925526733787  0.7530493242561054
  0.3586775699026906  0.6076003811304183  0.2500731940516052
  0.3647996139450300  0.6111353006189244  0.7411973975823196
  0.8587370192273809  0.1091926323175896  0.2511733400106361
  0.8611977250467752  0.1107684740555158  0.7519012952567827
  0.8586413702457227  0.6079073625786903  0.2471574568113584
  0.8605817481531101  0.6154433877111198  0.7398308328894682
  0.1411157370752065  0.3914437357813101  0.2503150479075257
  0.1396903059687333  0.3891247229795737  0.7532748484494606
  0.1411535229188693  0.8908564863906470  0.2509452936244899
  0.1371213969914123  0.8875189481778762  0.7518628942956266
  0.6414205133394140  0.3922408711655709  0.2503250413107165
  0.6411595782383610  0.8914507009835873  0.2487461484251370
  0.6398978255800067  0.8833140127566409  0.7373030214074078
  0.3599614327554020  0.3916520072866438  0.9986626874136515
  0.3597171966076283  0.8903014310463985  0.9980986256748471
  0.3617130882903143  0.8880580576465752  0.4993449381148098
  0.8594246069216910  0.3908501127914821  0.9996479791119603
  0.8612247545056747  0.3883603679768146  0.4984685293627538
  0.8576523977250947  0.8903673255134140  0.9995010524694585
  0.8655962921943456  0.8924932976351458  0.5094900977556653
  0.1397803330982089  0.1102108634499689  0.9960320550513793
  0.1400782999992832  0.1128771668283133  0.4959487024118097
  0.1404639461509158  0.6093389298993047  0.9993108082994173
  0.1375957312960988  0.6122910852869448  0.5005584699227581
  0.6404380777853460  0.1092945113394758  1.0003607048958254
  0.6384272713176393  0.1124914296477017  0.5006664305902335
  0.6421669179707216  0.6087412552026455  0.0007622024133467
  0.1095666984534339  0.3601460376290942  0.9977727141531674
  0.1126158344705904  0.3621655489782055  0.4984455279562365
  0.1095589675731549  0.8593457444163060  0.9991570568172804
  0.1127625330372377  0.8621602418600551  0.4985269777029639
  0.6087803780098431  0.3595646507316039  0.9987055524910586
  0.6090551643105008  0.8580033074351853  1.0000420040823796
  0.6108282517064270  0.8637718547319574  0.5089340850846876
  0.3907980817496599  0.1399371117678880  0.9982390384514135
  0.3885935106935527  0.1393379521752709  0.4982465634372198
  0.3911284810085365  0.6406482490152779  0.0008614897760506
  0.3864656857388411  0.6353400030240031  0.5064233381107288
  0.8899374698456809  0.1403594614754727  0.9983946613902226
  0.8893139416299071  0.1405508801335118  0.4989940887075403
  0.8906731830056226  0.6419995740606664  0.9992884132041535
  0.0007598974477152  0.0013487881766765  0.1243933053295863
  0.0090994860537978  0.0089195361490561  0.6262567977207384
  0.0009819680616986  0.4993205416582940  0.1243471465833641
  0.0055559905577915  0.4921490688454733  0.6259771362042450
  0.4986133440443547 -0.0002708202804980  0.1244518744457669
  0.4923230457407200  0.0054222704561304  0.6256877268318083
  0.4994912597648725  0.4983037635291503  0.1244614760104619
  0.9964570178260929  0.9973427574857826  0.3749934314374568
  0.9937692551889292  0.9922525721070504  0.8738126046433153
  0.9969513559561922  0.5050382374297134  0.3754166630986558
  0.9953597925933581  0.5045648914012127  0.8740058031433470
  0.5033454019398216  0.9976725907462216  0.3752089765864763
  0.5068791410494334  0.9960236955577122  0.8738528426815643
  0.5053063484958437  0.5086913257160973  0.8738468809431966
  0.2545630754984294  0.2559739689080772  0.3749089817208696
  0.2564901313746348  0.2549381192936800  0.8744392108473372
  0.2528760197412389  0.7471412729629391  0.3756009647359562
  0.2524873384413102  0.7451632416964431  0.8742975902421478
  0.7455023870472820  0.2521009919224687  0.3757300150129857
  0.7471629175695571  0.2522706269421027  0.8744899099779472
  0.7467817566215934  0.7441520734817307  0.3707122380825462
  0.7454349924411220  0.7473423678327227  0.8731889839828620
  0.2497926948522785  0.2496398367151489  0.1240505645408176
  0.2440293947680676  0.2441047863698732  0.6263565612287548
  0.2498877679586658  0.7505838827147350  0.1250480644347074
  0.2468891193646087  0.7553365146894514  0.6250345525622141
  0.7505205635756503  0.2507537087568149  0.1250077363169908
  0.7548782961035424  0.2471322972036764  0.6252376459899400
  0.7503288762776897  0.7505895380938845  0.1242595304610370
  0.6372257384292443  0.3890296450769541  0.7439456734088618
  0.6168349368727606  0.6379711262581569  0.7297692713873558
  0.5041612296307566  0.5032457234466418  0.3763966041016999
  0.6095981000684367  0.3621593361307313  0.5078734951351950
  0.3634384166758385  0.3893347244606851  0.5100936520794990
  0.8880722118981010  0.6364407045327254  0.5115490958197259
  0.6281440197363302  0.6072452035389212  0.5233461928416747
 
  0.00000000E+00  0.00000000E+00  0.00000000E+00
  0.00000000E+00  0.00000000E+00  0.00000000E+00
  0.00000000E+00  0.00000000E+00  0.00000000E+00
  0.00000000E+00  0.00000000E+00  0.00000000E+00
  0.00000000E+00  0.00000000E+00  0.00000000E+00
  0.00000000E+00  0.00000000E+00  0.00000000E+00
  0.00000000E+00  0.00000000E+00  0.00000000E+00
  0.00000000E+00  0.00000000E+00  0.00000000E+00
  0.00000000E+00  0.00000000E+00  0.00000000E+00
  0.00000000E+00  0.00000000E+00  0.00000000E+00
  0.00000000E+00  0.00000000E+00  0.00000000E+00
  0.00000000E+00  0.00000000E+00  0.00000000E+00
  0.00000000E+00  0.00000000E+00  0.00000000E+00
  0.00000000E+00  0.00000000E+00  0.00000000E+00
  0.00000000E+00  0.00000000E+00  0.00000000E+00
  0.00000000E+00  0.00000000E+00  0.00000000E+00
  0.00000000E+00  0.00000000E+00  0.00000000E+00
  0.00000000E+00  0.00000000E+00  0.00000000E+00
  0.00000000E+00  0.00000000E+00  0.00000000E+00
  0.00000000E+00  0.00000000E+00  0.00000000E+00
  0.00000000E+00  0.00000000E+00  0.00000000E+00
  0.00000000E+00  0.00000000E+00  0.00000000E+00
  0.00000000E+00  0.00000000E+00  0.00000000E+00
  0.00000000E+00  0.00000000E+00  0.00000000E+00
  0.00000000E+00  0.00000000E+00  0.00000000E+00
  0.00000000E+00  0.00000000E+00  0.00000000E+00
  0.00000000E+00  0.00000000E+00  0.00000000E+00
  0.00000000E+00  0.00000000E+00  0.00000000E+00
  0.00000000E+00  0.00000000E+00  0.00000000E+00
  0.00000000E+00  0.00000000E+00  0.00000000E+00
  0.00000000E+00  0.00000000E+00  0.00000000E+00
  0.00000000E+00  0.00000000E+00  0.00000000E+00
  0.00000000E+00  0.00000000E+00  0.00000000E+00
  0.00000000E+00  0.00000000E+00  0.00000000E+00
  0.00000000E+00  0.00000000E+00  0.00000000E+00
  0.00000000E+00  0.00000000E+00  0.00000000E+00
  0.00000000E+00  0.00000000E+00  0.00000000E+00
  0.00000000E+00  0.00000000E+00  0.00000000E+00
  0.00000000E+00  0.00000000E+00  0.00000000E+00
  0.00000000E+00  0.00000000E+00  0.00000000E+00
  0.00000000E+00  0.00000000E+00  0.00000000E+00
  0.00000000E+00  0.00000000E+00  0.00000000E+00
  0.00000000E+00  0.00000000E+00  0.00000000E+00
  0.00000000E+00  0.00000000E+00  0.00000000E+00
  0.00000000E+00  0.00000000E+00  0.00000000E+00
  0.00000000E+00  0.00000000E+00  0.00000000E+00
  0.00000000E+00  0.00000000E+00  0.00000000E+00
  0.00000000E+00  0.00000000E+00  0.00000000E+00
  0.00000000E+00  0.00000000E+00  0.00000000E+00
  0.00000000E+00  0.00000000E+00  0.00000000E+00
  0.00000000E+00  0.00000000E+00  0.00000000E+00
  0.00000000E+00  0.00000000E+00  0.00000000E+00
  0.00000000E+00  0.00000000E+00  0.00000000E+00
  0.00000000E+00  0.00000000E+00  0.00000000E+00
  0.00000000E+00  0.00000000E+00  0.00000000E+00
  0.00000000E+00  0.00000000E+00  0.00000000E+00
  0.00000000E+00  0.00000000E+00  0.00000000E+00
  0.00000000E+00  0.00000000E+00  0.00000000E+00
  0.00000000E+00  0.00000000E+00  0.00000000E+00
  0.00000000E+00  0.00000000E+00  0.00000000E+00
  0.00000000E+00  0.00000000E+00  0.00000000E+00
  0.00000000E+00  0.00000000E+00  0.00000000E+00
  0.00000000E+00  0.00000000E+00  0.00000000E+00
  0.00000000E+00  0.00000000E+00  0.00000000E+00
  0.00000000E+00  0.00000000E+00  0.00000000E+00
  0.00000000E+00  0.00000000E+00  0.00000000E+00
  0.00000000E+00  0.00000000E+00  0.00000000E+00
  0.00000000E+00  0.00000000E+00  0.00000000E+00
  0.00000000E+00  0.00000000E+00  0.00000000E+00
  0.00000000E+00  0.00000000E+00  0.00000000E+00
  0.00000000E+00  0.00000000E+00  0.00000000E+00
  0.00000000E+00  0.00000000E+00  0.00000000E+00
  0.00000000E+00  0.00000000E+00  0.00000000E+00
  0.00000000E+00  0.00000000E+00  0.00000000E+00
  0.00000000E+00  0.00000000E+00  0.00000000E+00
  0.00000000E+00  0.00000000E+00  0.00000000E+00
  0.00000000E+00  0.00000000E+00  0.00000000E+00
  0.00000000E+00  0.00000000E+00  0.00000000E+00
  0.00000000E+00  0.00000000E+00  0.00000000E+00
  0.00000000E+00  0.00000000E+00  0.00000000E+00
  0.00000000E+00  0.00000000E+00  0.00000000E+00
  0.00000000E+00  0.00000000E+00  0.00000000E+00
  0.00000000E+00  0.00000000E+00  0.00000000E+00
  0.00000000E+00  0.00000000E+00  0.00000000E+00
  0.00000000E+00  0.00000000E+00  0.00000000E+00
  0.00000000E+00  0.00000000E+00  0.00000000E+00
  0.00000000E+00  0.00000000E+00  0.00000000E+00
  0.00000000E+00  0.00000000E+00  0.00000000E+00
  0.00000000E+00  0.00000000E+00  0.00000000E+00
  0.00000000E+00  0.00000000E+00  0.00000000E+00
  0.00000000E+00  0.00000000E+00  0.00000000E+00
  0.00000000E+00  0.00000000E+00  0.00000000E+00
  0.00000000E+00  0.00000000E+00  0.00000000E+00
  0.00000000E+00  0.00000000E+00  0.00000000E+00
  0.00000000E+00  0.00000000E+00  0.00000000E+00
  0.00000000E+00  0.00000000E+00  0.00000000E+00
  0.00000000E+00  0.00000000E+00  0.00000000E+00
  0.00000000E+00  0.00000000E+00  0.00000000E+00
  0.00000000E+00  0.00000000E+00  0.00000000E+00
  0.00000000E+00  0.00000000E+00  0.00000000E+00
  0.00000000E+00  0.00000000E+00  0.00000000E+00
  0.00000000E+00  0.00000000E+00  0.00000000E+00
  0.00000000E+00  0.00000000E+00  0.00000000E+00
  0.00000000E+00  0.00000000E+00  0.00000000E+00
  0.00000000E+00  0.00000000E+00  0.00000000E+00
  0.00000000E+00  0.00000000E+00  0.00000000E+00
  0.00000000E+00  0.00000000E+00  0.00000000E+00
  0.00000000E+00  0.00000000E+00  0.00000000E+00
  0.00000000E+00  0.00000000E+00  0.00000000E+00
  0.00000000E+00  0.00000000E+00  0.00000000E+00
  0.00000000E+00  0.00000000E+00  0.00000000E+00
  0.00000000E+00  0.00000000E+00  0.00000000E+00
  0.00000000E+00  0.00000000E+00  0.00000000E+00
  0.00000000E+00  0.00000000E+00  0.00000000E+00
  0.00000000E+00  0.00000000E+00  0.00000000E+00
  0.00000000E+00  0.00000000E+00  0.00000000E+00
  0.00000000E+00  0.00000000E+00  0.00000000E+00
  0.00000000E+00  0.00000000E+00  0.00000000E+00
  0.00000000E+00  0.00000000E+00  0.00000000E+00
  0.00000000E+00  0.00000000E+00  0.00000000E+00
  0.00000000E+00  0.00000000E+00  0.00000000E+00
  0.00000000E+00  0.00000000E+00  0.00000000E+00
  0.00000000E+00  0.00000000E+00  0.00000000E+00
  0.00000000E+00  0.00000000E+00  0.00000000E+00
  0.00000000E+00  0.00000000E+00  0.00000000E+00
  0.00000000E+00  0.00000000E+00  0.00000000E+00
  0.00000000E+00  0.00000000E+00  0.00000000E+00
  0.00000000E+00  0.00000000E+00  0.00000000E+00
  0.00000000E+00  0.00000000E+00  0.00000000E+00
  0.00000000E+00  0.00000000E+00  0.00000000E+00
  0.00000000E+00  0.00000000E+00  0.00000000E+00
  0.00000000E+00  0.00000000E+00  0.00000000E+00
  0.00000000E+00  0.00000000E+00  0.00000000E+00
  0.00000000E+00  0.00000000E+00  0.00000000E+00
  0.00000000E+00  0.00000000E+00  0.00000000E+00
  0.00000000E+00  0.00000000E+00  0.00000000E+00
  0.00000000E+00  0.00000000E+00  0.00000000E+00
  0.00000000E+00  0.00000000E+00  0.00000000E+00
  0.00000000E+00  0.00000000E+00  0.00000000E+00
  0.00000000E+00  0.00000000E+00  0.00000000E+00
  0.00000000E+00  0.00000000E+00  0.00000000E+00
  0.00000000E+00  0.00000000E+00  0.00000000E+00
  0.00000000E+00  0.00000000E+00  0.00000000E+00
  0.00000000E+00  0.00000000E+00  0.00000000E+00
  0.00000000E+00  0.00000000E+00  0.00000000E+00
  0.00000000E+00  0.00000000E+00  0.00000000E+00
  0.00000000E+00  0.00000000E+00  0.00000000E+00
  0.00000000E+00  0.00000000E+00  0.00000000E+00
  0.00000000E+00  0.00000000E+00  0.00000000E+00
  0.00000000E+00  0.00000000E+00  0.00000000E+00
  0.00000000E+00  0.00000000E+00  0.00000000E+00
  0.00000000E+00  0.00000000E+00  0.00000000E+00
  0.00000000E+00  0.00000000E+00  0.00000000E+00
  0.00000000E+00  0.00000000E+00  0.00000000E+00
  0.00000000E+00  0.00000000E+00  0.00000000E+00
  0.00000000E+00  0.00000000E+00  0.00000000E+00
  0.00000000E+00  0.00000000E+00  0.00000000E+00
  0.00000000E+00  0.00000000E+00  0.00000000E+00
