SrTiFeO                                 
   1.00000000000000     
    11.1989999999999998    0.0000000000000000    0.0000000000000000
     0.0000000000000000   11.1989999999999998    0.0000000000000000
     0.0000000000000000    0.0000000000000000   15.9830000000000005
   Sr   Ti   Fe   O 
    32    31     1    94
Direct
  0.0007318568161210  0.2497904764684600  0.1249780149807312
  0.0018619041441893  0.2488235091303848  0.6252340728005318
  0.9984006856490867  0.7505662856587350  0.1255285521516659
  0.0045702295854506  0.7494503278248766  0.6246604911218667
  0.4993934850421233  0.2508895653188148  0.1250477824745262
  0.4997413250934033  0.2467377211433604  0.6254583480733373
  0.5002591624673828  0.7509452898418059  0.1238813673826510
  0.4891578984555677  0.7522384513774347  0.6278580321469542
  0.0002141968450969  0.2484052489433764  0.3749720675521878
  0.0005348623835459  0.2494920227612768  0.8746412676591997
  0.9942020437573295  0.7491848337009819  0.3775672289032886
  0.0000248377983362  0.7517837138838922  0.8757056468786374
  0.5013961414694972  0.2453139485063154  0.3743430487270437
  0.4992795891685510  0.2510868849667500  0.8740287411587596
  0.5002838382933048  0.7516055396721700  0.3721746292204229
  0.4982710053100570  0.7491631693962609  0.8764607379277514
  0.2498423445559174  0.0003776373177099  0.1250811436925008
  0.2489508208293195  0.0012978259369688  0.6255702434444214
  0.2505548887121288  0.5001485180181039  0.1245292902589027
  0.2453629627064928  0.4978279408528365  0.6267892275203978
  0.7504336570629319  0.9988578699465829  0.1252083901367759
  0.7515493304217318  0.0060931275513008  0.6245777083513633
  0.7486166100593123  0.5008659678894858  0.1243330283371872
  0.7536891117715709  0.4869284896620668  0.6268536577121298
  0.2492323751816971  0.9988174404173153  0.3747105986217849
  0.2491724887179224  0.0010105085714037  0.8750447866042683
  0.2433392408052953  0.5002463903448183  0.3734759236680477
  0.2511859496693843  0.4997785684142862  0.8750960181374877
  0.7514213958333741  0.9953777542116735  0.3761808361825065
  0.7506970479658847  0.0001094701411120  0.8754671431012004
  0.7538803808675199  0.4967008838362777  0.3712811416976205
  0.7495015800810617  0.4981658280263230  0.8756103228537563
  0.9995977511297567  0.0000372463989467  0.0000612461030660
  0.9978532303185402  0.9980616822580756  0.5007401561042514
  0.9995377843669626  0.5002769880420820  0.9999672087816274
  0.9975009454296715  0.5001035144959594  0.5011245615946718
  0.5004190439086318  0.0000037412234699  0.9999423473365735
  0.5006465838565191  0.9965234578783300  0.5011204344629772
  0.4999580434480145  0.4998810299582794  0.9991771667628648
  0.2504978648187659  0.2503906551110895  0.9996503332364837
  0.2466521608515634  0.2448920882054293  0.4991205834068089
  0.2495810326693438  0.7499539671856198  0.0002899714212330
  0.2496867322014267  0.7506700193862920  0.4993842165138753
  0.7502557217302307  0.2498206282748543  0.0003142515210323
  0.7512259729174348  0.2488991438601386  0.4991369804347880
  0.7505178902451578  0.7505264421850133  0.0010630547719199
  0.2502291515846854  0.2500145994690057  0.2506453820395402
  0.2500801180390388  0.2499443920955934  0.7503550111041988
  0.2490676434338039  0.7496795441424308  0.2500543264623885
  0.2489110849443960  0.7499143753005706  0.7506978488086788
  0.7499084013746008  0.2487711220763471  0.2497873321932162
  0.7499102182847532  0.2488389107912400  0.7508340338208213
  0.7492642808601622  0.7489443131562473  0.2509209217211186
  0.7482134229846985  0.7485129175610796  0.7538627815885688
  0.9999445390305624  0.9991445357182202  0.2502137674340784
  0.9997010454842497  0.9986406237827036  0.7494378241726256
  0.9992445638860690  0.5003576386365940  0.2493408167700484
  0.9997085571746239  0.4999964953570391  0.7499659808487369
  0.5004404275305250  0.9992100562464712  0.2498560865284346
  0.4998061070872531  0.9994488365205484  0.7498759772014868
  0.5007420172487351  0.5009317345414149  0.2495013909165789
  0.5007009358661368  0.5012097510713621  0.7480851933424897
  0.4893704446037900  0.4938497250842913  0.4993285680492593
  0.7484886092649524  0.7505774267321493  0.5021895753442867
  0.1100456030051347  0.1411920236921618  0.2497764080251742
  0.1112291824103401  0.1414923771322439  0.7524108065565712
  0.1085383012920788  0.6411343063756422  0.2510181773124632
  0.1085945024686038  0.6410025021329721  0.7500824497475117
  0.6087168678808493  0.1409141070531948  0.2495194784809445
  0.6105342730637009  0.1390806477586894  0.7502530123268349
  0.6079075747537065  0.6406167325531024  0.2436113727659184
  0.3918193398918793  0.3607880780185789  0.2554323744511119
  0.3899142362163844  0.3602471827382333  0.7467483472470174
  0.3903691243678130  0.8593225459112618  0.2496992230321492
  0.3896704599312334  0.8598045277341605  0.7513223383454511
  0.8905811543443690  0.3592238550669195  0.2517695885432344
  0.8888414452658443  0.3607688709326335  0.7486922583426536
  0.8913289450232257  0.8590906661139873  0.2514526715222655
  0.8923224048780590  0.8620191948839101  0.7431476371153869
  0.3602656627077885  0.1096631851312595  0.2514893408898821
  0.3605520670298216  0.1102227397944527  0.7518440988796347
  0.3587571391769276  0.6086021070151542  0.2518857886060076
  0.3587339935032001  0.6097218838012751  0.7480895321556823
  0.8587697160089052  0.1088575407688342  0.2505792833267619
  0.8602565325760819  0.1108853989981554  0.7503804439813024
  0.8593545100441012  0.6078056443098674  0.2464142897616980
  0.8584693481463506  0.6106142664257170  0.7402176179616623
  0.1402588644734761  0.3912992454025320  0.2510000572131409
  0.1400890506868889  0.3909154898349201  0.7528157780019646
  0.1414477659772460  0.8908736025427643  0.2497988806670496
  0.1415769005269020  0.8904435485364084  0.7503798086045298
  0.6410024616537648  0.3905842086366890  0.2501141653171128
  0.6403935025132439  0.8913486825875822  0.2489490169844601
  0.6398501673732867  0.8879490345027771  0.7395575911287712
  0.3592122030189303  0.3907950782310199  0.9996073591580444
  0.3594090505571887  0.8905814471642487  0.9993495876394869
  0.3575828212478753  0.8921609189342059  0.5003146557077910
  0.8588973203124957  0.3911587235619542  0.9999968895117716
  0.8617370425684894  0.3870270115890212  0.4995291671337203
  0.8603194280183312  0.8926566024361160  0.0014534743703989
  0.8637260293712676  0.8955101263411408  0.5051294253141588
  0.1414492657189551  0.1101440690118318  0.0004469935660023
  0.1426447866838944  0.1092045584890440  0.4983595823075770
  0.1405349908017224  0.6090577254947322  0.9992096805020690
  0.1390469551059900  0.6108309186857690  0.5004909706222943
  0.6414759851620115  0.1091045614024899  0.0000564137130673
  0.6397887128193465  0.1107000070933497  0.5000780330999862
  0.6402550793414772  0.6093299823933483  0.0000275403941906
  0.1091723417002054  0.3596191674033087  0.9987104303455859
  0.1099855051152720  0.3598625879202837  0.4981008060756135
  0.1097872962810360  0.8592059826274964  0.0003830555894292
  0.1103112844272515  0.8588035534313969  0.4996899955027312
  0.6095302755578262  0.3592542015830588  0.9994788719203417
  0.6091301891281000  0.8594933173579802  0.0000911125315629
  0.6062777595676843  0.8543096853204248  0.5089484228884139
  0.3915695865747601  0.1403969197468273  0.9987913588877945
  0.3917598139120917  0.1425650074662098  0.4984870051613963
  0.3904912060954983  0.6407184544971183  0.0004515406917626
  0.3968259669830554  0.6441291212415198  0.4995424181445292
  0.8913074821628083  0.1416724942430145  0.9998156554596634
  0.8910327620901284  0.1421978604123814  0.5001363995016828
  0.8911981985187912  0.6406371084361410  0.0010004932413392
  0.0007500748637373  0.0008657751967665  0.1256319915581069
  0.0074627450258071  0.0072562603702785  0.6250042537607652
  0.0018085463893848  0.4981843186636803  0.1247895673399096
  0.0066394280625247  0.4940120035004443  0.6255299894285344
  0.4988663596413307  0.0004526512778997  0.1246942980182874
  0.4940503370879856  0.0055741969096749  0.6252616985330146
  0.4971759542785409  0.4965361752057122  0.1253843211192719
  0.0003170756680224  0.0006215980479091  0.3750061522458880
  0.9994328178559488  0.9985057303594614  0.8753011181397989
  0.9964023466277717  0.5056991588316594  0.3758310171010478
  0.9944469822366601  0.5030761011358533  0.8740511723617462
  0.5032248643406032  0.9966927294674635  0.3757716402333461
  0.5047680586514576  0.9966249915039441  0.8741062049687227
  0.4991942333794623  0.5008994644473499  0.8746481310811925
  0.2491569968137703  0.2502728721177204  0.3749117209501670
  0.2525786344615616  0.2513685092121001  0.8753950887441690
  0.2503237284676391  0.7498970116504172  0.3753049790217621
  0.2503074060518698  0.7487420609750685  0.8751064056401184
  0.7484691551686723  0.2492158285373387  0.3750106913456499
  0.7507391453827684  0.2503822023983595  0.8751145269530359
  0.7451725732896451  0.7417913868129117  0.3707245926437846
  0.7557825463201386  0.7549854766171686  0.8767718192422660
  0.2528607027023879  0.2521005689507861  0.1256924249284935
  0.2489490768100519  0.2501170562652428  0.6243663633538166
  0.2500121660044189  0.7487274113530522  0.1252046381059092
  0.2496469194695897  0.7500073846716995  0.6248604134363471
  0.7507797441082460  0.2503648252640348  0.1251222701811732
  0.7486233514847274  0.2494039391205821  0.6248693078589006
  0.7517266054791052  0.7524500059138378  0.1241677733315001
  0.6396861928987004  0.3889521166610908  0.7505701367654070
  0.6087267421318434  0.6401295860515400  0.7469131139749412
  0.5147841813511601  0.5129483391700715  0.3781648316230208
  0.6155186926013165  0.3702523471660101  0.4998798919447864
  0.3574588279179158  0.3927464950083876  0.4982957555483167
  0.8782515439532057  0.6322581064655522  0.5114681962765448
  0.5068392328927236  0.5051651133173805  0.6215495056848184
 
  0.00000000E+00  0.00000000E+00  0.00000000E+00
  0.00000000E+00  0.00000000E+00  0.00000000E+00
  0.00000000E+00  0.00000000E+00  0.00000000E+00
  0.00000000E+00  0.00000000E+00  0.00000000E+00
  0.00000000E+00  0.00000000E+00  0.00000000E+00
  0.00000000E+00  0.00000000E+00  0.00000000E+00
  0.00000000E+00  0.00000000E+00  0.00000000E+00
  0.00000000E+00  0.00000000E+00  0.00000000E+00
  0.00000000E+00  0.00000000E+00  0.00000000E+00
  0.00000000E+00  0.00000000E+00  0.00000000E+00
  0.00000000E+00  0.00000000E+00  0.00000000E+00
  0.00000000E+00  0.00000000E+00  0.00000000E+00
  0.00000000E+00  0.00000000E+00  0.00000000E+00
  0.00000000E+00  0.00000000E+00  0.00000000E+00
  0.00000000E+00  0.00000000E+00  0.00000000E+00
  0.00000000E+00  0.00000000E+00  0.00000000E+00
  0.00000000E+00  0.00000000E+00  0.00000000E+00
  0.00000000E+00  0.00000000E+00  0.00000000E+00
  0.00000000E+00  0.00000000E+00  0.00000000E+00
  0.00000000E+00  0.00000000E+00  0.00000000E+00
  0.00000000E+00  0.00000000E+00  0.00000000E+00
  0.00000000E+00  0.00000000E+00  0.00000000E+00
  0.00000000E+00  0.00000000E+00  0.00000000E+00
  0.00000000E+00  0.00000000E+00  0.00000000E+00
  0.00000000E+00  0.00000000E+00  0.00000000E+00
  0.00000000E+00  0.00000000E+00  0.00000000E+00
  0.00000000E+00  0.00000000E+00  0.00000000E+00
  0.00000000E+00  0.00000000E+00  0.00000000E+00
  0.00000000E+00  0.00000000E+00  0.00000000E+00
  0.00000000E+00  0.00000000E+00  0.00000000E+00
  0.00000000E+00  0.00000000E+00  0.00000000E+00
  0.00000000E+00  0.00000000E+00  0.00000000E+00
  0.00000000E+00  0.00000000E+00  0.00000000E+00
  0.00000000E+00  0.00000000E+00  0.00000000E+00
  0.00000000E+00  0.00000000E+00  0.00000000E+00
  0.00000000E+00  0.00000000E+00  0.00000000E+00
  0.00000000E+00  0.00000000E+00  0.00000000E+00
  0.00000000E+00  0.00000000E+00  0.00000000E+00
  0.00000000E+00  0.00000000E+00  0.00000000E+00
  0.00000000E+00  0.00000000E+00  0.00000000E+00
  0.00000000E+00  0.00000000E+00  0.00000000E+00
  0.00000000E+00  0.00000000E+00  0.00000000E+00
  0.00000000E+00  0.00000000E+00  0.00000000E+00
  0.00000000E+00  0.00000000E+00  0.00000000E+00
  0.00000000E+00  0.00000000E+00  0.00000000E+00
  0.00000000E+00  0.00000000E+00  0.00000000E+00
  0.00000000E+00  0.00000000E+00  0.00000000E+00
  0.00000000E+00  0.00000000E+00  0.00000000E+00
  0.00000000E+00  0.00000000E+00  0.00000000E+00
  0.00000000E+00  0.00000000E+00  0.00000000E+00
  0.00000000E+00  0.00000000E+00  0.00000000E+00
  0.00000000E+00  0.00000000E+00  0.00000000E+00
  0.00000000E+00  0.00000000E+00  0.00000000E+00
  0.00000000E+00  0.00000000E+00  0.00000000E+00
  0.00000000E+00  0.00000000E+00  0.00000000E+00
  0.00000000E+00  0.00000000E+00  0.00000000E+00
  0.00000000E+00  0.00000000E+00  0.00000000E+00
  0.00000000E+00  0.00000000E+00  0.00000000E+00
  0.00000000E+00  0.00000000E+00  0.00000000E+00
  0.00000000E+00  0.00000000E+00  0.00000000E+00
  0.00000000E+00  0.00000000E+00  0.00000000E+00
  0.00000000E+00  0.00000000E+00  0.00000000E+00
  0.00000000E+00  0.00000000E+00  0.00000000E+00
  0.00000000E+00  0.00000000E+00  0.00000000E+00
  0.00000000E+00  0.00000000E+00  0.00000000E+00
  0.00000000E+00  0.00000000E+00  0.00000000E+00
  0.00000000E+00  0.00000000E+00  0.00000000E+00
  0.00000000E+00  0.00000000E+00  0.00000000E+00
  0.00000000E+00  0.00000000E+00  0.00000000E+00
  0.00000000E+00  0.00000000E+00  0.00000000E+00
  0.00000000E+00  0.00000000E+00  0.00000000E+00
  0.00000000E+00  0.00000000E+00  0.00000000E+00
  0.00000000E+00  0.00000000E+00  0.00000000E+00
  0.00000000E+00  0.00000000E+00  0.00000000E+00
  0.00000000E+00  0.00000000E+00  0.00000000E+00
  0.00000000E+00  0.00000000E+00  0.00000000E+00
  0.00000000E+00  0.00000000E+00  0.00000000E+00
  0.00000000E+00  0.00000000E+00  0.00000000E+00
  0.00000000E+00  0.00000000E+00  0.00000000E+00
  0.00000000E+00  0.00000000E+00  0.00000000E+00
  0.00000000E+00  0.00000000E+00  0.00000000E+00
  0.00000000E+00  0.00000000E+00  0.00000000E+00
  0.00000000E+00  0.00000000E+00  0.00000000E+00
  0.00000000E+00  0.00000000E+00  0.00000000E+00
  0.00000000E+00  0.00000000E+00  0.00000000E+00
  0.00000000E+00  0.00000000E+00  0.00000000E+00
  0.00000000E+00  0.00000000E+00  0.00000000E+00
  0.00000000E+00  0.00000000E+00  0.00000000E+00
  0.00000000E+00  0.00000000E+00  0.00000000E+00
  0.00000000E+00  0.00000000E+00  0.00000000E+00
  0.00000000E+00  0.00000000E+00  0.00000000E+00
  0.00000000E+00  0.00000000E+00  0.00000000E+00
  0.00000000E+00  0.00000000E+00  0.00000000E+00
  0.00000000E+00  0.00000000E+00  0.00000000E+00
  0.00000000E+00  0.00000000E+00  0.00000000E+00
  0.00000000E+00  0.00000000E+00  0.00000000E+00
  0.00000000E+00  0.00000000E+00  0.00000000E+00
  0.00000000E+00  0.00000000E+00  0.00000000E+00
  0.00000000E+00  0.00000000E+00  0.00000000E+00
  0.00000000E+00  0.00000000E+00  0.00000000E+00
  0.00000000E+00  0.00000000E+00  0.00000000E+00
  0.00000000E+00  0.00000000E+00  0.00000000E+00
  0.00000000E+00  0.00000000E+00  0.00000000E+00
  0.00000000E+00  0.00000000E+00  0.00000000E+00
  0.00000000E+00  0.00000000E+00  0.00000000E+00
  0.00000000E+00  0.00000000E+00  0.00000000E+00
  0.00000000E+00  0.00000000E+00  0.00000000E+00
  0.00000000E+00  0.00000000E+00  0.00000000E+00
  0.00000000E+00  0.00000000E+00  0.00000000E+00
  0.00000000E+00  0.00000000E+00  0.00000000E+00
  0.00000000E+00  0.00000000E+00  0.00000000E+00
  0.00000000E+00  0.00000000E+00  0.00000000E+00
  0.00000000E+00  0.00000000E+00  0.00000000E+00
  0.00000000E+00  0.00000000E+00  0.00000000E+00
  0.00000000E+00  0.00000000E+00  0.00000000E+00
  0.00000000E+00  0.00000000E+00  0.00000000E+00
  0.00000000E+00  0.00000000E+00  0.00000000E+00
  0.00000000E+00  0.00000000E+00  0.00000000E+00
  0.00000000E+00  0.00000000E+00  0.00000000E+00
  0.00000000E+00  0.00000000E+00  0.00000000E+00
  0.00000000E+00  0.00000000E+00  0.00000000E+00
  0.00000000E+00  0.00000000E+00  0.00000000E+00
  0.00000000E+00  0.00000000E+00  0.00000000E+00
  0.00000000E+00  0.00000000E+00  0.00000000E+00
  0.00000000E+00  0.00000000E+00  0.00000000E+00
  0.00000000E+00  0.00000000E+00  0.00000000E+00
  0.00000000E+00  0.00000000E+00  0.00000000E+00
  0.00000000E+00  0.00000000E+00  0.00000000E+00
  0.00000000E+00  0.00000000E+00  0.00000000E+00
  0.00000000E+00  0.00000000E+00  0.00000000E+00
  0.00000000E+00  0.00000000E+00  0.00000000E+00
  0.00000000E+00  0.00000000E+00  0.00000000E+00
  0.00000000E+00  0.00000000E+00  0.00000000E+00
  0.00000000E+00  0.00000000E+00  0.00000000E+00
  0.00000000E+00  0.00000000E+00  0.00000000E+00
  0.00000000E+00  0.00000000E+00  0.00000000E+00
  0.00000000E+00  0.00000000E+00  0.00000000E+00
  0.00000000E+00  0.00000000E+00  0.00000000E+00
  0.00000000E+00  0.00000000E+00  0.00000000E+00
  0.00000000E+00  0.00000000E+00  0.00000000E+00
  0.00000000E+00  0.00000000E+00  0.00000000E+00
  0.00000000E+00  0.00000000E+00  0.00000000E+00
  0.00000000E+00  0.00000000E+00  0.00000000E+00
  0.00000000E+00  0.00000000E+00  0.00000000E+00
  0.00000000E+00  0.00000000E+00  0.00000000E+00
  0.00000000E+00  0.00000000E+00  0.00000000E+00
  0.00000000E+00  0.00000000E+00  0.00000000E+00
  0.00000000E+00  0.00000000E+00  0.00000000E+00
  0.00000000E+00  0.00000000E+00  0.00000000E+00
  0.00000000E+00  0.00000000E+00  0.00000000E+00
  0.00000000E+00  0.00000000E+00  0.00000000E+00
  0.00000000E+00  0.00000000E+00  0.00000000E+00
  0.00000000E+00  0.00000000E+00  0.00000000E+00
  0.00000000E+00  0.00000000E+00  0.00000000E+00
  0.00000000E+00  0.00000000E+00  0.00000000E+00
  0.00000000E+00  0.00000000E+00  0.00000000E+00
  0.00000000E+00  0.00000000E+00  0.00000000E+00
  0.00000000E+00  0.00000000E+00  0.00000000E+00
