Sr   Ti   Fe   O                        
   1.00000000000000     
    11.1989999999999998    0.0000000000000000    0.0000000000000000
     0.0000000000000000   11.1989999999999998    0.0000000000000000
     0.0000000000000000    0.0000000000000000   15.9830000000000005
   Sr   Ti   Fe   O 
    32    31     1    94
Direct
  0.0004832905606087  0.2495110888199130  0.1249404775684626
  0.0022254505722183  0.2478364051887272  0.6250649652805940
  1.0000225815956878  0.7505776353020033  0.1259525824636515
  0.0079160772972785  0.7500946008357596  0.6234986688961277
  0.4993898423544439  0.2505203125915444  0.1244895431124924
  0.4995787978387999  0.2405620147265539  0.6236682200395055
  0.4984033546449325  0.7513888960841493  0.1241323865257944
  0.4874192357307960  0.7573257413578520  0.6258754811448068
  0.0001543055422706  0.2486278032726634  0.3760831695735521
  1.0009955109502411  0.2504469772317667  0.8742950531929465
  0.9993814790170579  0.7498067979557820  0.3761995875759536
  0.0048251334927225  0.7504724681501017  0.8757728001498313
  0.5016686779035814  0.2426264206703241  0.3734075530142612
  0.4988748187865962  0.2514630908960327  0.8732792041404152
  0.4972620145253991  0.7525259043499410  0.3715188134736121
  0.4973991703143464  0.7507323694271617  0.8779566014911040
  0.2498448669795559  0.0006083977077394  0.1247420862246706
  0.2485971855369772  0.0012123482794509  0.6244470787869727
  0.2501055677308998  0.5005564341761740  0.1248982407935054
  0.2375109976416034  0.4989582584892855  0.6262078470522575
  0.7499864018031056  1.0007377370721371  0.1258622330062377
  0.7532503991856164  0.0089521685723058  0.6254031524524802
  0.7492110575604130  0.4989004668255442  0.1243499326407395
  0.7653345310868706  0.4859562378142692  0.6265452867162835
  0.2492429534330715  0.9988648992152662  0.3749182108945187
  0.2496159998291556  0.0010244266902741  0.8739813773747778
  0.2434922404949613  0.5015367309918914  0.3755748159600314
  0.2516975243878692  0.4997677657419801  0.8747566626391796
  0.7520933070527238  0.9991268357272534  0.3755914450384311
  0.7507143913404810  0.0053366666750878  0.8773064733743776
  0.7562423069077906  0.4946148291327598  0.3690188183898201
  0.7507977296975215  0.4966060742604419  0.8759713698173996
  0.9994646606063012  0.9997280796854073  0.9997903082180946
  0.9984511301809161  0.9990968154110225  0.5005160767641000
  0.9999334879345227  0.5004083796341637  0.0000629721971775
  0.9963121990405156  0.5008371900574785  0.5002929870232794
  0.5003847579418055  1.0000769310452577 -0.0001555563017994
  0.5019626097688195  0.9955919634138705  0.5003827014883767
  0.4998000077311101  0.4997947677037869  0.9990300589871630
  0.2506201431362564  0.2508705903458801  0.9992293252280026
  0.2484766582810376  0.2468161874814644  0.5001085949225685
  0.2500979805231895  0.7495926316045509  0.0002121425016897
  0.2490340757145187  0.7507590236130057  0.4988188499891638
  0.7499328569849635  0.2504129518310464  0.0002238133301024
  0.7494182720206086  0.2484217659289661  0.4987120139393762
  0.7507682471246055  0.7506644839145558  0.0054487730518020
  0.2506872601456717  0.2508016894155639  0.2508239379321942
  0.2528678683006679  0.2510245012762130  0.7495714235999246
  0.2489039143723137  0.7499472824329499  0.2498259265752089
  0.2505638267098344  0.7499275673393512  0.7495783678389976
  0.7500427253460911  0.2487497747099860  0.2493881380312535
  0.7495663653987832  0.2496267025047105  0.7499473870677849
  0.7487441287564304  0.7484242757845746  0.2521049507905124
  0.7508474422381375  0.7520109570327378  0.7610135080519023
  0.9997545433977040  0.9992027638966574  0.2504248944910573
  1.0008834812223275  1.0008974024604098  0.7494421522925350
  0.9997211807165109  0.5003698112192959  0.2490514463246968
  0.0007847553229484  0.4999567203949158  0.7505424002934807
  0.5004197837606211  0.9991773755724679  0.2494466670180834
  0.5007371112502892  0.9994964634804860  0.7498990497543413
  0.5010838722987550  0.5011355865974066  0.2477930276678408
  0.5048545919665859  0.5048720790360375  0.7496972298830598
  0.4943435560769592  0.4951130264472773  0.4963243005603628
  0.7527906686446936  0.7555195837038117  0.4960507874540610
  0.1104956688773999  0.1412492402585766  0.2526029576202302
  0.1106312181338620  0.1381290073180682  0.7559649368813615
  0.1084190573621638  0.6409534376702032  0.2500352262493674
  0.1125917929104182  0.6375981060421869  0.7491488263802764
  0.6090644437841215  0.1401965599491566  0.2483051442295821
  0.6108801143467334  0.1390946342650985  0.7497453543147218
  0.6073643655143471  0.6414014086462844  0.2422582717214136
  0.3926574701935140  0.3609778957583074  0.2537442621268013
  0.3874907833477539  0.3588687466048143  0.7401056690388682
  0.3901689334548676  0.8594325079428949  0.2495734805975821
  0.3890290173656234  0.8613684942437041  0.7523971043630172
  0.8904845897520079  0.3596101980518561  0.2518633909795720
  0.8876982807741820  0.3627050784336781  0.7499889211581083
  0.8905301714292758  0.8581145054774922  0.2518093313523284
  0.8856900499260455  0.8605575004346138  0.7352999155177371
  0.3601493524120480  0.1100439078717947  0.2518560044123839
  0.3612959243164474  0.1098028569511595  0.7520671684688365
  0.3589827643812484  0.6084979447856158  0.2528342792591127
  0.3638871131901493  0.6115743556484480  0.7373706383557188
  0.8593295680090551  0.1086534925410739  0.2497658090723135
  0.8610122367022995  0.1116043342708122  0.7513963082681245
  0.8588909433887443  0.6078941220755724  0.2459605281387780
  0.8608535187442646  0.6167010202041227  0.7408889510678672
  0.1406328004709202  0.3915026294331111  0.2512669909349829
  0.1383308273807972  0.3888438151877071  0.7534880770113186
  0.1404467014450824  0.8911087186579171  0.2487256924326748
  0.1380828338932832  0.8873027199747693  0.7514499131603042
  0.6410527997668687  0.3907368372269746  0.2494586560585086
  0.6411270909051554  0.8909670248801367  0.2497163129387492
  0.6430756852961907  0.8885065114260018  0.7387168701052366
  0.3583620331331047  0.3906086156556627  1.0014536571349004
  0.3595954514423859  0.8902680637927385  0.9983559269475986
  0.3598093233432028  0.8893016423108090  0.4992408635635807
  0.8591745517788104  0.3912318594693969  0.9994204421277686
  0.8611402139894114  0.3859775252690880  0.4970542714202060
  0.8587201049653174  0.8919380300841150  0.0020696742628797
  0.8643144961288713  0.8936891910563634  0.5101347647913237
  0.1399895487308394  0.1097724906007444  0.9980128423856752
  0.1411450171258435  0.1119104886346799  0.4947099000463218
  0.1405418422465988  0.6090445963944029  0.9989824475290160
  0.1317398587716361  0.6150660182333486  0.5003659614769469
  0.6407657939677889  0.1094997049919584  0.0006287202580354
  0.6407528369717408  0.1067619372348177  0.5000544885155890
  0.6419238769020212  0.6100443393169148 -0.0005578891011783
  0.1090710037325905  0.3595889086663355  0.9982170959572078
  0.1122842365262380  0.3631730514779918  0.4976809120727099
  0.1098844683710430  0.8590972718238644  0.9990033269499763
  0.1107177233734745  0.8623678648023045  0.4987481293435451
  0.6092881887479356  0.3597086093144380  1.0000618799798793
  0.6094323759742248  0.8586005017840259  0.0004815647681854
  0.6071868654979313  0.8527106927183337  0.5082957954227786
  0.3909867234440504  0.1401234032188557  0.9985872806174058
  0.3903965020550885  0.1401060610635930  0.4983933019846243
  0.3909784734802708  0.6405199072553462  0.0009903093970345
  0.3833015898787028  0.6365755541423171  0.4961603860682504
  0.8904092612005856  0.1409156480179864  0.9978645096963209
  0.8906067423340226  0.1405244985842145  0.4990989273468266
  0.8911028393293740  0.6418789123892715  0.0007273124169583
  0.0006111937584124  0.0012782975678037  0.1249260328974930
  0.0097604044072508  0.0097813434893429  0.6254927026000895
  0.0014859648703540  0.4981082262564799  0.1244783987362540
  0.0053175828117106  0.4924077116082842  0.6256035263546036
  0.4984690520688715 -0.0004360523619773  0.1245855972763881
  0.4940692561745231  0.0043277621030752  0.6251357834429465
  0.4977462304753893  0.4975183121736701  0.1251430269472403
  0.9971263241791386  0.9977439598208400  0.3749262205274386
  0.9941172182291500  0.9924505817573573  0.8741257737310856
  0.9958832632074610  0.5069284898993177  0.3755425663818686
  0.9944353964484016  0.5045403979718642  0.8740841824660427
  0.5036316777625872  0.9966258699557157  0.3753017714245458
  0.5067417544473195  0.9962656606281340  0.8740447758119622
  0.4968747693628361  0.4989016920956214  0.8761461537689313
  0.2552678637584994  0.2573164567136770  0.3761652939487736
  0.2549176301159874  0.2530931389447073  0.8752444645457825
  0.2466875724125374  0.7517563036703718  0.3741863153886894
  0.2533566019977385  0.7438079456678247  0.8737879155411874
  0.7479188988941327  0.2471419602651506  0.3742309241823958
  0.7468367845235022  0.2530319320349844  0.8742146778136344
  0.7412074706719689  0.7355705397764075  0.3711850936519073
  0.7562416058688026  0.7565642689729396  0.8765437607075629
  0.2505526783551069  0.2500275242876074  0.1258555507626381
  0.2406617701729126  0.2420132256787271  0.6248602089709283
  0.2499751639624296  0.7490137741779670  0.1247601955492937
  0.2469256503338742  0.7544388780725834  0.6239561105909601
  0.7517210983864387  0.2504762430726823  0.1246696510282991
  0.7520753181921932  0.2470352004412711  0.6241710882900595
  0.7516599626108902  0.7522517416996370  0.1248611252720242
  0.6394402070193115  0.3902114565981383  0.7432663378707067
  0.6165500224324389  0.6491398121550748  0.7502879870058708
  0.5189814791493836  0.5147056858149731  0.3780637442522060
  0.6082091728120487  0.3575606720061631  0.4990624902456918
  0.3629595670584511  0.3912764266688405  0.5150512644760337
  0.8745507514930911  0.6314378661912483  0.5141252423717323
  0.5760637387644415  0.5669162096787794  0.5846498697411606
 
  0.00000000E+00  0.00000000E+00  0.00000000E+00
  0.00000000E+00  0.00000000E+00  0.00000000E+00
  0.00000000E+00  0.00000000E+00  0.00000000E+00
  0.00000000E+00  0.00000000E+00  0.00000000E+00
  0.00000000E+00  0.00000000E+00  0.00000000E+00
  0.00000000E+00  0.00000000E+00  0.00000000E+00
  0.00000000E+00  0.00000000E+00  0.00000000E+00
  0.00000000E+00  0.00000000E+00  0.00000000E+00
  0.00000000E+00  0.00000000E+00  0.00000000E+00
  0.00000000E+00  0.00000000E+00  0.00000000E+00
  0.00000000E+00  0.00000000E+00  0.00000000E+00
  0.00000000E+00  0.00000000E+00  0.00000000E+00
  0.00000000E+00  0.00000000E+00  0.00000000E+00
  0.00000000E+00  0.00000000E+00  0.00000000E+00
  0.00000000E+00  0.00000000E+00  0.00000000E+00
  0.00000000E+00  0.00000000E+00  0.00000000E+00
  0.00000000E+00  0.00000000E+00  0.00000000E+00
  0.00000000E+00  0.00000000E+00  0.00000000E+00
  0.00000000E+00  0.00000000E+00  0.00000000E+00
  0.00000000E+00  0.00000000E+00  0.00000000E+00
  0.00000000E+00  0.00000000E+00  0.00000000E+00
  0.00000000E+00  0.00000000E+00  0.00000000E+00
  0.00000000E+00  0.00000000E+00  0.00000000E+00
  0.00000000E+00  0.00000000E+00  0.00000000E+00
  0.00000000E+00  0.00000000E+00  0.00000000E+00
  0.00000000E+00  0.00000000E+00  0.00000000E+00
  0.00000000E+00  0.00000000E+00  0.00000000E+00
  0.00000000E+00  0.00000000E+00  0.00000000E+00
  0.00000000E+00  0.00000000E+00  0.00000000E+00
  0.00000000E+00  0.00000000E+00  0.00000000E+00
  0.00000000E+00  0.00000000E+00  0.00000000E+00
  0.00000000E+00  0.00000000E+00  0.00000000E+00
  0.00000000E+00  0.00000000E+00  0.00000000E+00
  0.00000000E+00  0.00000000E+00  0.00000000E+00
  0.00000000E+00  0.00000000E+00  0.00000000E+00
  0.00000000E+00  0.00000000E+00  0.00000000E+00
  0.00000000E+00  0.00000000E+00  0.00000000E+00
  0.00000000E+00  0.00000000E+00  0.00000000E+00
  0.00000000E+00  0.00000000E+00  0.00000000E+00
  0.00000000E+00  0.00000000E+00  0.00000000E+00
  0.00000000E+00  0.00000000E+00  0.00000000E+00
  0.00000000E+00  0.00000000E+00  0.00000000E+00
  0.00000000E+00  0.00000000E+00  0.00000000E+00
  0.00000000E+00  0.00000000E+00  0.00000000E+00
  0.00000000E+00  0.00000000E+00  0.00000000E+00
  0.00000000E+00  0.00000000E+00  0.00000000E+00
  0.00000000E+00  0.00000000E+00  0.00000000E+00
  0.00000000E+00  0.00000000E+00  0.00000000E+00
  0.00000000E+00  0.00000000E+00  0.00000000E+00
  0.00000000E+00  0.00000000E+00  0.00000000E+00
  0.00000000E+00  0.00000000E+00  0.00000000E+00
  0.00000000E+00  0.00000000E+00  0.00000000E+00
  0.00000000E+00  0.00000000E+00  0.00000000E+00
  0.00000000E+00  0.00000000E+00  0.00000000E+00
  0.00000000E+00  0.00000000E+00  0.00000000E+00
  0.00000000E+00  0.00000000E+00  0.00000000E+00
  0.00000000E+00  0.00000000E+00  0.00000000E+00
  0.00000000E+00  0.00000000E+00  0.00000000E+00
  0.00000000E+00  0.00000000E+00  0.00000000E+00
  0.00000000E+00  0.00000000E+00  0.00000000E+00
  0.00000000E+00  0.00000000E+00  0.00000000E+00
  0.00000000E+00  0.00000000E+00  0.00000000E+00
  0.00000000E+00  0.00000000E+00  0.00000000E+00
  0.00000000E+00  0.00000000E+00  0.00000000E+00
  0.00000000E+00  0.00000000E+00  0.00000000E+00
  0.00000000E+00  0.00000000E+00  0.00000000E+00
  0.00000000E+00  0.00000000E+00  0.00000000E+00
  0.00000000E+00  0.00000000E+00  0.00000000E+00
  0.00000000E+00  0.00000000E+00  0.00000000E+00
  0.00000000E+00  0.00000000E+00  0.00000000E+00
  0.00000000E+00  0.00000000E+00  0.00000000E+00
  0.00000000E+00  0.00000000E+00  0.00000000E+00
  0.00000000E+00  0.00000000E+00  0.00000000E+00
  0.00000000E+00  0.00000000E+00  0.00000000E+00
  0.00000000E+00  0.00000000E+00  0.00000000E+00
  0.00000000E+00  0.00000000E+00  0.00000000E+00
  0.00000000E+00  0.00000000E+00  0.00000000E+00
  0.00000000E+00  0.00000000E+00  0.00000000E+00
  0.00000000E+00  0.00000000E+00  0.00000000E+00
  0.00000000E+00  0.00000000E+00  0.00000000E+00
  0.00000000E+00  0.00000000E+00  0.00000000E+00
  0.00000000E+00  0.00000000E+00  0.00000000E+00
  0.00000000E+00  0.00000000E+00  0.00000000E+00
  0.00000000E+00  0.00000000E+00  0.00000000E+00
  0.00000000E+00  0.00000000E+00  0.00000000E+00
  0.00000000E+00  0.00000000E+00  0.00000000E+00
  0.00000000E+00  0.00000000E+00  0.00000000E+00
  0.00000000E+00  0.00000000E+00  0.00000000E+00
  0.00000000E+00  0.00000000E+00  0.00000000E+00
  0.00000000E+00  0.00000000E+00  0.00000000E+00
  0.00000000E+00  0.00000000E+00  0.00000000E+00
  0.00000000E+00  0.00000000E+00  0.00000000E+00
  0.00000000E+00  0.00000000E+00  0.00000000E+00
  0.00000000E+00  0.00000000E+00  0.00000000E+00
  0.00000000E+00  0.00000000E+00  0.00000000E+00
  0.00000000E+00  0.00000000E+00  0.00000000E+00
  0.00000000E+00  0.00000000E+00  0.00000000E+00
  0.00000000E+00  0.00000000E+00  0.00000000E+00
  0.00000000E+00  0.00000000E+00  0.00000000E+00
  0.00000000E+00  0.00000000E+00  0.00000000E+00
  0.00000000E+00  0.00000000E+00  0.00000000E+00
  0.00000000E+00  0.00000000E+00  0.00000000E+00
  0.00000000E+00  0.00000000E+00  0.00000000E+00
  0.00000000E+00  0.00000000E+00  0.00000000E+00
  0.00000000E+00  0.00000000E+00  0.00000000E+00
  0.00000000E+00  0.00000000E+00  0.00000000E+00
  0.00000000E+00  0.00000000E+00  0.00000000E+00
  0.00000000E+00  0.00000000E+00  0.00000000E+00
  0.00000000E+00  0.00000000E+00  0.00000000E+00
  0.00000000E+00  0.00000000E+00  0.00000000E+00
  0.00000000E+00  0.00000000E+00  0.00000000E+00
  0.00000000E+00  0.00000000E+00  0.00000000E+00
  0.00000000E+00  0.00000000E+00  0.00000000E+00
  0.00000000E+00  0.00000000E+00  0.00000000E+00
  0.00000000E+00  0.00000000E+00  0.00000000E+00
  0.00000000E+00  0.00000000E+00  0.00000000E+00
  0.00000000E+00  0.00000000E+00  0.00000000E+00
  0.00000000E+00  0.00000000E+00  0.00000000E+00
  0.00000000E+00  0.00000000E+00  0.00000000E+00
  0.00000000E+00  0.00000000E+00  0.00000000E+00
  0.00000000E+00  0.00000000E+00  0.00000000E+00
  0.00000000E+00  0.00000000E+00  0.00000000E+00
  0.00000000E+00  0.00000000E+00  0.00000000E+00
  0.00000000E+00  0.00000000E+00  0.00000000E+00
  0.00000000E+00  0.00000000E+00  0.00000000E+00
  0.00000000E+00  0.00000000E+00  0.00000000E+00
  0.00000000E+00  0.00000000E+00  0.00000000E+00
  0.00000000E+00  0.00000000E+00  0.00000000E+00
  0.00000000E+00  0.00000000E+00  0.00000000E+00
  0.00000000E+00  0.00000000E+00  0.00000000E+00
  0.00000000E+00  0.00000000E+00  0.00000000E+00
  0.00000000E+00  0.00000000E+00  0.00000000E+00
  0.00000000E+00  0.00000000E+00  0.00000000E+00
  0.00000000E+00  0.00000000E+00  0.00000000E+00
  0.00000000E+00  0.00000000E+00  0.00000000E+00
  0.00000000E+00  0.00000000E+00  0.00000000E+00
  0.00000000E+00  0.00000000E+00  0.00000000E+00
  0.00000000E+00  0.00000000E+00  0.00000000E+00
  0.00000000E+00  0.00000000E+00  0.00000000E+00
  0.00000000E+00  0.00000000E+00  0.00000000E+00
  0.00000000E+00  0.00000000E+00  0.00000000E+00
  0.00000000E+00  0.00000000E+00  0.00000000E+00
  0.00000000E+00  0.00000000E+00  0.00000000E+00
  0.00000000E+00  0.00000000E+00  0.00000000E+00
  0.00000000E+00  0.00000000E+00  0.00000000E+00
  0.00000000E+00  0.00000000E+00  0.00000000E+00
  0.00000000E+00  0.00000000E+00  0.00000000E+00
  0.00000000E+00  0.00000000E+00  0.00000000E+00
  0.00000000E+00  0.00000000E+00  0.00000000E+00
  0.00000000E+00  0.00000000E+00  0.00000000E+00
  0.00000000E+00  0.00000000E+00  0.00000000E+00
  0.00000000E+00  0.00000000E+00  0.00000000E+00
  0.00000000E+00  0.00000000E+00  0.00000000E+00
  0.00000000E+00  0.00000000E+00  0.00000000E+00
  0.00000000E+00  0.00000000E+00  0.00000000E+00
  0.00000000E+00  0.00000000E+00  0.00000000E+00
  0.00000000E+00  0.00000000E+00  0.00000000E+00
  0.00000000E+00  0.00000000E+00  0.00000000E+00
