Sr   Ti   Fe   O                        
   1.00000000000000     
    11.1989999999999998    0.0000000000000000    0.0000000000000000
     0.0000000000000000   11.1989999999999998    0.0000000000000000
     0.0000000000000000    0.0000000000000000   15.9830000000000005
   Sr   Ti   Fe   O 
    32    29     3    95
Direct
 -0.0000835258478650  0.2496806630724460  0.1249703651650012
  0.0002544841121296  0.2484263654711986  0.6253155933132166
  0.9984169834514760  0.7505241213806725  0.1255069727138728
  0.9984985605523475  0.7505801167901762  0.6247995173478238
  0.4996023211991897  0.2489350423314429  0.1253553512499921
  0.5002212389477614  0.2422480283760147  0.6244526456412329
  0.5006068691135045  0.7516162450959296  0.1247735835759244
  0.5000285627517487  0.7519329501803242  0.6243272994495430
  0.0003422256306232  0.2503666274102564  0.3756529849538054
  0.9999062111860441  0.2496792762593228  0.8738636600454739
  0.9989203256480513  0.7485572729700680  0.3773281602188108
  0.9987160465963033  0.7504227155211401  0.8735306308058436
  0.5011375303999314  0.2482492348051505  0.3760496031038358
  0.4997853677455227  0.2489603473742542  0.8744475310126080
  0.4985551659259497  0.7489173447615323  0.3755042774277756
  0.5013856601611899  0.7510107241615497  0.8748182552910064
  0.2497542300248725  0.9998195357022546  0.1249644638440551
  0.2492688131272021  0.9989351058999268  0.6251417852047730
  0.2486659658951306  0.5007764793423500  0.1251266562503139
  0.2408474364745110  0.5000844914659407  0.6251500987167132
  0.7496691195946368  0.9989195730472380  0.1251659318291706
  0.7513691502188764  0.9992246384751367  0.6256337090345545
  0.7510219842098905  0.5006699920965139  0.1252908158966181
  0.7597199604544100  0.4983751414415608  0.6282642566969547
  0.2503323368375762  0.9990641347782901  0.3754074086404413
  0.2498025333463227  0.9999924152944640  0.8737161975279357
  0.2493059429319602  0.5007839282720270  0.3774248001220149
  0.2494108303561315  0.5005276625107803  0.8749353273376003
  0.7501533186946370  1.0001518418403088  0.3753064701358918
  0.7504388584619978  0.9990021026540268  0.8741074551813404
  0.7504327278451547  0.4997840103485947  0.3762593913543738
  0.7502681397939959  0.5008139664538320  0.8747417589951594
  0.9998283415829277 -0.0001253889426759  0.9996588904646379
  0.9997831435336910  1.0000576981392271  0.4996015867894849
 -0.0001731528992240  0.4998447089746524  1.0000669233825148
  0.9971787580917687  0.5009630605454251  0.4996815333657575
  0.4997970572300908  0.0000793427338615  0.9998276970124625
  0.5015124667534931  0.9971665536449261  0.4996418606569927
  0.4996435163344251  0.4997420808574663  0.0010703471064781
  0.2504625753309813  0.2506457195922938  0.9999335210406796
  0.2498053977666574  0.2484639212587436  0.5003891747639804
  0.2500646064769920  0.7496356574671162  0.9998893552091423
  0.2499104106130431  0.7488221876481678  0.5001546609420763
  0.7496747949508474  0.2501419191012896  1.0000443980507137
  0.7489047619693194  0.2502886497035169  0.5002187638418533
  0.7499521242624922  0.7499401621599020  1.0002233860223946
  0.2503547732257866  0.2505838365786066  0.2503686037953192
  0.2525679871604494  0.2517417333837390  0.7491429452200696
  0.2492862719225649  0.7497505977664223  0.2501075005306688
  0.2519320933666239  0.7478682773169150  0.7491487097337489
  0.7499993780060754  0.2499516664478504  0.2500125683641330
  0.7477972776952285  0.2513118701071001  0.7495481138448937
  0.7489098267307445  0.7488814682549064  0.2529265082194212
  0.7479258836967312  0.7482529130383571  0.7480249576866294
  0.0000119679887101 -0.0000884748744929  0.2507203393394626
  0.0002459979015393  0.9998990816229969  0.7501096038521488
 -0.0000221405436217  0.4999055692506367  0.2500967309938931
  0.0005511749447497  0.4996503305497684  0.7508419906448057
  0.4998928839659572  0.9997807516949136  0.2501652362800083
  0.5000858932872545  0.9991460743134588  0.7500955596654989
  0.5000588863751722  0.5002494902400458  0.2484833621189374
  0.5001552221741481  0.4999737401448269  0.7603573439176698
  0.4955390211921560  0.4952468983659611  0.4947952439613734
  0.7531951779568979  0.7565132661415721  0.5017333855986617
  0.1095940272842100  0.1416023289648683  0.2501432301589671
  0.1115666153282031  0.1397424191589389  0.7515540286514253
  0.1082918498724484  0.6410338136126781  0.2499685143474847
  0.1116091796516775  0.6385315594979383  0.7498223528293257
  0.6088911072583907  0.1409154464481956  0.2496695634006624
  0.6105638239912969  0.1387698381689125  0.7506512390001943
  0.6071888609340981  0.6404494077549308  0.2473930829737614
  0.3924450911125246  0.3599440263724127  0.2538836504727789
  0.3905445989881162  0.3636856023389438  0.7397101502810032
  0.3904895615316938  0.8587802305833150  0.2500859336871548
  0.3887745046132167  0.8613797798730614  0.7505673121874654
  0.8910130276535329  0.3587035350171191  0.2504149622164232
  0.8886601679036465  0.3612479144335903  0.7493760600019721
  0.8895692137172279  0.8585472957593953  0.2546810438640187
  0.8893887621445040  0.8614925202500369  0.7504464228029196
  0.3588182212713506  0.1092706616963171  0.2499356490855743
  0.3613079324916811  0.1114449091559111  0.7498865253446338
  0.3585350801438595  0.6080287554076185  0.2520195353846594
  0.3639604498637223  0.6096685857116289  0.7400987030718336
  0.8588820635847459  0.1088750887317112  0.2501024367468559
  0.8605953735389111  0.1114914340755748  0.7506762798582003
  0.8587664859088100  0.6082855482599377  0.2502619395146636
  0.8624337675222179  0.6110594792102412  0.7517475936564730
  0.1415290287792240  0.3912806157287855  0.2500934932400957
  0.1393078059756435  0.3893458128803948  0.7508285336723968
  0.1405455942085324  0.8909856007944627  0.2494977458931337
  0.1395686454995119  0.8887140451306770  0.7510300507191111
  0.6410989453313083  0.3916206837366303  0.2506011561316496
  0.6405871839843166  0.8907090114491306  0.2512240556224638
  0.6386897693576256  0.8894982348952289  0.7506234813455659
  0.3584691582551729  0.3917235218170591  0.0015657938642459
  0.3587893701062869  0.8908131862792400  0.9996973311795738
  0.3601788726202197  0.8876304403618598  0.4998788481365462
  0.8587556384374521  0.3911086733538751  0.9999007391075164
  0.8589632302415164  0.3880752867239791  0.4997824079850494
  0.8591791231467742  0.8907845939567984  0.9998108952196278
  0.8614526861877284  0.8921819092249749  0.4978127177245028
  0.1411644382129861  0.1097835782869255  0.9996906011659140
  0.1409677481924623  0.1103585661089067  0.4990297091293950
  0.1411136505570590  0.6086840034536610  0.9999135827031789
  0.1333424589148373  0.6131611293858877  0.4995193329422155
  0.6408985157072855  0.1092084864270101  0.9996731539711614
  0.6401601763011032  0.1087645404353754  0.5000151811520527
  0.6404574677773516  0.6085068052029271  0.0015836191701509
  0.1091309456674865  0.3586522989814067  0.9998425865013947
  0.1112093220414199  0.3612734702609113  0.5001223913928474
  0.1095482365980777  0.8588383082833112  0.9991355790004964
  0.1100513946746228  0.8605145896333729  0.4993202481411297
  0.6082845647421041  0.3589064306740608  0.0015048499748147
  0.6088798387358426  0.8592074542352305  1.0001321239365077
  0.6072877238277362  0.8574289501511492  0.4998748845549584
  0.3910895950236684  0.1412213016927673  1.0000869704464568
  0.3894974783892376  0.1388874822555604  0.4998899305935542
  0.3915078574523991  0.6409745634368452  0.0015814578122479
  0.3834803638687234  0.6307517139020459  0.5002875626371786
  0.8905581456182691  0.1411470738888212  0.9992893683708255
  0.8902192499481200  0.1411135539035943  0.4992933119206720
  0.8908981586396375  0.6405896762325594  0.9999190977160700
  0.9989710478813845  0.9988163743982573  0.1252255466544297
  0.0010588178474753  0.0013018868138740  0.6248256298874608
 -0.0000573606347872  0.4993663276075885  0.1249787897124383
  0.0008048627619373  0.4993556584260325  0.6253767944393552
  0.5000099599187986 -0.0004285537178961  0.1250117152058050
  0.4996289351218168  0.0004770040627846  0.6251422330683231
  0.4979639688787773  0.4981062197519279  0.1268631752220634
  0.0019922864563131  0.0023063402420338  0.3746998651646618
  0.9997482214932950  0.9999816608199316  0.8755513579041675
  0.0000995564887569  0.4991731147851164  0.3748670484177264
  0.0005370983775430  0.4990768282329641  0.8753766777919018
  0.4992684174143759  0.0007145650388168  0.3748409338119348
  0.4994412098219860  1.0000916687556165  0.8752879727627579
  0.4980005897238217  0.4984655393008274  0.8782246384034698
  0.2521379706414746  0.2530339307838967  0.3760612448320590
  0.2551623780740179  0.2539506567158095  0.8744021115428211
  0.2485940921068450  0.7500603833646019  0.3748884510545279
  0.2536968685581892  0.7452799191384970  0.8742322874910358
  0.7484622753462145  0.2498232703587115  0.3750873104562143
  0.7471006761330242  0.2538288185545543  0.8744529029390159
  0.7394727180011469  0.7382015494709264  0.3769258176113242
  0.7481775826292140  0.7488804651880334  0.8754707846219663
  0.2516571845728253  0.2512093116061762  0.1255547896172328
  0.2465184713476488  0.2474459708131420  0.6244123495010980
  0.2497054490467253  0.7494312332630507  0.1250737276480604
  0.2469655452634376  0.7522434082182082  0.6242519644666678
  0.7505032659065738  0.2500494593368535  0.1250506781994148
  0.7504879840961080  0.2474505551467266  0.6243067874533633
  0.7511072005539169  0.7510686801605890  0.1257646810635859
  0.6367560597693726  0.3902868515027700  0.7426080892027802
  0.6102385568834165  0.6374159680876308  0.7466865034291358
  0.5110295157905475  0.5077771989150786  0.3795148341595766
  0.6027582244940449  0.3585248754802380  0.5013788010690077
  0.3644651549318387  0.3923533441141682  0.5078625980470449
  0.7526823788592782  0.7527105913558787  0.6259971780205491
  0.8809600393067035  0.6333621405822994  0.5003913875561639
  0.6057096068168057  0.5896473233736825  0.5389343347531013
 
  0.00000000E+00  0.00000000E+00  0.00000000E+00
  0.00000000E+00  0.00000000E+00  0.00000000E+00
  0.00000000E+00  0.00000000E+00  0.00000000E+00
  0.00000000E+00  0.00000000E+00  0.00000000E+00
  0.00000000E+00  0.00000000E+00  0.00000000E+00
  0.00000000E+00  0.00000000E+00  0.00000000E+00
  0.00000000E+00  0.00000000E+00  0.00000000E+00
  0.00000000E+00  0.00000000E+00  0.00000000E+00
  0.00000000E+00  0.00000000E+00  0.00000000E+00
  0.00000000E+00  0.00000000E+00  0.00000000E+00
  0.00000000E+00  0.00000000E+00  0.00000000E+00
  0.00000000E+00  0.00000000E+00  0.00000000E+00
  0.00000000E+00  0.00000000E+00  0.00000000E+00
  0.00000000E+00  0.00000000E+00  0.00000000E+00
  0.00000000E+00  0.00000000E+00  0.00000000E+00
  0.00000000E+00  0.00000000E+00  0.00000000E+00
  0.00000000E+00  0.00000000E+00  0.00000000E+00
  0.00000000E+00  0.00000000E+00  0.00000000E+00
  0.00000000E+00  0.00000000E+00  0.00000000E+00
  0.00000000E+00  0.00000000E+00  0.00000000E+00
  0.00000000E+00  0.00000000E+00  0.00000000E+00
  0.00000000E+00  0.00000000E+00  0.00000000E+00
  0.00000000E+00  0.00000000E+00  0.00000000E+00
  0.00000000E+00  0.00000000E+00  0.00000000E+00
  0.00000000E+00  0.00000000E+00  0.00000000E+00
  0.00000000E+00  0.00000000E+00  0.00000000E+00
  0.00000000E+00  0.00000000E+00  0.00000000E+00
  0.00000000E+00  0.00000000E+00  0.00000000E+00
  0.00000000E+00  0.00000000E+00  0.00000000E+00
  0.00000000E+00  0.00000000E+00  0.00000000E+00
  0.00000000E+00  0.00000000E+00  0.00000000E+00
  0.00000000E+00  0.00000000E+00  0.00000000E+00
  0.00000000E+00  0.00000000E+00  0.00000000E+00
  0.00000000E+00  0.00000000E+00  0.00000000E+00
  0.00000000E+00  0.00000000E+00  0.00000000E+00
  0.00000000E+00  0.00000000E+00  0.00000000E+00
  0.00000000E+00  0.00000000E+00  0.00000000E+00
  0.00000000E+00  0.00000000E+00  0.00000000E+00
  0.00000000E+00  0.00000000E+00  0.00000000E+00
  0.00000000E+00  0.00000000E+00  0.00000000E+00
  0.00000000E+00  0.00000000E+00  0.00000000E+00
  0.00000000E+00  0.00000000E+00  0.00000000E+00
  0.00000000E+00  0.00000000E+00  0.00000000E+00
  0.00000000E+00  0.00000000E+00  0.00000000E+00
  0.00000000E+00  0.00000000E+00  0.00000000E+00
  0.00000000E+00  0.00000000E+00  0.00000000E+00
  0.00000000E+00  0.00000000E+00  0.00000000E+00
  0.00000000E+00  0.00000000E+00  0.00000000E+00
  0.00000000E+00  0.00000000E+00  0.00000000E+00
  0.00000000E+00  0.00000000E+00  0.00000000E+00
  0.00000000E+00  0.00000000E+00  0.00000000E+00
  0.00000000E+00  0.00000000E+00  0.00000000E+00
  0.00000000E+00  0.00000000E+00  0.00000000E+00
  0.00000000E+00  0.00000000E+00  0.00000000E+00
  0.00000000E+00  0.00000000E+00  0.00000000E+00
  0.00000000E+00  0.00000000E+00  0.00000000E+00
  0.00000000E+00  0.00000000E+00  0.00000000E+00
  0.00000000E+00  0.00000000E+00  0.00000000E+00
  0.00000000E+00  0.00000000E+00  0.00000000E+00
  0.00000000E+00  0.00000000E+00  0.00000000E+00
  0.00000000E+00  0.00000000E+00  0.00000000E+00
  0.00000000E+00  0.00000000E+00  0.00000000E+00
  0.00000000E+00  0.00000000E+00  0.00000000E+00
  0.00000000E+00  0.00000000E+00  0.00000000E+00
  0.00000000E+00  0.00000000E+00  0.00000000E+00
  0.00000000E+00  0.00000000E+00  0.00000000E+00
  0.00000000E+00  0.00000000E+00  0.00000000E+00
  0.00000000E+00  0.00000000E+00  0.00000000E+00
  0.00000000E+00  0.00000000E+00  0.00000000E+00
  0.00000000E+00  0.00000000E+00  0.00000000E+00
  0.00000000E+00  0.00000000E+00  0.00000000E+00
  0.00000000E+00  0.00000000E+00  0.00000000E+00
  0.00000000E+00  0.00000000E+00  0.00000000E+00
  0.00000000E+00  0.00000000E+00  0.00000000E+00
  0.00000000E+00  0.00000000E+00  0.00000000E+00
  0.00000000E+00  0.00000000E+00  0.00000000E+00
  0.00000000E+00  0.00000000E+00  0.00000000E+00
  0.00000000E+00  0.00000000E+00  0.00000000E+00
  0.00000000E+00  0.00000000E+00  0.00000000E+00
  0.00000000E+00  0.00000000E+00  0.00000000E+00
  0.00000000E+00  0.00000000E+00  0.00000000E+00
  0.00000000E+00  0.00000000E+00  0.00000000E+00
  0.00000000E+00  0.00000000E+00  0.00000000E+00
  0.00000000E+00  0.00000000E+00  0.00000000E+00
  0.00000000E+00  0.00000000E+00  0.00000000E+00
  0.00000000E+00  0.00000000E+00  0.00000000E+00
  0.00000000E+00  0.00000000E+00  0.00000000E+00
  0.00000000E+00  0.00000000E+00  0.00000000E+00
  0.00000000E+00  0.00000000E+00  0.00000000E+00
  0.00000000E+00  0.00000000E+00  0.00000000E+00
  0.00000000E+00  0.00000000E+00  0.00000000E+00
  0.00000000E+00  0.00000000E+00  0.00000000E+00
  0.00000000E+00  0.00000000E+00  0.00000000E+00
  0.00000000E+00  0.00000000E+00  0.00000000E+00
  0.00000000E+00  0.00000000E+00  0.00000000E+00
  0.00000000E+00  0.00000000E+00  0.00000000E+00
  0.00000000E+00  0.00000000E+00  0.00000000E+00
  0.00000000E+00  0.00000000E+00  0.00000000E+00
  0.00000000E+00  0.00000000E+00  0.00000000E+00
  0.00000000E+00  0.00000000E+00  0.00000000E+00
  0.00000000E+00  0.00000000E+00  0.00000000E+00
  0.00000000E+00  0.00000000E+00  0.00000000E+00
  0.00000000E+00  0.00000000E+00  0.00000000E+00
  0.00000000E+00  0.00000000E+00  0.00000000E+00
  0.00000000E+00  0.00000000E+00  0.00000000E+00
  0.00000000E+00  0.00000000E+00  0.00000000E+00
  0.00000000E+00  0.00000000E+00  0.00000000E+00
  0.00000000E+00  0.00000000E+00  0.00000000E+00
  0.00000000E+00  0.00000000E+00  0.00000000E+00
  0.00000000E+00  0.00000000E+00  0.00000000E+00
  0.00000000E+00  0.00000000E+00  0.00000000E+00
  0.00000000E+00  0.00000000E+00  0.00000000E+00
  0.00000000E+00  0.00000000E+00  0.00000000E+00
  0.00000000E+00  0.00000000E+00  0.00000000E+00
  0.00000000E+00  0.00000000E+00  0.00000000E+00
  0.00000000E+00  0.00000000E+00  0.00000000E+00
  0.00000000E+00  0.00000000E+00  0.00000000E+00
  0.00000000E+00  0.00000000E+00  0.00000000E+00
  0.00000000E+00  0.00000000E+00  0.00000000E+00
  0.00000000E+00  0.00000000E+00  0.00000000E+00
  0.00000000E+00  0.00000000E+00  0.00000000E+00
  0.00000000E+00  0.00000000E+00  0.00000000E+00
  0.00000000E+00  0.00000000E+00  0.00000000E+00
  0.00000000E+00  0.00000000E+00  0.00000000E+00
  0.00000000E+00  0.00000000E+00  0.00000000E+00
  0.00000000E+00  0.00000000E+00  0.00000000E+00
  0.00000000E+00  0.00000000E+00  0.00000000E+00
  0.00000000E+00  0.00000000E+00  0.00000000E+00
  0.00000000E+00  0.00000000E+00  0.00000000E+00
  0.00000000E+00  0.00000000E+00  0.00000000E+00
  0.00000000E+00  0.00000000E+00  0.00000000E+00
  0.00000000E+00  0.00000000E+00  0.00000000E+00
  0.00000000E+00  0.00000000E+00  0.00000000E+00
  0.00000000E+00  0.00000000E+00  0.00000000E+00
  0.00000000E+00  0.00000000E+00  0.00000000E+00
  0.00000000E+00  0.00000000E+00  0.00000000E+00
  0.00000000E+00  0.00000000E+00  0.00000000E+00
  0.00000000E+00  0.00000000E+00  0.00000000E+00
  0.00000000E+00  0.00000000E+00  0.00000000E+00
  0.00000000E+00  0.00000000E+00  0.00000000E+00
  0.00000000E+00  0.00000000E+00  0.00000000E+00
  0.00000000E+00  0.00000000E+00  0.00000000E+00
  0.00000000E+00  0.00000000E+00  0.00000000E+00
  0.00000000E+00  0.00000000E+00  0.00000000E+00
  0.00000000E+00  0.00000000E+00  0.00000000E+00
  0.00000000E+00  0.00000000E+00  0.00000000E+00
  0.00000000E+00  0.00000000E+00  0.00000000E+00
  0.00000000E+00  0.00000000E+00  0.00000000E+00
  0.00000000E+00  0.00000000E+00  0.00000000E+00
  0.00000000E+00  0.00000000E+00  0.00000000E+00
  0.00000000E+00  0.00000000E+00  0.00000000E+00
  0.00000000E+00  0.00000000E+00  0.00000000E+00
  0.00000000E+00  0.00000000E+00  0.00000000E+00
  0.00000000E+00  0.00000000E+00  0.00000000E+00
  0.00000000E+00  0.00000000E+00  0.00000000E+00
  0.00000000E+00  0.00000000E+00  0.00000000E+00
  0.00000000E+00  0.00000000E+00  0.00000000E+00
  0.00000000E+00  0.00000000E+00  0.00000000E+00
  0.00000000E+00  0.00000000E+00  0.00000000E+00
