SrTiFeO                                 
   1.00000000000000     
    11.1989999999999998    0.0000000000000000    0.0000000000000000
     0.0000000000000000   11.1989999999999998    0.0000000000000000
     0.0000000000000000    0.0000000000000000   15.9830000000000005
   Sr   Ti   Fe   O 
    32    29     3    94
Direct
  0.9992477613110394  0.2497873304922102  0.1251354795279702
  0.9997425862603746  0.2480216727873469  0.6241358585011559
  0.0000457554406989  0.7501980267294702  0.1253958992411366
  0.9978775907377393  0.7521543913042785  0.6233940927872876
  0.4994192240799986  0.2452900960296996  0.1241439197294960
  0.5013336222800163  0.2426435675261993  0.6239081541756971
  0.5012546481877299  0.7544600564201026  0.1244445580404333
  0.5013742125989209  0.7561031625810980  0.6225304284646902
  0.9997255306184679  0.2484086784946089  0.3770350358817025
  0.9997604253099502  0.2497272347229278  0.8736819436300874
  0.9980554775360738  0.7517981408184339  0.3777354241305665
  0.0000114283666954  0.7501397305638300  0.8735672565754413
  0.5018002269644578  0.2407861677465105  0.3773658547490816
  0.4991949182940427  0.2485211626586089  0.8732460878118664
  0.5007954643644410  0.7579136390322779  0.3786078914972907
  0.5014688146296310  0.7513289696055886  0.8727726348976731
  0.2496383195545157  0.0003414109561791  0.1250821801465291
  0.2479122171404810  0.9999859240632508  0.6241969622255832
  0.2454553369337824  0.5007238693150692  0.1241802082262411
  0.2426336788395114  0.4982038172248155  0.6237925147217779
  0.7503652330311429  0.9989683554637377  0.1253053574892287
  0.7519779648656543  0.9977950818283766  0.6234405940368637
  0.7543711692923103  0.4999081536734116  0.1243901428228064
  0.7560158436470725  0.5049113172370422  0.6222482959021146
  0.2482948574671541  0.0001209004509679  0.3769680163945382
  0.2497076690862647  0.0001166121583812  0.8736869357307964
  0.2406759171675007  0.4976432224353334  0.3774029130449562
  0.2486992792372790  0.5009286755322312  0.8732014835974063
  0.7516218059544073  0.9977939855970213  0.3776750703097599
  0.7505426561452172  0.9993787486956759  0.8734744184373594
  0.7578853269896485  0.5056307385173276  0.3790994319715703
  0.7511928842149077  0.4997213983232135  0.8729462624905728
  0.9999974052369435  1.0000015189177400  0.9998826071761115
  0.9986524440334261  0.9989281112333017  0.5001038159097172
  0.9999670713417317  0.5000229488049444  0.9995480865164073
  0.9988841252288965  0.5012506308659405  0.5003909323860321
  0.4999745607580410  0.9998142265379052  0.9995298334381197
  0.5011371789432558  0.9987714654008343  0.5003525296319296
  0.5000470290775330  0.4999385653352509  0.9970974993943406
  0.2508470217602101  0.2511373697876723  0.9996921756684479
  0.2508506705304190  0.2508064514604527  0.5001059704440930
  0.2512969022891775  0.7491593464922666  0.9997116730204959
  0.2511613163198138  0.7488676072106677  0.5001430351993844
  0.7487617859504195  0.2508542575368508  0.9997115230344070
  0.7485486340316786  0.2512090949042209  0.5001439029031162
  0.7492849508656417  0.7488963632434802  0.9996799766714394
  0.2499261923895790  0.2502689087224719  0.2512127635591120
  0.2519176531445583  0.2518187044961692  0.7484830933713023
  0.2503971554517113  0.7498867714702503  0.2518233448844450
  0.2520075159482248  0.7479700489377705  0.7480188161438658
  0.7497617220470060  0.2501819585342336  0.2518252907792767
  0.7481859166226935  0.2521837689110644  0.7480734183686700
  0.7499952714325541  0.7499702637099200  0.2525868756146287
  0.7482058443401014  0.7483622392511212  0.7471381070416460
  0.0000102790761740  0.9999926942204085  0.2498328539488313
  0.0000250663617241 -0.0000028414674501  0.7501876554666964
  0.9997543772593660  0.5000262009746175  0.2499948573643738
  0.9998606797384239  0.5000255269442901  0.7499791124565289
  0.4999644370023125  0.9998912349375197  0.2499737661917623
  0.5000241368335281  0.9999489968504258  0.7499405501924833
  0.4999904433567676  0.4997685128645957  0.2417013978051112
  0.5000303363423126  0.4999322392109909  0.7574660112920930
  0.4998955347113053  0.4999882499545043  0.4997208216233145
  0.7485401000864919  0.7488611287527992  0.5002178852373842
  0.1103004959761373  0.1411001741417453  0.2479804555954842
  0.1114822896622072  0.1399571047416654  0.7520629548450412
  0.1106883892934693  0.6395857422351670  0.2503017990402077
  0.1110839629360660  0.6389316016905491  0.7498747594256543
  0.6091714892043679  0.1408142835019233  0.2491476943114453
  0.6100443639712626  0.1394784492742172  0.7506278118191939
  0.6062571975139224  0.6364052593225265  0.2608379302662427
  0.3935843476909663  0.3632681345648622  0.2617755126918269
  0.3910940484632143  0.3629682171307715  0.7394265463055278
  0.3908610766027416  0.8590404767515490  0.2498558253939317
  0.3900017869164167  0.8605273660965157  0.7499292949281618
  0.8896140181631504  0.3600148251643067  0.2498532480276280
  0.8891983290160224  0.3607472584898441  0.7503442080964853
  0.8902269217207029  0.8598598260010326  0.2474808686408057
  0.8892006174843902  0.8609082578012111  0.7526080347419091
  0.3600410921263925  0.1105242085759122  0.2498947425800185
  0.3609164621636448  0.1111461917112140  0.7502118979677701
  0.3633770118211834  0.6060924906682754  0.2619368765836155
  0.3628388238083138  0.6087651663896572  0.7393877127534116
  0.8592490305393159  0.1103314805168647  0.2482241396705551
  0.8604829722139170  0.1113548606665147  0.7518431835685048
  0.8598798424151560  0.6092891217508736  0.2489079889543591
  0.8611299097217505  0.6099550275813213  0.7507728606560746
  0.1407866103896734  0.3906037282020149  0.2489643231864730
  0.1395315782348591  0.3898471089886639  0.7507419001949515
  0.1411256246336265  0.8899394316704289  0.2480126126610340
  0.1399890342427572  0.8889140885735523  0.7520468642221618
  0.6365600061330555  0.3936971327541207  0.2624468814709944
  0.6394109981021564  0.8899175500876482  0.2494731239450036
  0.6387173675241253  0.8894217629537872  0.7507207045318595
  0.3585764784139526  0.3935815977913582  0.0007282359654042
  0.3589959985389631  0.8907333863468117  0.0004642928589573
  0.3608147087579661  0.8896873635981587  0.4997968154837947
  0.8585476569530720  0.3912662663394224  0.9998009539289632
  0.8615117799772163  0.3883009374861978  0.4999851305094190
  0.8589116435912251  0.8894259535704785  0.0003541837760879
  0.8633094049935892  0.8903880011519342  0.4996800180767729
  0.1414614996956232  0.1109645805321608  0.0003675010712662
  0.1391346403779426  0.1107250035579602  0.4995714827107265
  0.1414832474186300  0.6088130073890249  0.9998008290568756
  0.1384788066671557  0.6108735228446782  0.4999921940501444
  0.6407162425976460  0.1092878356350692  0.0005360537353559
  0.6387770382979815  0.1108009680552098  0.4996934885837523
  0.6411066132803254  0.6062235498818820  0.0008105095495948
  0.1092865239402274  0.3591091566641178  0.0004792197715546
  0.1110763361923703  0.3612941691244830  0.4997243330585615
  0.1109178582594009  0.8587005043970095  0.0004422126448291
  0.1109133681366881  0.8614823603705200  0.4997123249856962
  0.6063485305951157  0.3585414667057962  0.0007075205411127
  0.6085575718398429  0.8588053667077350  0.9998023036353306
  0.6099545163826057  0.8637414506946193  0.5000563194773606
  0.3911884825079803  0.1414618887323943  0.9998077430998206
  0.3889186630599566  0.1388327002882733  0.4999741728533058
  0.3935857724460916  0.6412540154976469  0.0007334457856063
  0.3882635519955470  0.6389803081596610  0.4999612297015451
  0.8890988248746691  0.1414560140524358  0.0003884636496205
  0.8899734659144820  0.1390420514518290  0.4996561379969366
  0.8909174919467413  0.6406771158805233  0.0005224978435382
  0.0003800324648410  0.0005386740585634  0.1240760794572980
  0.0007565983331622  0.0004315809836055  0.6263056193508791
  0.0003262831665011  0.4998391774494302  0.1246492973347000
  0.0005793893860665  0.4989549267824417  0.6254690538870061
  0.4993092213997449  0.0000118050229564  0.1246770103930369
  0.4995622894282014  0.0009054727118597  0.6254604514921972
  0.4997923660076471  0.4992887334171892  0.1262119611371864
  0.0007125880086331  0.0004151538471403  0.3730999608170490
  0.0003687109430453  0.0004408577849527  0.8766102855825851
  0.0004969355765080  0.4990501696358234  0.3743908310327940
  0.0003746690389327  0.4999139288501026  0.8753822810568459
  0.4995373088903848  0.0007204348851866  0.3743957623113107
  0.4993520946337555  0.0000678534056063  0.8753548741245568
  0.4998772162676766  0.4994608498645988  0.8759197790375426
  0.2470459122398323  0.2484263451103237  0.3749401746511360
  0.2553212999513468  0.2546520720829338  0.8746052266079066
  0.2477933738637754  0.7530875563413240  0.3751959890956380
  0.2546792080419760  0.7448998271016011  0.8744404417508231
  0.7518538225741052  0.2463809254510004  0.3751679939003998
  0.7453036884625063  0.2552059513931994  0.8744892889360643
  0.7532465620211158  0.7521845721387004  0.3734904668092833
  0.7451175240799152  0.7455075542392485  0.8750290121274481
  0.2562884743817770  0.2545232312216480  0.1260940048133541
  0.2466871262663167  0.2480902880016272  0.6245848694637128
  0.2546529361925343  0.7438357374928281  0.1262989721635990
  0.2474975880802106  0.7534345549716390  0.6243653127334373
  0.7453790527306878  0.2562950470160278  0.1262506121583836
  0.7522665276636563  0.2458340731040269  0.6243948207873191
  0.7441479104929283  0.7459113945531631  0.1257122014939047
  0.6370953950480551  0.3910798002938565  0.7388558568790297
  0.6086787732718749  0.6368316314507431  0.7403741904106198
  0.6100167005514345  0.3597016426244814  0.5000147790099759
  0.3613789163082432  0.3901064516316443  0.4999409960339342
  0.7537265171357840  0.7527417711037802  0.6261333587586598
  0.8902658244564042  0.6364575895034490  0.4998424880635661
  0.6364571412432832  0.6087286895747280  0.5000718349332588
 
  0.00000000E+00  0.00000000E+00  0.00000000E+00
  0.00000000E+00  0.00000000E+00  0.00000000E+00
  0.00000000E+00  0.00000000E+00  0.00000000E+00
  0.00000000E+00  0.00000000E+00  0.00000000E+00
  0.00000000E+00  0.00000000E+00  0.00000000E+00
  0.00000000E+00  0.00000000E+00  0.00000000E+00
  0.00000000E+00  0.00000000E+00  0.00000000E+00
  0.00000000E+00  0.00000000E+00  0.00000000E+00
  0.00000000E+00  0.00000000E+00  0.00000000E+00
  0.00000000E+00  0.00000000E+00  0.00000000E+00
  0.00000000E+00  0.00000000E+00  0.00000000E+00
  0.00000000E+00  0.00000000E+00  0.00000000E+00
  0.00000000E+00  0.00000000E+00  0.00000000E+00
  0.00000000E+00  0.00000000E+00  0.00000000E+00
  0.00000000E+00  0.00000000E+00  0.00000000E+00
  0.00000000E+00  0.00000000E+00  0.00000000E+00
  0.00000000E+00  0.00000000E+00  0.00000000E+00
  0.00000000E+00  0.00000000E+00  0.00000000E+00
  0.00000000E+00  0.00000000E+00  0.00000000E+00
  0.00000000E+00  0.00000000E+00  0.00000000E+00
  0.00000000E+00  0.00000000E+00  0.00000000E+00
  0.00000000E+00  0.00000000E+00  0.00000000E+00
  0.00000000E+00  0.00000000E+00  0.00000000E+00
  0.00000000E+00  0.00000000E+00  0.00000000E+00
  0.00000000E+00  0.00000000E+00  0.00000000E+00
  0.00000000E+00  0.00000000E+00  0.00000000E+00
  0.00000000E+00  0.00000000E+00  0.00000000E+00
  0.00000000E+00  0.00000000E+00  0.00000000E+00
  0.00000000E+00  0.00000000E+00  0.00000000E+00
  0.00000000E+00  0.00000000E+00  0.00000000E+00
  0.00000000E+00  0.00000000E+00  0.00000000E+00
  0.00000000E+00  0.00000000E+00  0.00000000E+00
  0.00000000E+00  0.00000000E+00  0.00000000E+00
  0.00000000E+00  0.00000000E+00  0.00000000E+00
  0.00000000E+00  0.00000000E+00  0.00000000E+00
  0.00000000E+00  0.00000000E+00  0.00000000E+00
  0.00000000E+00  0.00000000E+00  0.00000000E+00
  0.00000000E+00  0.00000000E+00  0.00000000E+00
  0.00000000E+00  0.00000000E+00  0.00000000E+00
  0.00000000E+00  0.00000000E+00  0.00000000E+00
  0.00000000E+00  0.00000000E+00  0.00000000E+00
  0.00000000E+00  0.00000000E+00  0.00000000E+00
  0.00000000E+00  0.00000000E+00  0.00000000E+00
  0.00000000E+00  0.00000000E+00  0.00000000E+00
  0.00000000E+00  0.00000000E+00  0.00000000E+00
  0.00000000E+00  0.00000000E+00  0.00000000E+00
  0.00000000E+00  0.00000000E+00  0.00000000E+00
  0.00000000E+00  0.00000000E+00  0.00000000E+00
  0.00000000E+00  0.00000000E+00  0.00000000E+00
  0.00000000E+00  0.00000000E+00  0.00000000E+00
  0.00000000E+00  0.00000000E+00  0.00000000E+00
  0.00000000E+00  0.00000000E+00  0.00000000E+00
  0.00000000E+00  0.00000000E+00  0.00000000E+00
  0.00000000E+00  0.00000000E+00  0.00000000E+00
  0.00000000E+00  0.00000000E+00  0.00000000E+00
  0.00000000E+00  0.00000000E+00  0.00000000E+00
  0.00000000E+00  0.00000000E+00  0.00000000E+00
  0.00000000E+00  0.00000000E+00  0.00000000E+00
  0.00000000E+00  0.00000000E+00  0.00000000E+00
  0.00000000E+00  0.00000000E+00  0.00000000E+00
  0.00000000E+00  0.00000000E+00  0.00000000E+00
  0.00000000E+00  0.00000000E+00  0.00000000E+00
  0.00000000E+00  0.00000000E+00  0.00000000E+00
  0.00000000E+00  0.00000000E+00  0.00000000E+00
  0.00000000E+00  0.00000000E+00  0.00000000E+00
  0.00000000E+00  0.00000000E+00  0.00000000E+00
  0.00000000E+00  0.00000000E+00  0.00000000E+00
  0.00000000E+00  0.00000000E+00  0.00000000E+00
  0.00000000E+00  0.00000000E+00  0.00000000E+00
  0.00000000E+00  0.00000000E+00  0.00000000E+00
  0.00000000E+00  0.00000000E+00  0.00000000E+00
  0.00000000E+00  0.00000000E+00  0.00000000E+00
  0.00000000E+00  0.00000000E+00  0.00000000E+00
  0.00000000E+00  0.00000000E+00  0.00000000E+00
  0.00000000E+00  0.00000000E+00  0.00000000E+00
  0.00000000E+00  0.00000000E+00  0.00000000E+00
  0.00000000E+00  0.00000000E+00  0.00000000E+00
  0.00000000E+00  0.00000000E+00  0.00000000E+00
  0.00000000E+00  0.00000000E+00  0.00000000E+00
  0.00000000E+00  0.00000000E+00  0.00000000E+00
  0.00000000E+00  0.00000000E+00  0.00000000E+00
  0.00000000E+00  0.00000000E+00  0.00000000E+00
  0.00000000E+00  0.00000000E+00  0.00000000E+00
  0.00000000E+00  0.00000000E+00  0.00000000E+00
  0.00000000E+00  0.00000000E+00  0.00000000E+00
  0.00000000E+00  0.00000000E+00  0.00000000E+00
  0.00000000E+00  0.00000000E+00  0.00000000E+00
  0.00000000E+00  0.00000000E+00  0.00000000E+00
  0.00000000E+00  0.00000000E+00  0.00000000E+00
  0.00000000E+00  0.00000000E+00  0.00000000E+00
  0.00000000E+00  0.00000000E+00  0.00000000E+00
  0.00000000E+00  0.00000000E+00  0.00000000E+00
  0.00000000E+00  0.00000000E+00  0.00000000E+00
  0.00000000E+00  0.00000000E+00  0.00000000E+00
  0.00000000E+00  0.00000000E+00  0.00000000E+00
  0.00000000E+00  0.00000000E+00  0.00000000E+00
  0.00000000E+00  0.00000000E+00  0.00000000E+00
  0.00000000E+00  0.00000000E+00  0.00000000E+00
  0.00000000E+00  0.00000000E+00  0.00000000E+00
  0.00000000E+00  0.00000000E+00  0.00000000E+00
  0.00000000E+00  0.00000000E+00  0.00000000E+00
  0.00000000E+00  0.00000000E+00  0.00000000E+00
  0.00000000E+00  0.00000000E+00  0.00000000E+00
  0.00000000E+00  0.00000000E+00  0.00000000E+00
  0.00000000E+00  0.00000000E+00  0.00000000E+00
  0.00000000E+00  0.00000000E+00  0.00000000E+00
  0.00000000E+00  0.00000000E+00  0.00000000E+00
  0.00000000E+00  0.00000000E+00  0.00000000E+00
  0.00000000E+00  0.00000000E+00  0.00000000E+00
  0.00000000E+00  0.00000000E+00  0.00000000E+00
  0.00000000E+00  0.00000000E+00  0.00000000E+00
  0.00000000E+00  0.00000000E+00  0.00000000E+00
  0.00000000E+00  0.00000000E+00  0.00000000E+00
  0.00000000E+00  0.00000000E+00  0.00000000E+00
  0.00000000E+00  0.00000000E+00  0.00000000E+00
  0.00000000E+00  0.00000000E+00  0.00000000E+00
  0.00000000E+00  0.00000000E+00  0.00000000E+00
  0.00000000E+00  0.00000000E+00  0.00000000E+00
  0.00000000E+00  0.00000000E+00  0.00000000E+00
  0.00000000E+00  0.00000000E+00  0.00000000E+00
  0.00000000E+00  0.00000000E+00  0.00000000E+00
  0.00000000E+00  0.00000000E+00  0.00000000E+00
  0.00000000E+00  0.00000000E+00  0.00000000E+00
  0.00000000E+00  0.00000000E+00  0.00000000E+00
  0.00000000E+00  0.00000000E+00  0.00000000E+00
  0.00000000E+00  0.00000000E+00  0.00000000E+00
  0.00000000E+00  0.00000000E+00  0.00000000E+00
  0.00000000E+00  0.00000000E+00  0.00000000E+00
  0.00000000E+00  0.00000000E+00  0.00000000E+00
  0.00000000E+00  0.00000000E+00  0.00000000E+00
  0.00000000E+00  0.00000000E+00  0.00000000E+00
  0.00000000E+00  0.00000000E+00  0.00000000E+00
  0.00000000E+00  0.00000000E+00  0.00000000E+00
  0.00000000E+00  0.00000000E+00  0.00000000E+00
  0.00000000E+00  0.00000000E+00  0.00000000E+00
  0.00000000E+00  0.00000000E+00  0.00000000E+00
  0.00000000E+00  0.00000000E+00  0.00000000E+00
  0.00000000E+00  0.00000000E+00  0.00000000E+00
  0.00000000E+00  0.00000000E+00  0.00000000E+00
  0.00000000E+00  0.00000000E+00  0.00000000E+00
  0.00000000E+00  0.00000000E+00  0.00000000E+00
  0.00000000E+00  0.00000000E+00  0.00000000E+00
  0.00000000E+00  0.00000000E+00  0.00000000E+00
  0.00000000E+00  0.00000000E+00  0.00000000E+00
  0.00000000E+00  0.00000000E+00  0.00000000E+00
  0.00000000E+00  0.00000000E+00  0.00000000E+00
  0.00000000E+00  0.00000000E+00  0.00000000E+00
  0.00000000E+00  0.00000000E+00  0.00000000E+00
  0.00000000E+00  0.00000000E+00  0.00000000E+00
  0.00000000E+00  0.00000000E+00  0.00000000E+00
  0.00000000E+00  0.00000000E+00  0.00000000E+00
  0.00000000E+00  0.00000000E+00  0.00000000E+00
  0.00000000E+00  0.00000000E+00  0.00000000E+00
  0.00000000E+00  0.00000000E+00  0.00000000E+00
  0.00000000E+00  0.00000000E+00  0.00000000E+00
  0.00000000E+00  0.00000000E+00  0.00000000E+00
  0.00000000E+00  0.00000000E+00  0.00000000E+00
  0.00000000E+00  0.00000000E+00  0.00000000E+00
