Sr   Ti   Fe   O                        
   1.00000000000000     
    11.1989999999999998    0.0000000000000000    0.0000000000000000
     0.0000000000000000   11.1989999999999998    0.0000000000000000
     0.0000000000000000    0.0000000000000000   15.9830000000000005
   Sr   Ti   Fe   O 
    32    29     3    94
Direct
  0.9986626935989343  0.2497114458944241  0.1247315720941916
  0.0002903387828879  0.2476960916912057  0.6242384126065849
  0.9987119258109354  0.7512360592300524  0.1258079954677333
  1.0001939166306395  0.7514430909500749  0.6254021812031670
  0.4992220568061081  0.2456930086963972  0.1234150214756502
  0.5024988933100550  0.2424463153881164  0.6236937365331503
  0.5009938711327918  0.7539007771303011  0.1240320417191830
  0.5015670272072149  0.7541804941751006  0.6271722502233877
  0.9995047963568620  0.2482237173365707  0.3764813243759874
  1.0002594043901667  0.2497203366808142  0.8735996712800752
  0.9986208974620564  0.7500801024439319  0.3786578910762430
  1.0002332402339127  0.7500528100729362  0.8740259871864474
  0.4994669663031971  0.2392217608481661  0.3754615703081092
  0.4997322981763150  0.2505928630845061  0.8721749254029501
  0.4970605876473092  0.7599889960517174  0.3744324416749111
  0.5018435248105839  0.7522563249141312  0.8746070069796738
  0.2495020361080053  0.0006643672898318  0.1246402344509495
  0.2495795552526769  0.9991922295990603  0.6242517861747306
  0.2451048895181364  0.5005497112108805  0.1238949448192327
  0.2430297407996341  0.4980991807925835  0.6248271398288811
  0.7490725457075333  0.9980545885498602  0.1249461199574227
  0.7531091178962789  0.0007751641051268  0.6248531034838205
  0.7537715358999271  0.5003275076004137  0.1237812573359087
  0.7626536140061828  0.4988441170780795  0.6289260893571094
  0.2477098513753661 -0.0005349606911569  0.3759100046053555
  0.2502234443255674  0.0003477107482442  0.8733451729256947
  0.2402995154923856  0.4996959117155226  0.3773444073840131
  0.2509463692311757  0.5013484659674559  0.8731464130457998
  0.7518338276353812  0.0003125821798572  0.3750163762619398
  0.7521971061613920  0.9998788350140433  0.8744154177924554
  0.7601038292126879  0.4986619061965876  0.3759173296706061
  0.7505045093936437  0.5018322617949259  0.8727973697478494
  1.0001012715362683  1.0000578521658534  0.0001409731960322
  0.0009154570832753  0.0007331993987682  0.5001021303633231
  1.0000316959098832  0.4998813808024717  0.9995834046638039
  0.9975205081022686  0.5002675065808962  0.5007501917140079
  0.5000801331831657  1.0003945892939292  0.9992820362831337
  0.5015278977395572  0.9967667001575532  0.5005409829494336
  0.4994921671302102  0.4997153058074396  0.9960091519085634
  0.2509389711115482  0.2513682640694402  0.9995971662908635
  0.2500327342693189  0.2494172819560720  0.4992445349596710
  0.2509250665718626  0.7492642110449729  0.9996692752191366
  0.2515911498444397  0.7483269323365486  0.4986092021214066
  0.7491416594406350  0.2509198063451824  0.9995951186794791
  0.7474041934317656  0.2509034103491093  0.4987675419785033
  0.7500974179217849  0.7497028555489649  1.0000337983822287
  0.2488010438396357  0.2499517503935317  0.2507876760826473
  0.2534618061725308  0.2526605045541835  0.7479120484892391
  0.2485386664019189  0.7501864168976330  0.2506346111196994
  0.2534037384958954  0.7479786907955899  0.7483717157666913
  0.7497077886092516  0.2488972832615589  0.2506341293401583
  0.7487398285095913  0.2521578274315481  0.7491503070400352
  0.7487053268266476  0.7481913934395724  0.2543283611521933
  0.7499325014469630  0.7507208064442162  0.7490898612559506
  1.0000083847748986  0.0001145444017381  0.2495215820411505
  0.0012407089817791  1.0001240228240249  0.7501302279158122
 -0.0005141286358036  0.4999150448470044  0.2496545311750895
  0.0015910605522564  0.5001152668423059  0.7508113021926458
  0.4991889169940785 -0.0002987743655014  0.2494290360737402
  0.5010274768818500  0.0004243092176740  0.7501573408480994
  0.4988481260561058  0.4991134010997295  0.2410973690155714
  0.5033985352033353  0.5026247249623804  0.7555974556959154
  0.4918111501401785  0.4929815137713451  0.5052495794469918
  0.7554161605469520  0.7593460941278005  0.5032968921113813
  0.1093598962489575  0.1404305277630969  0.2452794535039136
  0.1130826043694379  0.1399764495518709  0.7511567526545646
  0.1095058171415126  0.6392355997652883  0.2491714630924701
  0.1138828757210633  0.6381986985408233  0.7500303318182807
  0.6097444467229056  0.1388707356623647  0.2484421007343194
  0.6108239052630818  0.1404840056730541  0.7505030733606093
  0.6051543918736753  0.6344474412242114  0.2586078972853764
  0.3906308063344335  0.3641772837367614  0.2621404251887304
  0.3920768458121143  0.3650165711925653  0.7367512644838402
  0.3887592832796470  0.8601804692162538  0.2487043056232945
  0.3890563481054141  0.8632532200259845  0.7515218212939611
  0.8875905626490892  0.3610901560558301  0.2504605565944613
  0.8901809650202344  0.3614823306876601  0.7493323356455216
  0.8874264473807315  0.8586066413860811  0.2543205186398736
  0.8915164545502201  0.8631018242841185  0.7546623154674946
  0.3605568142361861  0.1110785747482389  0.2493868348590793
  0.3626889369836195  0.1131524335702753  0.7496540987501892
  0.3627082549224868  0.6076443499537145  0.2612167397708087
  0.3660849435103881  0.6113009685122004  0.7400202991362999
  0.8592727626666837  0.1093633798600136  0.2452907687416640
  0.8617264840688177  0.1129592006389315  0.7502581725330909
  0.8588919643244002  0.6087492082486101  0.2493245838798283
  0.8653297423379804  0.6128952349790064  0.7520246904356240
  0.1389038324820451  0.3898773371655359  0.2494998316837131
  0.1409214104733873  0.3901894577903539  0.7512159324485626
  0.1389219414922146  0.8900442987497506  0.2449225338206854
  0.1408554623275967  0.8884876559915452  0.7503268202000287
  0.6345687596370582  0.3911588701681882  0.2622202887942758
  0.6379104669585216  0.8876060011392715  0.2514202721785994
  0.6400259672269568  0.8919506562420301  0.7517731748172690
  0.3581434059093841  0.3932973166115182  0.0015276742704169
  0.3593231675005796  0.8907065046938578  0.0001212225667314
  0.3601446426234238  0.8886218650540019  0.4992116059508641
  0.8585340171934335  0.3914255863265013  0.9997013356861366
  0.8616118432348473  0.3859476240157603  0.4992096630759013
  0.8595721147145363  0.8903147344201330  0.0019055031836090
  0.8621277760806144  0.8919167880532929  0.4953985101799093
  0.1415665242434606  0.1110280336100480  0.0010050968618883
  0.1392745303157728  0.1089018433118905  0.5010152037045609
  0.1413469020676775  0.6085702321603501  0.9995420730000776
  0.1318609786361770  0.6137875334093942  0.4992319643227844
  0.6409306105695951  0.1095807821188364  0.0009353383774530
  0.6399363319886305  0.1070754042754250  0.4994967798856689
  0.6405022223782900  0.6074142430100599 -0.0003573565910148
  0.1091844881323924  0.3588209784510341  0.0004892504252734
  0.1090354029602444  0.3606795527556076  0.4989990179204536
  0.1109669475422688  0.8586894290678043  0.0000911578892666
  0.1090155246622249  0.8613402528430947  0.5005286175020356
  0.6067427983072187  0.3588582793608993 -0.0002386192054552
  0.6092243351097876  0.8594531840224856  1.0006413234316072
  0.6070018433293483  0.8553223549475328  0.5005685339378678
  0.3912549142489618  0.1414665808677752  1.0000806040059622
  0.3890457440262751  0.1370231107223043  0.5001689813110599
  0.3931788879311224  0.6410802987834335  0.0008339694386312
  0.3802505516850230  0.6350958902904166  0.4837169075309150
  0.8895797664806894  0.1415728847483944  0.0007020567898432
  0.8904180554226558  0.1386047701764092  0.5011806645397732
  0.8910804889873535  0.6404452300841601  0.0015263833610202
  0.9983088526558298  0.9976079427335082  0.1241728032920763
 -0.0007745099036458 -0.0012261676795402  0.6260074390987345
 -0.0002358349265355  0.4988687037198959  0.1247709889133453
  0.0039136325171466  0.4989596755540908  0.6256444152833482
  0.4998770927619000  0.9993055860930364  0.1247271515596686
  0.5005079288574096  0.0017689078439763  0.6254380239006264
  0.4992981884394377  0.4977513348442066  0.1256896111717131
  0.0031519064978097  0.0039009243656412  0.3728417511462622
  1.0015886696989191  1.0020078130476064  0.8765747083139760
 -0.0017897537204234  0.5007795517819499  0.3745424578792321
  0.0006771519210252  0.4992895313144508  0.8755198211771031
  0.4992225471291338 -0.0006387226260055  0.3743990194135117
  0.4999907198447405  1.0013408692359076  0.8756028246910679
  0.4950297436958548  0.4968180712336595  0.8756464574190135
  0.2427874973298433  0.2426069264583511  0.3738025383979953
  0.2565507613197308  0.2550016510690328  0.8742879556372302
  0.2398754962509688  0.7590034976761779  0.3727569039526666
  0.2546633320678326  0.7451753287483647  0.8743000311111880
  0.7568437824397682  0.2401686326461933  0.3732783621965305
  0.7482292565195976  0.2529941846475813  0.8747710236615635
  0.7412666004816398  0.7380372443427042  0.3780859434626586
  0.7521036097545241  0.7516967525578361  0.8775192460455816
  0.2562161380992143  0.2548639343686627  0.1259786139224122
  0.2467170000136221  0.2493613159210020  0.6237639604986280
  0.2539412204772014  0.7438133237489106  0.1253978817092927
  0.2508066883362728  0.7494761062531609  0.6231991982106467
  0.7452346109523492  0.2570505633709993  0.1257424855851187
  0.7467494911110102  0.2497272363799899  0.6236952177219348
  0.7450733846619700  0.7464335674312108  0.1274415505889320
  0.6392471863364524  0.3914537458582720  0.7452077851595668
  0.6140920925476665  0.6413514793882625  0.7552544715619011
  0.6108107275695692  0.3575037098682894  0.4865244522137110
  0.3562046136489523  0.3852413586203871  0.4929400249339766
  0.7579124473822793  0.7596911878424212  0.6280647755656255
  0.8771406467155693  0.6308238794623749  0.5021371721463513
  0.5891629837478369  0.5791977511641760  0.5748242717795981
 
  0.00000000E+00  0.00000000E+00  0.00000000E+00
  0.00000000E+00  0.00000000E+00  0.00000000E+00
  0.00000000E+00  0.00000000E+00  0.00000000E+00
  0.00000000E+00  0.00000000E+00  0.00000000E+00
  0.00000000E+00  0.00000000E+00  0.00000000E+00
  0.00000000E+00  0.00000000E+00  0.00000000E+00
  0.00000000E+00  0.00000000E+00  0.00000000E+00
  0.00000000E+00  0.00000000E+00  0.00000000E+00
  0.00000000E+00  0.00000000E+00  0.00000000E+00
  0.00000000E+00  0.00000000E+00  0.00000000E+00
  0.00000000E+00  0.00000000E+00  0.00000000E+00
  0.00000000E+00  0.00000000E+00  0.00000000E+00
  0.00000000E+00  0.00000000E+00  0.00000000E+00
  0.00000000E+00  0.00000000E+00  0.00000000E+00
  0.00000000E+00  0.00000000E+00  0.00000000E+00
  0.00000000E+00  0.00000000E+00  0.00000000E+00
  0.00000000E+00  0.00000000E+00  0.00000000E+00
  0.00000000E+00  0.00000000E+00  0.00000000E+00
  0.00000000E+00  0.00000000E+00  0.00000000E+00
  0.00000000E+00  0.00000000E+00  0.00000000E+00
  0.00000000E+00  0.00000000E+00  0.00000000E+00
  0.00000000E+00  0.00000000E+00  0.00000000E+00
  0.00000000E+00  0.00000000E+00  0.00000000E+00
  0.00000000E+00  0.00000000E+00  0.00000000E+00
  0.00000000E+00  0.00000000E+00  0.00000000E+00
  0.00000000E+00  0.00000000E+00  0.00000000E+00
  0.00000000E+00  0.00000000E+00  0.00000000E+00
  0.00000000E+00  0.00000000E+00  0.00000000E+00
  0.00000000E+00  0.00000000E+00  0.00000000E+00
  0.00000000E+00  0.00000000E+00  0.00000000E+00
  0.00000000E+00  0.00000000E+00  0.00000000E+00
  0.00000000E+00  0.00000000E+00  0.00000000E+00
  0.00000000E+00  0.00000000E+00  0.00000000E+00
  0.00000000E+00  0.00000000E+00  0.00000000E+00
  0.00000000E+00  0.00000000E+00  0.00000000E+00
  0.00000000E+00  0.00000000E+00  0.00000000E+00
  0.00000000E+00  0.00000000E+00  0.00000000E+00
  0.00000000E+00  0.00000000E+00  0.00000000E+00
  0.00000000E+00  0.00000000E+00  0.00000000E+00
  0.00000000E+00  0.00000000E+00  0.00000000E+00
  0.00000000E+00  0.00000000E+00  0.00000000E+00
  0.00000000E+00  0.00000000E+00  0.00000000E+00
  0.00000000E+00  0.00000000E+00  0.00000000E+00
  0.00000000E+00  0.00000000E+00  0.00000000E+00
  0.00000000E+00  0.00000000E+00  0.00000000E+00
  0.00000000E+00  0.00000000E+00  0.00000000E+00
  0.00000000E+00  0.00000000E+00  0.00000000E+00
  0.00000000E+00  0.00000000E+00  0.00000000E+00
  0.00000000E+00  0.00000000E+00  0.00000000E+00
  0.00000000E+00  0.00000000E+00  0.00000000E+00
  0.00000000E+00  0.00000000E+00  0.00000000E+00
  0.00000000E+00  0.00000000E+00  0.00000000E+00
  0.00000000E+00  0.00000000E+00  0.00000000E+00
  0.00000000E+00  0.00000000E+00  0.00000000E+00
  0.00000000E+00  0.00000000E+00  0.00000000E+00
  0.00000000E+00  0.00000000E+00  0.00000000E+00
  0.00000000E+00  0.00000000E+00  0.00000000E+00
  0.00000000E+00  0.00000000E+00  0.00000000E+00
  0.00000000E+00  0.00000000E+00  0.00000000E+00
  0.00000000E+00  0.00000000E+00  0.00000000E+00
  0.00000000E+00  0.00000000E+00  0.00000000E+00
  0.00000000E+00  0.00000000E+00  0.00000000E+00
  0.00000000E+00  0.00000000E+00  0.00000000E+00
  0.00000000E+00  0.00000000E+00  0.00000000E+00
  0.00000000E+00  0.00000000E+00  0.00000000E+00
  0.00000000E+00  0.00000000E+00  0.00000000E+00
  0.00000000E+00  0.00000000E+00  0.00000000E+00
  0.00000000E+00  0.00000000E+00  0.00000000E+00
  0.00000000E+00  0.00000000E+00  0.00000000E+00
  0.00000000E+00  0.00000000E+00  0.00000000E+00
  0.00000000E+00  0.00000000E+00  0.00000000E+00
  0.00000000E+00  0.00000000E+00  0.00000000E+00
  0.00000000E+00  0.00000000E+00  0.00000000E+00
  0.00000000E+00  0.00000000E+00  0.00000000E+00
  0.00000000E+00  0.00000000E+00  0.00000000E+00
  0.00000000E+00  0.00000000E+00  0.00000000E+00
  0.00000000E+00  0.00000000E+00  0.00000000E+00
  0.00000000E+00  0.00000000E+00  0.00000000E+00
  0.00000000E+00  0.00000000E+00  0.00000000E+00
  0.00000000E+00  0.00000000E+00  0.00000000E+00
  0.00000000E+00  0.00000000E+00  0.00000000E+00
  0.00000000E+00  0.00000000E+00  0.00000000E+00
  0.00000000E+00  0.00000000E+00  0.00000000E+00
  0.00000000E+00  0.00000000E+00  0.00000000E+00
  0.00000000E+00  0.00000000E+00  0.00000000E+00
  0.00000000E+00  0.00000000E+00  0.00000000E+00
  0.00000000E+00  0.00000000E+00  0.00000000E+00
  0.00000000E+00  0.00000000E+00  0.00000000E+00
  0.00000000E+00  0.00000000E+00  0.00000000E+00
  0.00000000E+00  0.00000000E+00  0.00000000E+00
  0.00000000E+00  0.00000000E+00  0.00000000E+00
  0.00000000E+00  0.00000000E+00  0.00000000E+00
  0.00000000E+00  0.00000000E+00  0.00000000E+00
  0.00000000E+00  0.00000000E+00  0.00000000E+00
  0.00000000E+00  0.00000000E+00  0.00000000E+00
  0.00000000E+00  0.00000000E+00  0.00000000E+00
  0.00000000E+00  0.00000000E+00  0.00000000E+00
  0.00000000E+00  0.00000000E+00  0.00000000E+00
  0.00000000E+00  0.00000000E+00  0.00000000E+00
  0.00000000E+00  0.00000000E+00  0.00000000E+00
  0.00000000E+00  0.00000000E+00  0.00000000E+00
  0.00000000E+00  0.00000000E+00  0.00000000E+00
  0.00000000E+00  0.00000000E+00  0.00000000E+00
  0.00000000E+00  0.00000000E+00  0.00000000E+00
  0.00000000E+00  0.00000000E+00  0.00000000E+00
  0.00000000E+00  0.00000000E+00  0.00000000E+00
  0.00000000E+00  0.00000000E+00  0.00000000E+00
  0.00000000E+00  0.00000000E+00  0.00000000E+00
  0.00000000E+00  0.00000000E+00  0.00000000E+00
  0.00000000E+00  0.00000000E+00  0.00000000E+00
  0.00000000E+00  0.00000000E+00  0.00000000E+00
  0.00000000E+00  0.00000000E+00  0.00000000E+00
  0.00000000E+00  0.00000000E+00  0.00000000E+00
  0.00000000E+00  0.00000000E+00  0.00000000E+00
  0.00000000E+00  0.00000000E+00  0.00000000E+00
  0.00000000E+00  0.00000000E+00  0.00000000E+00
  0.00000000E+00  0.00000000E+00  0.00000000E+00
  0.00000000E+00  0.00000000E+00  0.00000000E+00
  0.00000000E+00  0.00000000E+00  0.00000000E+00
  0.00000000E+00  0.00000000E+00  0.00000000E+00
  0.00000000E+00  0.00000000E+00  0.00000000E+00
  0.00000000E+00  0.00000000E+00  0.00000000E+00
  0.00000000E+00  0.00000000E+00  0.00000000E+00
  0.00000000E+00  0.00000000E+00  0.00000000E+00
  0.00000000E+00  0.00000000E+00  0.00000000E+00
  0.00000000E+00  0.00000000E+00  0.00000000E+00
  0.00000000E+00  0.00000000E+00  0.00000000E+00
  0.00000000E+00  0.00000000E+00  0.00000000E+00
  0.00000000E+00  0.00000000E+00  0.00000000E+00
  0.00000000E+00  0.00000000E+00  0.00000000E+00
  0.00000000E+00  0.00000000E+00  0.00000000E+00
  0.00000000E+00  0.00000000E+00  0.00000000E+00
  0.00000000E+00  0.00000000E+00  0.00000000E+00
  0.00000000E+00  0.00000000E+00  0.00000000E+00
  0.00000000E+00  0.00000000E+00  0.00000000E+00
  0.00000000E+00  0.00000000E+00  0.00000000E+00
  0.00000000E+00  0.00000000E+00  0.00000000E+00
  0.00000000E+00  0.00000000E+00  0.00000000E+00
  0.00000000E+00  0.00000000E+00  0.00000000E+00
  0.00000000E+00  0.00000000E+00  0.00000000E+00
  0.00000000E+00  0.00000000E+00  0.00000000E+00
  0.00000000E+00  0.00000000E+00  0.00000000E+00
  0.00000000E+00  0.00000000E+00  0.00000000E+00
  0.00000000E+00  0.00000000E+00  0.00000000E+00
  0.00000000E+00  0.00000000E+00  0.00000000E+00
  0.00000000E+00  0.00000000E+00  0.00000000E+00
  0.00000000E+00  0.00000000E+00  0.00000000E+00
  0.00000000E+00  0.00000000E+00  0.00000000E+00
  0.00000000E+00  0.00000000E+00  0.00000000E+00
  0.00000000E+00  0.00000000E+00  0.00000000E+00
  0.00000000E+00  0.00000000E+00  0.00000000E+00
  0.00000000E+00  0.00000000E+00  0.00000000E+00
  0.00000000E+00  0.00000000E+00  0.00000000E+00
  0.00000000E+00  0.00000000E+00  0.00000000E+00
  0.00000000E+00  0.00000000E+00  0.00000000E+00
  0.00000000E+00  0.00000000E+00  0.00000000E+00
  0.00000000E+00  0.00000000E+00  0.00000000E+00
  0.00000000E+00  0.00000000E+00  0.00000000E+00
