SrTiFeO                                 
   1.00000000000000     
    11.1989999999999998    0.0000000000000000    0.0000000000000000
     0.0000000000000000   11.1989999999999998    0.0000000000000000
     0.0000000000000000    0.0000000000000000   15.9830000000000005
   Sr   Ti   O 
    32    32    94
Direct
  0.0006630020264817  0.2493369979735183  0.1237465796173455
  0.0023217694010458  0.2476782305989542  0.6280206037512346
 -0.0004344949518137  0.7495655050481864  0.1252059770258252
  0.0009091194416516  0.7509091194416517  0.6259650948228158
  0.5004344949518136  0.2504344949518137  0.1252059770258252
  0.4990908805583483  0.2490908805583483  0.6259650948228158
  0.4993369979735184  0.7506630020264818  0.1237465796173455
  0.4976782305989542  0.7523217694010460  0.6280206037512346
  0.0023217694010458  0.2476782305989542  0.3719793962487655
  0.0006630020264817  0.2493369979735183  0.8762534203826543
  0.0009091194416516  0.7509091194416517  0.3740349051771842
 -0.0004344949518137  0.7495655050481864  0.8747940229741747
  0.4990908805583483  0.2490908805583483  0.3740349051771842
  0.5004344949518136  0.2504344949518137  0.8747940229741747
  0.4976782305989542  0.7523217694010460  0.3719793962487655
  0.4993369979735184  0.7506630020264818  0.8762534203826543
  0.2500000000000000 -0.0000000000000000  0.1250837133945303
  0.2500000000000000 -0.0000000000000000  0.6258313525537574
  0.2500000000000000  0.5000000000000000  0.1244024830242289
  0.2500000000000000  0.5000000000000000  0.6269740109320391
  0.7500000000000000 -0.0000000000000000  0.1244024830242289
  0.7500000000000000 -0.0000000000000000  0.6269740109320391
  0.7500000000000000  0.5000000000000000  0.1237774477413263
  0.7500000000000000  0.5000000000000000  0.6302320630668451
  0.2500000000000000 -0.0000000000000000  0.3741686474462431
  0.2500000000000000 -0.0000000000000000  0.8749162866054693
  0.2500000000000000  0.5000000000000000  0.3730259890679606
  0.2500000000000000  0.5000000000000000  0.8755975169757710
  0.7500000000000000 -0.0000000000000000  0.3730259890679606
  0.7500000000000000 -0.0000000000000000  0.8755975169757710
  0.7500000000000000  0.5000000000000000  0.3697679369331551
  0.7500000000000000  0.5000000000000000  0.8762225522586736
 -0.0001964075372794 -0.0006239921750904 -0.0000000000000000
  0.0026531904141985  0.0012141748958255  0.5000000000000000
  0.0004605349495283  0.5000957956315883 -0.0000000000000000
  0.0048899394282358  0.5014340127429595  0.5000000000000000
  0.5001964075372796  0.0006239921750904 -0.0000000000000000
  0.4973468095858015 -0.0012141748958255  0.5000000000000000
  0.4995394650504718  0.4999042043684118 -0.0000000000000000
  0.2506239921750904  0.2501964075372795 -0.0000000000000000
  0.2487858251041745  0.2473468095858016  0.5000000000000000
  0.2493760078249096  0.7498035924627204 -0.0000000000000000
  0.2512141748958256  0.7526531904141989  0.5000000000000000
  0.7499042043684118  0.2495394650504717 -0.0000000000000000
  0.7500957956315882  0.7504605349495284 -0.0000000000000000
  0.2504515627883461  0.2502412406822596  0.2499899928954551
  0.2504515627883461  0.2502412406822596  0.7500100071045449
  0.2495484372116540  0.7497587593177405  0.2499899928954551
  0.2495484372116540  0.7497587593177405  0.7500100071045449
  0.7508653700104460  0.2505230609167275  0.2494082989391563
  0.7508653700104460  0.2505230609167275  0.7505917010608435
  0.7491346299895540  0.7494769390832725  0.2494082989391563
  0.7491346299895540  0.7494769390832725  0.7505917010608435
 -0.0002412406822596 -0.0004515627883460  0.2499899928954551
 -0.0002412406822596 -0.0004515627883460  0.7500100071045449
 -0.0005230609167275  0.4991346299895540  0.2494082989391563
 -0.0005230609167275  0.4991346299895540  0.7505917010608435
  0.5002412406822596  0.0004515627883460  0.2499899928954551
  0.5002412406822596  0.0004515627883460  0.7500100071045449
  0.5005230609167275  0.5008653700104460  0.2494082989391563
  0.5005230609167275  0.5008653700104460  0.7505917010608435
  0.7485659872570405  0.2451100605717642  0.5000000000000000
  0.4951100605717641  0.4985659872570404  0.5000000000000000
  0.7514340127429595  0.7548899394282357  0.5000000000000000
  0.1102960222433897  0.1397039777566103  0.2488451494084435
  0.1102960222433897  0.1397039777566103  0.7511548505915565
  0.1086768981836743  0.6393688754046162  0.2534913359719504
  0.1086768981836743  0.6393688754046162  0.7465086640280498
  0.6106311245953838  0.1413231018163256  0.2534913359719504
  0.6106311245953838  0.1413231018163256  0.7465086640280498
  0.6089349011696994  0.6410650988303006  0.2464148117662892
  0.6089349011696994  0.6410650988303006  0.7535851882337107
  0.3913231018163258  0.3606311245953839  0.2534913359719504
  0.3913231018163258  0.3606311245953839  0.7465086640280498
  0.3897039777566103  0.8602960222433895  0.2488451494084435
  0.3897039777566103  0.8602960222433895  0.7511548505915565
  0.8910650988303006  0.3589349011696994  0.2464148117662892
  0.8910650988303006  0.3589349011696994  0.7535851882337107
  0.8893688754046162  0.8586768981836745  0.2534913359719504
  0.8893688754046162  0.8586768981836745  0.7465086640280498
  0.3605516074176129  0.1105516074176130  0.2504524613477604
  0.3605516074176129  0.1105516074176130  0.7495475386522394
  0.3593342740190781  0.6092455119984334  0.2508840062628955
  0.3593342740190781  0.6092455119984334  0.7491159937371047
  0.8592455119984334  0.1093342740190782  0.2508840062628955
  0.8592455119984334  0.1093342740190782  0.7491159937371047
  0.8592167023451872  0.6092167023451872  0.2487862471362625
  0.8592167023451872  0.6092167023451872  0.7512137528637377
  0.1406657259809218  0.3907544880015666  0.2508840062628955
  0.1406657259809218  0.3907544880015666  0.7491159937371047
  0.1394483925823870  0.8894483925823869  0.2504524613477604
  0.1394483925823870  0.8894483925823869  0.7495475386522394
  0.6407832976548128  0.3907832976548130  0.2487862471362625
  0.6407832976548128  0.3907832976548130  0.7512137528637377
  0.6407544880015666  0.8906657259809221  0.2508840062628955
  0.6407544880015666  0.8906657259809221  0.7491159937371047
  0.3592080124975932  0.3908082732990691 -0.0000000000000000
  0.3594997018161120  0.8905002981838882 -0.0000000000000000
  0.3564650247184211  0.8935349752815790  0.5000000000000000
  0.8599022458214275  0.3900977541785723 -0.0000000000000000
  0.8591917267009310  0.8907919875024071 -0.0000000000000000
  0.8584065660378583  0.8891088195621339  0.5000000000000000
  0.1405002981838882  0.1094997018161119 -0.0000000000000000
  0.1435349752815788  0.1064650247184211  0.5000000000000000
  0.1407919875024068  0.6091917267009310 -0.0000000000000000
  0.1391088195621339  0.6084065660378583  0.5000000000000000
  0.6408082732990690  0.1092080124975930 -0.0000000000000000
  0.6415934339621417  0.1108911804378661  0.5000000000000000
  0.6400977541785725  0.6099022458214275 -0.0000000000000000
  0.1096278261971877  0.3592275488499946 -0.0000000000000000
  0.1032094245680161  0.3565295294182503  0.5000000000000000
  0.1091950311375294  0.8591950311375296 -0.0000000000000000
  0.1068268058494042  0.8568268058494041  0.5000000000000000
  0.6097259874024814  0.3597259874024813 -0.0000000000000000
  0.6092275488499942  0.8596278261971877 -0.0000000000000000
  0.6065295294182501  0.8532094245680163  0.5000000000000000
  0.3908049688624705  0.1408049688624706 -0.0000000000000000
  0.3931731941505958  0.1431731941505958  0.5000000000000000
  0.3903721738028122  0.6407724511500058 -0.0000000000000000
  0.8907724511500058  0.1403721738028123 -0.0000000000000000
  0.8934704705817499  0.1467905754319838  0.5000000000000000
  0.8902740125975186  0.6402740125975186 -0.0000000000000000
 -0.0014349102847865 -0.0016367510348403  0.1253942685361105
 -0.0002828410139683  0.0005750800112764  0.6250291443842179
  0.0017797145777666  0.5011559267270453  0.1250458834689511
 -0.0089066468726677  0.4931827371073669  0.6237684070020885
  0.5014349102847865  0.0016367510348403  0.1253942685361105
  0.5002828410139682 -0.0005750800112764  0.6250291443842179
  0.4982202854222333  0.4988440732729548  0.1250458834689511
  0.5089066468726676  0.5068172628926327  0.6237684070020885
 -0.0002828410139683  0.0005750800112764  0.3749708556157818
 -0.0014349102847865 -0.0016367510348403  0.8746057314638894
 -0.0089066468726677  0.4931827371073669  0.3762315929979115
  0.0017797145777666  0.5011559267270453  0.8749541165310489
  0.5002828410139682 -0.0005750800112764  0.3749708556157818
  0.5014349102847865  0.0016367510348403  0.8746057314638894
  0.4982202854222333  0.4988440732729548  0.8749541165310489
  0.2494249199887238  0.2502828410139683  0.3749708556157818
  0.2516367510348402  0.2514349102847864  0.8746057314638894
  0.2505750800112765  0.7497171589860318  0.3749708556157818
  0.2483632489651597  0.7485650897152135  0.8746057314638894
  0.7488440732729548  0.2482202854222334  0.8749541165310489
  0.7511559267270452  0.7517797145777669  0.8749541165310489
  0.2516367510348402  0.2514349102847864  0.1253942685361105
  0.2494249199887238  0.2502828410139683  0.6250291443842179
  0.2483632489651597  0.7485650897152135  0.1253942685361105
  0.2505750800112765  0.7497171589860318  0.6250291443842179
  0.7488440732729548  0.2482202854222334  0.1250458834689511
  0.7568172628926327  0.2589066468726676  0.6237684070020885
  0.7511559267270452  0.7517797145777669  0.1250458834689511
  0.7431827371073673  0.7410933531273324  0.6237684070020885
  0.7568172628926327  0.2589066468726676  0.3762315929979115
  0.3967905754319839  0.6434704705817499  0.5000000000000000
  0.5089066468726676  0.5068172628926327  0.3762315929979115
  0.3608911804378663  0.3915934339621418  0.5000000000000000
  0.8689000970968641  0.6189000970968641  0.5000000000000000
  0.7431827371073673  0.7410933531273324  0.3762315929979115
  0.6310999029031359  0.3810999029031360  0.5000000000000000
 
  0.00000000E+00  0.00000000E+00  0.00000000E+00
  0.00000000E+00  0.00000000E+00  0.00000000E+00
  0.00000000E+00  0.00000000E+00  0.00000000E+00
  0.00000000E+00  0.00000000E+00  0.00000000E+00
  0.00000000E+00  0.00000000E+00  0.00000000E+00
  0.00000000E+00  0.00000000E+00  0.00000000E+00
  0.00000000E+00  0.00000000E+00  0.00000000E+00
  0.00000000E+00  0.00000000E+00  0.00000000E+00
  0.00000000E+00  0.00000000E+00  0.00000000E+00
  0.00000000E+00  0.00000000E+00  0.00000000E+00
  0.00000000E+00  0.00000000E+00  0.00000000E+00
  0.00000000E+00  0.00000000E+00  0.00000000E+00
  0.00000000E+00  0.00000000E+00  0.00000000E+00
  0.00000000E+00  0.00000000E+00  0.00000000E+00
  0.00000000E+00  0.00000000E+00  0.00000000E+00
  0.00000000E+00  0.00000000E+00  0.00000000E+00
  0.00000000E+00  0.00000000E+00  0.00000000E+00
  0.00000000E+00  0.00000000E+00  0.00000000E+00
  0.00000000E+00  0.00000000E+00  0.00000000E+00
  0.00000000E+00  0.00000000E+00  0.00000000E+00
  0.00000000E+00  0.00000000E+00  0.00000000E+00
  0.00000000E+00  0.00000000E+00  0.00000000E+00
  0.00000000E+00  0.00000000E+00  0.00000000E+00
  0.00000000E+00  0.00000000E+00  0.00000000E+00
  0.00000000E+00  0.00000000E+00  0.00000000E+00
  0.00000000E+00  0.00000000E+00  0.00000000E+00
  0.00000000E+00  0.00000000E+00  0.00000000E+00
  0.00000000E+00  0.00000000E+00  0.00000000E+00
  0.00000000E+00  0.00000000E+00  0.00000000E+00
  0.00000000E+00  0.00000000E+00  0.00000000E+00
  0.00000000E+00  0.00000000E+00  0.00000000E+00
  0.00000000E+00  0.00000000E+00  0.00000000E+00
  0.00000000E+00  0.00000000E+00  0.00000000E+00
  0.00000000E+00  0.00000000E+00  0.00000000E+00
  0.00000000E+00  0.00000000E+00  0.00000000E+00
  0.00000000E+00  0.00000000E+00  0.00000000E+00
  0.00000000E+00  0.00000000E+00  0.00000000E+00
  0.00000000E+00  0.00000000E+00  0.00000000E+00
  0.00000000E+00  0.00000000E+00  0.00000000E+00
  0.00000000E+00  0.00000000E+00  0.00000000E+00
  0.00000000E+00  0.00000000E+00  0.00000000E+00
  0.00000000E+00  0.00000000E+00  0.00000000E+00
  0.00000000E+00  0.00000000E+00  0.00000000E+00
  0.00000000E+00  0.00000000E+00  0.00000000E+00
  0.00000000E+00  0.00000000E+00  0.00000000E+00
  0.00000000E+00  0.00000000E+00  0.00000000E+00
  0.00000000E+00  0.00000000E+00  0.00000000E+00
  0.00000000E+00  0.00000000E+00  0.00000000E+00
  0.00000000E+00  0.00000000E+00  0.00000000E+00
  0.00000000E+00  0.00000000E+00  0.00000000E+00
  0.00000000E+00  0.00000000E+00  0.00000000E+00
  0.00000000E+00  0.00000000E+00  0.00000000E+00
  0.00000000E+00  0.00000000E+00  0.00000000E+00
  0.00000000E+00  0.00000000E+00  0.00000000E+00
  0.00000000E+00  0.00000000E+00  0.00000000E+00
  0.00000000E+00  0.00000000E+00  0.00000000E+00
  0.00000000E+00  0.00000000E+00  0.00000000E+00
  0.00000000E+00  0.00000000E+00  0.00000000E+00
  0.00000000E+00  0.00000000E+00  0.00000000E+00
  0.00000000E+00  0.00000000E+00  0.00000000E+00
  0.00000000E+00  0.00000000E+00  0.00000000E+00
  0.00000000E+00  0.00000000E+00  0.00000000E+00
  0.00000000E+00  0.00000000E+00  0.00000000E+00
  0.00000000E+00  0.00000000E+00  0.00000000E+00
  0.00000000E+00  0.00000000E+00  0.00000000E+00
  0.00000000E+00  0.00000000E+00  0.00000000E+00
  0.00000000E+00  0.00000000E+00  0.00000000E+00
  0.00000000E+00  0.00000000E+00  0.00000000E+00
  0.00000000E+00  0.00000000E+00  0.00000000E+00
  0.00000000E+00  0.00000000E+00  0.00000000E+00
  0.00000000E+00  0.00000000E+00  0.00000000E+00
  0.00000000E+00  0.00000000E+00  0.00000000E+00
  0.00000000E+00  0.00000000E+00  0.00000000E+00
  0.00000000E+00  0.00000000E+00  0.00000000E+00
  0.00000000E+00  0.00000000E+00  0.00000000E+00
  0.00000000E+00  0.00000000E+00  0.00000000E+00
  0.00000000E+00  0.00000000E+00  0.00000000E+00
  0.00000000E+00  0.00000000E+00  0.00000000E+00
  0.00000000E+00  0.00000000E+00  0.00000000E+00
  0.00000000E+00  0.00000000E+00  0.00000000E+00
  0.00000000E+00  0.00000000E+00  0.00000000E+00
  0.00000000E+00  0.00000000E+00  0.00000000E+00
  0.00000000E+00  0.00000000E+00  0.00000000E+00
  0.00000000E+00  0.00000000E+00  0.00000000E+00
  0.00000000E+00  0.00000000E+00  0.00000000E+00
  0.00000000E+00  0.00000000E+00  0.00000000E+00
  0.00000000E+00  0.00000000E+00  0.00000000E+00
  0.00000000E+00  0.00000000E+00  0.00000000E+00
  0.00000000E+00  0.00000000E+00  0.00000000E+00
  0.00000000E+00  0.00000000E+00  0.00000000E+00
  0.00000000E+00  0.00000000E+00  0.00000000E+00
  0.00000000E+00  0.00000000E+00  0.00000000E+00
  0.00000000E+00  0.00000000E+00  0.00000000E+00
  0.00000000E+00  0.00000000E+00  0.00000000E+00
  0.00000000E+00  0.00000000E+00  0.00000000E+00
  0.00000000E+00  0.00000000E+00  0.00000000E+00
  0.00000000E+00  0.00000000E+00  0.00000000E+00
  0.00000000E+00  0.00000000E+00  0.00000000E+00
  0.00000000E+00  0.00000000E+00  0.00000000E+00
  0.00000000E+00  0.00000000E+00  0.00000000E+00
  0.00000000E+00  0.00000000E+00  0.00000000E+00
  0.00000000E+00  0.00000000E+00  0.00000000E+00
  0.00000000E+00  0.00000000E+00  0.00000000E+00
  0.00000000E+00  0.00000000E+00  0.00000000E+00
  0.00000000E+00  0.00000000E+00  0.00000000E+00
  0.00000000E+00  0.00000000E+00  0.00000000E+00
  0.00000000E+00  0.00000000E+00  0.00000000E+00
  0.00000000E+00  0.00000000E+00  0.00000000E+00
  0.00000000E+00  0.00000000E+00  0.00000000E+00
  0.00000000E+00  0.00000000E+00  0.00000000E+00
  0.00000000E+00  0.00000000E+00  0.00000000E+00
  0.00000000E+00  0.00000000E+00  0.00000000E+00
  0.00000000E+00  0.00000000E+00  0.00000000E+00
  0.00000000E+00  0.00000000E+00  0.00000000E+00
  0.00000000E+00  0.00000000E+00  0.00000000E+00
  0.00000000E+00  0.00000000E+00  0.00000000E+00
  0.00000000E+00  0.00000000E+00  0.00000000E+00
  0.00000000E+00  0.00000000E+00  0.00000000E+00
  0.00000000E+00  0.00000000E+00  0.00000000E+00
  0.00000000E+00  0.00000000E+00  0.00000000E+00
  0.00000000E+00  0.00000000E+00  0.00000000E+00
  0.00000000E+00  0.00000000E+00  0.00000000E+00
  0.00000000E+00  0.00000000E+00  0.00000000E+00
  0.00000000E+00  0.00000000E+00  0.00000000E+00
  0.00000000E+00  0.00000000E+00  0.00000000E+00
  0.00000000E+00  0.00000000E+00  0.00000000E+00
  0.00000000E+00  0.00000000E+00  0.00000000E+00
  0.00000000E+00  0.00000000E+00  0.00000000E+00
  0.00000000E+00  0.00000000E+00  0.00000000E+00
  0.00000000E+00  0.00000000E+00  0.00000000E+00
  0.00000000E+00  0.00000000E+00  0.00000000E+00
  0.00000000E+00  0.00000000E+00  0.00000000E+00
  0.00000000E+00  0.00000000E+00  0.00000000E+00
  0.00000000E+00  0.00000000E+00  0.00000000E+00
  0.00000000E+00  0.00000000E+00  0.00000000E+00
  0.00000000E+00  0.00000000E+00  0.00000000E+00
  0.00000000E+00  0.00000000E+00  0.00000000E+00
  0.00000000E+00  0.00000000E+00  0.00000000E+00
  0.00000000E+00  0.00000000E+00  0.00000000E+00
  0.00000000E+00  0.00000000E+00  0.00000000E+00
  0.00000000E+00  0.00000000E+00  0.00000000E+00
  0.00000000E+00  0.00000000E+00  0.00000000E+00
  0.00000000E+00  0.00000000E+00  0.00000000E+00
  0.00000000E+00  0.00000000E+00  0.00000000E+00
  0.00000000E+00  0.00000000E+00  0.00000000E+00
  0.00000000E+00  0.00000000E+00  0.00000000E+00
  0.00000000E+00  0.00000000E+00  0.00000000E+00
  0.00000000E+00  0.00000000E+00  0.00000000E+00
  0.00000000E+00  0.00000000E+00  0.00000000E+00
  0.00000000E+00  0.00000000E+00  0.00000000E+00
  0.00000000E+00  0.00000000E+00  0.00000000E+00
  0.00000000E+00  0.00000000E+00  0.00000000E+00
  0.00000000E+00  0.00000000E+00  0.00000000E+00
  0.00000000E+00  0.00000000E+00  0.00000000E+00
  0.00000000E+00  0.00000000E+00  0.00000000E+00
  0.00000000E+00  0.00000000E+00  0.00000000E+00
  0.00000000E+00  0.00000000E+00  0.00000000E+00
  0.00000000E+00  0.00000000E+00  0.00000000E+00
