SrTiFeO                                 
   1.00000000000000     
    11.1989999999999998    0.0000000000000000    0.0000000000000000
     0.0000000000000000   11.1989999999999998    0.0000000000000000
     0.0000000000000000    0.0000000000000000   15.9830000000000005
   Sr   Ti   Fe   O 
    32    30     2    95
Direct
  0.0003359186447885  0.2497784444892500  0.1246282929660564
 -0.0000005509541163  0.2496242537633676  0.6264770866888297
 -0.0016384213506371  0.7504575311716353  0.1252689037449452
 -0.0004049640881332  0.7481319161265707  0.6252471534117453
  0.4995271536589173  0.2512601001531318  0.1248668420927669
  0.5019985814702660  0.2474575382417713  0.6269561324953069
  0.5003922295999224  0.7502394882813167  0.1230919250785441
  0.4989375355629550  0.7501796008711098  0.6297569412815452
 -0.0000164579633915  0.2498088568438087  0.3746800299767082
  0.0002485785481719  0.2496251734392231  0.8745809364664737
 -0.0001205530818413  0.7477486544987331  0.3757818275814938
 -0.0015296731670314  0.7504164902119312  0.8737603982533073
  0.5019518224576677  0.2452433337995115  0.3746625522546624
  0.4999143056823097  0.2532991496441828  0.8732099764455096
  0.4989238256743239  0.7527098399173214  0.3712297304949145
  0.4999162876487569  0.7483062660481938  0.8750346610298112
  0.2501318583509640 -0.0003994704921434  0.1249141883324543
  0.2500294029216141 -0.0009664794385978  0.6270803205608020
  0.2509315568020222  0.5008317767206983  0.1240290146002434
  0.2454310496379379  0.5002947084054815  0.6290110079220272
  0.7495725280742728 -0.0010077289088650  0.1246149556645218
  0.7499396460536600  0.0015499106309257  0.6268381970862977
  0.7489396146781586  0.5009844001514567  0.1241227075853279
  0.7533173170760836  0.4957740249882084  0.6299043353138768
  0.2502164359377196 -0.0008713132376270  0.3738911166586716
  0.2498405852630053 -0.0001600966289218  0.8743324561221023
  0.2436235303923595  0.5002133103507115  0.3726816732994334
  0.2527038119890317  0.5003648882222862  0.8742654197423742
  0.7498389623638624  0.0020387607280133  0.3742031883984157
  0.7498245370703247 -0.0011123439852885  0.8745675587195962
  0.7553605031009436  0.4956480171518373  0.3713978608690574
  0.7467734559263339  0.5011370782771034  0.8741943928462426
 -0.0002322728796522 -0.0003261964159943 -0.0000420144541727
  0.0008114418291373  0.0001520089561317  0.5001115134141688
 -0.0000443250920819  0.4998224977750784 -0.0003389330582876
 -0.0014421517053798  0.5002178776058535  0.5003071583266043
  0.5000904363377795  0.0004557077475519 -0.0003335828031301
  0.5005272210640860 -0.0028920626876734  0.5003763559976803
  0.4996594462272932  0.4996788557572004 -0.0016008059059607
  0.2506337140926530  0.2503943964593741 -0.0001344450944888
  0.2464275880329487  0.2446507505073182  0.5003291851671646
  0.2495657156584417  0.7499002829599583 -0.0001550128906841
  0.2506491290152127  0.7508355599175732  0.5001010351402623
  0.7503195896823098  0.2500301180737329 -0.0001670546841327
  0.7512233762590881  0.2497505086777602  0.5001156915474150
  0.7505926399110029  0.7505905253652043 -0.0001816262527858
  0.2502801493125200  0.2500537929465537  0.2502467616612344
  0.2519732155498464  0.2511720261942172  0.7498090617945570
  0.2494755220746404  0.7497766036989477  0.2497764505753680
  0.2507663833315379  0.7482874804964079  0.7501911749478464
  0.7501023729047718  0.2493662432408173  0.2492904526127495
  0.7488207664988908  0.2506856178807728  0.7506752557275966
  0.7489520353103472  0.7489692386968594  0.2518747651305125
  0.7472820486304271  0.7474220641031495  0.7480304888962084
 -0.0001047258337272 -0.0003592751263693  0.2503615508880939
 -0.0000974041273530 -0.0005386729444199  0.7497075452026187
  0.0000493268855700  0.4997147262110772  0.2489525566422824
 -0.0000826210817485  0.4996505772759630  0.7509409075949127
  0.5000635715669769 -0.0000055247416850  0.2494892350289712
  0.5000462420672749 -0.0002714830204660  0.7504862002495053
  0.5009864072822977  0.5009198706457668  0.2498224492151759
  0.4868230855899318  0.4927676094985867  0.5000983681952372
  0.5010625592871727  0.5009796235784072  0.7495113914828910
  0.7579322001012974  0.7627793328494391  0.5000390619853300
  0.1096409059405362  0.1408553835015070  0.2490446729382176
  0.1105220429381193  0.1395370251029194  0.7510411719024073
  0.1091237974666648  0.6404542568684459  0.2505575322901286
  0.1095971300916713  0.6396468944515249  0.7493515603772649
  0.6093899650962097  0.1407140661144589  0.2495890956500452
  0.6102794580936171  0.1390407748038831  0.7502102582023698
  0.6089613814999888  0.6410385050736194  0.2443560545098949
  0.3917767159497303  0.3610712205516551  0.2564608473452338
  0.3891040525252237  0.3606333620960588  0.7441436811173637
  0.3897792337282776  0.8601214778209860  0.2493134074633473
  0.3891360572897301  0.8611982815305403  0.7504443634785749
  0.8904629431560090  0.3595222093249548  0.2513541365159046
  0.8899790449230673  0.3600494579682942  0.7486610622240397
  0.8893779322706090  0.8586979770280750  0.2555903258466949
  0.8887440658699366  0.8595719949917130  0.7449243007669600
  0.3598868075584437  0.1101970868836320  0.2501851672044513
  0.3604956265368391  0.1102600457689894  0.7499749665490780
  0.3593288237092234  0.6091794224147321  0.2521956685078763
  0.3591361672411720  0.6116414079205946  0.7479958513562477
  0.8592108780289027  0.1088405683479211  0.2499911490827318
  0.8603497304521824  0.1098275847018458  0.7498358456273192
  0.8595143775032218  0.6087637478834030  0.2492586817051982
  0.8607113051102246  0.6093919258093243  0.7506458083247739
  0.1409297758453145  0.3907419169703615  0.2490661031477950
  0.1394369183548988  0.3897372039600804  0.7508508580398189
  0.1401512549142845  0.8903713671974637  0.2499354503813462
  0.1392859737148623  0.8894005847729528  0.7499841041792864
  0.6411601868964213  0.3906860621042393  0.2502333173869593
  0.6403219023134963  0.8906422344865350  0.2517137759254249
  0.6397282935702999  0.8900335028189544  0.7484391469449588
  0.3586962045225778  0.3905116929243495  0.0007159912873105
  0.3591384495320000  0.8907858657069988  0.0003180995025799
  0.3559824778174240  0.8940467378455980  0.4997582134159220
  0.8592799389280706  0.3908629675309695 -0.0001030758511244
  0.8609109729923490  0.3885033774627758  0.4998766014156482
  0.8595094088582458  0.8915111141044827  0.0003661722073279
  0.8593705734212409  0.8961161492500365  0.4995163479249266
  0.1407936826092043  0.1092646060075876  0.0005718294575966
  0.1433285965504948  0.1063335409404877  0.4997169006789296
  0.1408836490409122  0.6087305344822653 -0.0000875798748564
  0.1409699344131053  0.6093053541687670  0.4999011102808685
  0.6413015208237690  0.1091310919135522  0.0002951976260131
  0.6401729796640429  0.1104363293505852  0.4996771127904338
  0.6403031406320162  0.6101607151528574  0.0009759250418271
  0.1092762736037517  0.3585892141466334  0.0002590742699090
  0.1089216160465936  0.3581405482061759  0.4998210708389541
  0.1091567543827458  0.8590685626334273  0.0004305561622356
  0.1072299622665703  0.8575123158817677  0.4997033154145314
  0.6097634390575665  0.3591421590730526  0.0008028153722675
  0.6093731986754543  0.8595913115970307 -0.0000436091864480
  0.6047699914451025  0.8541574258264444  0.4999716570873030
  0.3912519542118334  0.1408782270668981  0.0000162844406743
  0.3921203892221034  0.1441424235787830  0.5001147198829454
  0.3903315475446921  0.6408141790537253  0.0008358014650087
  0.3982681272995702  0.6458556249094992  0.4989787092011506
  0.8914979341106025  0.1408257768345000  0.0003750918013200
  0.8922010792432048  0.1419433708180487  0.4997541558910381
  0.8908875934716671  0.6406540878090838  0.0003573030774384
 -0.0015048311879723 -0.0022981743595817  0.1258053176184109
  0.0018796485173536  0.0021478026428697  0.6241709013606168
  0.0000459494436060  0.4993380664713636  0.1249387406515716
  0.0013661059739620  0.5001312613741112  0.6251285081413713
  0.5005498162003406 -0.0002400352091498  0.1251068026063415
  0.4996226437827136  0.0013232774309185  0.6249514076888549
  0.4971173808703963  0.4970481635692590  0.1263654104200648
  0.0020984312333815  0.0025653294640862  0.3752476813936387
 -0.0013279379004367 -0.0020417351668665  0.8749539779717941
  0.0014037021323397  0.5000781496312270  0.3746895236713493
  0.0000082897904493  0.4994046217648636  0.8751311138266891
  0.4995208584260192  0.0014005646526413  0.3749080683506918
  0.5005424493235392 -0.0003347544695951  0.8750247380786549
  0.4978171523020312  0.4978973230158921  0.8768286273928655
  0.2482390437949708  0.2494929133938418  0.3755545526080946
  0.2523519266250698  0.2512369781474822  0.8749468174125403
  0.2491079906345758  0.7504659528428592  0.3750854631620362
  0.2497586077286472  0.7496040973799830  0.8752078230137880
  0.7496461788796572  0.2485105691692472  0.3748359700238419
  0.7510317328405336  0.2495229257818908  0.8753368982714006
  0.7390723219867927  0.7368600218456464  0.3773236532744344
  0.7529083737570956  0.7527951173695183  0.8752418434619672
  0.2530669026846955  0.2514301316778045  0.1258099465617932
  0.2474373981631117  0.2487730011950184  0.6241723818497659
  0.2496398159676920  0.7489762011001492  0.1253879159110964
  0.2493697026485685  0.7505128978553258  0.6241644799179572
  0.7512611428528707  0.2501966960826117  0.1252523478734684
  0.7491495559296106  0.2486980111042187  0.6244242719724467
  0.7526331639052628  0.7531493342343708  0.1255698332525282
  0.6408715803395757  0.3876263908588283  0.7499781524857024
  0.6112880917397800  0.6407562468740504  0.7554907282595105
  0.5155863742636874  0.5140455091384336  0.3788935695808875
  0.6143687484455455  0.3696860975496787  0.4985884321806907
  0.3552668938038503  0.3938177829155263  0.5002349852759549
  0.7402582049914601  0.7376459780813520  0.6222592945293985
  0.8815903325466816  0.6343082855959052  0.4996692296367050
  0.5167190198217203  0.5143493828287341  0.6181235074328237
 
  0.00000000E+00  0.00000000E+00  0.00000000E+00
  0.00000000E+00  0.00000000E+00  0.00000000E+00
  0.00000000E+00  0.00000000E+00  0.00000000E+00
  0.00000000E+00  0.00000000E+00  0.00000000E+00
  0.00000000E+00  0.00000000E+00  0.00000000E+00
  0.00000000E+00  0.00000000E+00  0.00000000E+00
  0.00000000E+00  0.00000000E+00  0.00000000E+00
  0.00000000E+00  0.00000000E+00  0.00000000E+00
  0.00000000E+00  0.00000000E+00  0.00000000E+00
  0.00000000E+00  0.00000000E+00  0.00000000E+00
  0.00000000E+00  0.00000000E+00  0.00000000E+00
  0.00000000E+00  0.00000000E+00  0.00000000E+00
  0.00000000E+00  0.00000000E+00  0.00000000E+00
  0.00000000E+00  0.00000000E+00  0.00000000E+00
  0.00000000E+00  0.00000000E+00  0.00000000E+00
  0.00000000E+00  0.00000000E+00  0.00000000E+00
  0.00000000E+00  0.00000000E+00  0.00000000E+00
  0.00000000E+00  0.00000000E+00  0.00000000E+00
  0.00000000E+00  0.00000000E+00  0.00000000E+00
  0.00000000E+00  0.00000000E+00  0.00000000E+00
  0.00000000E+00  0.00000000E+00  0.00000000E+00
  0.00000000E+00  0.00000000E+00  0.00000000E+00
  0.00000000E+00  0.00000000E+00  0.00000000E+00
  0.00000000E+00  0.00000000E+00  0.00000000E+00
  0.00000000E+00  0.00000000E+00  0.00000000E+00
  0.00000000E+00  0.00000000E+00  0.00000000E+00
  0.00000000E+00  0.00000000E+00  0.00000000E+00
  0.00000000E+00  0.00000000E+00  0.00000000E+00
  0.00000000E+00  0.00000000E+00  0.00000000E+00
  0.00000000E+00  0.00000000E+00  0.00000000E+00
  0.00000000E+00  0.00000000E+00  0.00000000E+00
  0.00000000E+00  0.00000000E+00  0.00000000E+00
  0.00000000E+00  0.00000000E+00  0.00000000E+00
  0.00000000E+00  0.00000000E+00  0.00000000E+00
  0.00000000E+00  0.00000000E+00  0.00000000E+00
  0.00000000E+00  0.00000000E+00  0.00000000E+00
  0.00000000E+00  0.00000000E+00  0.00000000E+00
  0.00000000E+00  0.00000000E+00  0.00000000E+00
  0.00000000E+00  0.00000000E+00  0.00000000E+00
  0.00000000E+00  0.00000000E+00  0.00000000E+00
  0.00000000E+00  0.00000000E+00  0.00000000E+00
  0.00000000E+00  0.00000000E+00  0.00000000E+00
  0.00000000E+00  0.00000000E+00  0.00000000E+00
  0.00000000E+00  0.00000000E+00  0.00000000E+00
  0.00000000E+00  0.00000000E+00  0.00000000E+00
  0.00000000E+00  0.00000000E+00  0.00000000E+00
  0.00000000E+00  0.00000000E+00  0.00000000E+00
  0.00000000E+00  0.00000000E+00  0.00000000E+00
  0.00000000E+00  0.00000000E+00  0.00000000E+00
  0.00000000E+00  0.00000000E+00  0.00000000E+00
  0.00000000E+00  0.00000000E+00  0.00000000E+00
  0.00000000E+00  0.00000000E+00  0.00000000E+00
  0.00000000E+00  0.00000000E+00  0.00000000E+00
  0.00000000E+00  0.00000000E+00  0.00000000E+00
  0.00000000E+00  0.00000000E+00  0.00000000E+00
  0.00000000E+00  0.00000000E+00  0.00000000E+00
  0.00000000E+00  0.00000000E+00  0.00000000E+00
  0.00000000E+00  0.00000000E+00  0.00000000E+00
  0.00000000E+00  0.00000000E+00  0.00000000E+00
  0.00000000E+00  0.00000000E+00  0.00000000E+00
  0.00000000E+00  0.00000000E+00  0.00000000E+00
  0.00000000E+00  0.00000000E+00  0.00000000E+00
  0.00000000E+00  0.00000000E+00  0.00000000E+00
  0.00000000E+00  0.00000000E+00  0.00000000E+00
  0.00000000E+00  0.00000000E+00  0.00000000E+00
  0.00000000E+00  0.00000000E+00  0.00000000E+00
  0.00000000E+00  0.00000000E+00  0.00000000E+00
  0.00000000E+00  0.00000000E+00  0.00000000E+00
  0.00000000E+00  0.00000000E+00  0.00000000E+00
  0.00000000E+00  0.00000000E+00  0.00000000E+00
  0.00000000E+00  0.00000000E+00  0.00000000E+00
  0.00000000E+00  0.00000000E+00  0.00000000E+00
  0.00000000E+00  0.00000000E+00  0.00000000E+00
  0.00000000E+00  0.00000000E+00  0.00000000E+00
  0.00000000E+00  0.00000000E+00  0.00000000E+00
  0.00000000E+00  0.00000000E+00  0.00000000E+00
  0.00000000E+00  0.00000000E+00  0.00000000E+00
  0.00000000E+00  0.00000000E+00  0.00000000E+00
  0.00000000E+00  0.00000000E+00  0.00000000E+00
  0.00000000E+00  0.00000000E+00  0.00000000E+00
  0.00000000E+00  0.00000000E+00  0.00000000E+00
  0.00000000E+00  0.00000000E+00  0.00000000E+00
  0.00000000E+00  0.00000000E+00  0.00000000E+00
  0.00000000E+00  0.00000000E+00  0.00000000E+00
  0.00000000E+00  0.00000000E+00  0.00000000E+00
  0.00000000E+00  0.00000000E+00  0.00000000E+00
  0.00000000E+00  0.00000000E+00  0.00000000E+00
  0.00000000E+00  0.00000000E+00  0.00000000E+00
  0.00000000E+00  0.00000000E+00  0.00000000E+00
  0.00000000E+00  0.00000000E+00  0.00000000E+00
  0.00000000E+00  0.00000000E+00  0.00000000E+00
  0.00000000E+00  0.00000000E+00  0.00000000E+00
  0.00000000E+00  0.00000000E+00  0.00000000E+00
  0.00000000E+00  0.00000000E+00  0.00000000E+00
  0.00000000E+00  0.00000000E+00  0.00000000E+00
  0.00000000E+00  0.00000000E+00  0.00000000E+00
  0.00000000E+00  0.00000000E+00  0.00000000E+00
  0.00000000E+00  0.00000000E+00  0.00000000E+00
  0.00000000E+00  0.00000000E+00  0.00000000E+00
  0.00000000E+00  0.00000000E+00  0.00000000E+00
  0.00000000E+00  0.00000000E+00  0.00000000E+00
  0.00000000E+00  0.00000000E+00  0.00000000E+00
  0.00000000E+00  0.00000000E+00  0.00000000E+00
  0.00000000E+00  0.00000000E+00  0.00000000E+00
  0.00000000E+00  0.00000000E+00  0.00000000E+00
  0.00000000E+00  0.00000000E+00  0.00000000E+00
  0.00000000E+00  0.00000000E+00  0.00000000E+00
  0.00000000E+00  0.00000000E+00  0.00000000E+00
  0.00000000E+00  0.00000000E+00  0.00000000E+00
  0.00000000E+00  0.00000000E+00  0.00000000E+00
  0.00000000E+00  0.00000000E+00  0.00000000E+00
  0.00000000E+00  0.00000000E+00  0.00000000E+00
  0.00000000E+00  0.00000000E+00  0.00000000E+00
  0.00000000E+00  0.00000000E+00  0.00000000E+00
  0.00000000E+00  0.00000000E+00  0.00000000E+00
  0.00000000E+00  0.00000000E+00  0.00000000E+00
  0.00000000E+00  0.00000000E+00  0.00000000E+00
  0.00000000E+00  0.00000000E+00  0.00000000E+00
  0.00000000E+00  0.00000000E+00  0.00000000E+00
  0.00000000E+00  0.00000000E+00  0.00000000E+00
  0.00000000E+00  0.00000000E+00  0.00000000E+00
  0.00000000E+00  0.00000000E+00  0.00000000E+00
  0.00000000E+00  0.00000000E+00  0.00000000E+00
  0.00000000E+00  0.00000000E+00  0.00000000E+00
  0.00000000E+00  0.00000000E+00  0.00000000E+00
  0.00000000E+00  0.00000000E+00  0.00000000E+00
  0.00000000E+00  0.00000000E+00  0.00000000E+00
  0.00000000E+00  0.00000000E+00  0.00000000E+00
  0.00000000E+00  0.00000000E+00  0.00000000E+00
  0.00000000E+00  0.00000000E+00  0.00000000E+00
  0.00000000E+00  0.00000000E+00  0.00000000E+00
  0.00000000E+00  0.00000000E+00  0.00000000E+00
  0.00000000E+00  0.00000000E+00  0.00000000E+00
  0.00000000E+00  0.00000000E+00  0.00000000E+00
  0.00000000E+00  0.00000000E+00  0.00000000E+00
  0.00000000E+00  0.00000000E+00  0.00000000E+00
  0.00000000E+00  0.00000000E+00  0.00000000E+00
  0.00000000E+00  0.00000000E+00  0.00000000E+00
  0.00000000E+00  0.00000000E+00  0.00000000E+00
  0.00000000E+00  0.00000000E+00  0.00000000E+00
  0.00000000E+00  0.00000000E+00  0.00000000E+00
  0.00000000E+00  0.00000000E+00  0.00000000E+00
  0.00000000E+00  0.00000000E+00  0.00000000E+00
  0.00000000E+00  0.00000000E+00  0.00000000E+00
  0.00000000E+00  0.00000000E+00  0.00000000E+00
  0.00000000E+00  0.00000000E+00  0.00000000E+00
  0.00000000E+00  0.00000000E+00  0.00000000E+00
  0.00000000E+00  0.00000000E+00  0.00000000E+00
  0.00000000E+00  0.00000000E+00  0.00000000E+00
  0.00000000E+00  0.00000000E+00  0.00000000E+00
  0.00000000E+00  0.00000000E+00  0.00000000E+00
  0.00000000E+00  0.00000000E+00  0.00000000E+00
  0.00000000E+00  0.00000000E+00  0.00000000E+00
  0.00000000E+00  0.00000000E+00  0.00000000E+00
  0.00000000E+00  0.00000000E+00  0.00000000E+00
  0.00000000E+00  0.00000000E+00  0.00000000E+00
  0.00000000E+00  0.00000000E+00  0.00000000E+00
  0.00000000E+00  0.00000000E+00  0.00000000E+00
  0.00000000E+00  0.00000000E+00  0.00000000E+00
