SrTiFeO                                 
   1.00000000000000     
    11.1989999999999998    0.0000000000000000    0.0000000000000000
     0.0000000000000000   11.1989999999999998    0.0000000000000000
     0.0000000000000000    0.0000000000000000   15.9830000000000005
   Sr   Ti   Fe   O 
    32    30     2    95
Direct
  0.0002067629094355  0.2497135107531835  0.1249577746096201
  0.0001611654357359  0.2482531178037000  0.6252794814936283
  0.9991440237557807  0.7502443879993627  0.1251597149483652
  0.9977218354530746  0.7519088004176382  0.6244833976501361
  0.4999847677907042  0.2483491865801711  0.1241762669608060
  0.4994271058246897  0.2411595266201784  0.6255983081747093
  0.5007253630663685  0.7516215342043019  0.1243171895255199
  0.5029609134566732  0.7577388272441267  0.6245889230703185
  0.0006533350277725  0.2497533442052648  0.3761761210392085
  0.9997439124763086  0.2497736605204208  0.8737345534443133
  0.9971942813843306  0.7504255221872077  0.3769128999056097
  0.9998866569619191  0.7502322088419441  0.8736383251842881
  0.5003937319934225  0.2448677717858473  0.3743737243803577
  0.4994970145087684  0.2489499816748060  0.8744794920421579
  0.5015946552966445  0.7547056169872499  0.3747139952874847
  0.5013027676009173  0.7506947107349684  0.8740091887753311
  0.2496274959641944  0.9997875700830057  0.1249725830164825
  0.2482773566700053  0.9999224171647966  0.6252256919009427
  0.2484295364960613  0.5000491303132059  0.1241411881326786
  0.2408868878312260  0.5000888527300094  0.6256491741264437
  0.7503627498333354  0.9995506114720764  0.1251169741047968
  0.7517516467189062  0.9978962847970427  0.6245521956419255
  0.7514661125696755  0.5007532361607211  0.1243974729724368
  0.7584823817110961  0.5018591791171717  0.6251795729998709
  0.2495274199506386  0.9994893811098708  0.3761342885801286
  0.2496781083230782  0.0000808867445477  0.8737631093925923
  0.2449462292905381  0.4997214605302088  0.3743482429023594
  0.2491624928988624  0.5006009112934726  0.8744082442177477
  0.7503047354714846  0.9979334931899682  0.3767865451211334
  0.7505427327324632  0.9992288565725866  0.8736628295886227
  0.7546615364745300  0.5024392157631369  0.3751804653557619
  0.7505625980487908  0.5001847753147157  0.8741260238383614
  0.9999871474388663  0.0000613234145494  0.9994848834236463
  0.9984459215228524  0.9987763008186570  0.4994360933792718
  0.9999260705711428  0.4999923279581739  0.9997439030701730
  0.9986360395194638  0.5014811681974045  0.4998712855277134
  0.4999056549231985  0.9998290505969872  0.9997284816582084
  0.5013097496983709  0.9984996494308239  0.4998459232245870
  0.5000094372550353  0.4999963557059978  0.0001492166515514
  0.2503477984800657  0.2503161073905644  0.9996885716313976
  0.2499158394009854  0.2495231065297642  0.5009933085193372
  0.2503212265316486  0.7496862300161622  0.9996626542815373
  0.2499635611144774  0.7498194216773529  0.5008693451305388
  0.7496256037189174  0.2503224657315394  0.9996910288555326
  0.7500124527227117  0.2501214082145294  0.5008882830469992
  0.7498035073649495  0.7497447645985547  0.9996965634169716
  0.2508134675682263  0.2504172575942659  0.2500104861846635
  0.2517401032862941  0.2517021385540583  0.7491548796831765
  0.2503538536638816  0.7491853690508278  0.2500731228834632
  0.2518511496129299  0.7481416913908646  0.7486844536298927
  0.7496610846227160  0.2507908859072523  0.2501007830801396
  0.7480657027435846  0.2515986106733574  0.7488253385842819
  0.7493993224592707  0.7496774094412828  0.2515404670182663
  0.7484156966133738  0.7484339010968919  0.7476262469401631
  0.0000315266897915  0.0001486052955986  0.2507284443709397
  0.0001632371144119  0.0000098107101244  0.7506850895380546
  0.9999908527325277  0.4999498768980254  0.2497722748108199
  0.9998638161701968  0.4999553949632833  0.7505481984194634
  0.4999555357315068 -0.0000002432568403  0.2497470925953809
  0.4999843093747523  0.9997741000755017  0.7504823967129447
  0.5001350490174289  0.5000096508349108  0.2452262651418465
  0.5003585612606657  0.5002927756585759  0.4903855285921853
  0.4999364140192044  0.4998783873296634  0.7590617862595214
  0.7493941683217323  0.7497560467735331  0.5012018685483676
  0.1101703523028986  0.1414837888297059  0.2514653996980053
  0.1112439305549881  0.1394273912002255  0.7524266414025943
  0.1091503564881756  0.6408270402475451  0.2512962002882763
  0.1114087667935414  0.6384496687918413  0.7497285912707772
  0.6086930329004938  0.1414909491225723  0.2493003200016023
  0.6106242684629788  0.1387050396765167  0.7508508513669560
  0.6070268775363520  0.6410167681077273  0.2484194188870277
  0.3930760187989011  0.3585362573601912  0.2492607450165922
  0.3897860772274164  0.3636660733126981  0.7397679669371734
  0.3912363114156366  0.8585906733040920  0.2496076581779370
  0.3892865251624431  0.8611540653240678  0.7501216850769126
  0.8911835491231854  0.3588888005796422  0.2507356925464075
  0.8885120278567491  0.3614004486838379  0.7498913429405997
  0.8903359035906765  0.8593646800894199  0.2512296246179312
  0.8893688605009756  0.8613897779524246  0.7524679150856994
  0.3589189322374425  0.1091199114386410  0.2508411306773125
  0.3613894799555569  0.1113803533083479  0.7500060447042983
  0.3585266817853712  0.6069812787561675  0.2490849918294494
  0.3635035323913186  0.6099254491281654  0.7395580595545970
  0.8587865184113356  0.1099847030284019  0.2516636043955570
  0.8608514191541166  0.1112590918469820  0.7518078516511538
  0.8591993970940427  0.6085369121579952  0.2490788391735459
  0.8618228288961346  0.6106499583980473  0.7511406545739718
  0.1415805495897262  0.3912134712184578  0.2493144188283154
  0.1386557310949251  0.3890751983089140  0.7509991464651570
  0.1413203057222235  0.8901076619569435  0.2513750392600055
  0.1394921226578621  0.8890382629411518  0.7521336771283205
  0.6415397747005690  0.3929684731149813  0.2493684579648810
  0.6404566387061257  0.8912496482628751  0.2504465917275007
  0.6381351863563914  0.8889338153931112  0.7505197306856319
  0.3588005820164084  0.3916371153791248  0.0011055544074696
  0.3587980445723190  0.8908027232142713  0.9998002668344613
  0.3607771533184311  0.8886925784274941  0.5000530361252723
  0.8588936053321863  0.3911756706851393  0.9998934198227235
  0.8603462357947043  0.3889161148624504  0.4996175074985957
  0.8591600425311117  0.8906396380463889  0.9992639745303865
  0.8626215127880644  0.8907598793219437  0.4980919932280574
  0.1412362153996163  0.1097409272811121  0.9991656629557715
  0.1402421424707063  0.1110795839117802  0.4977835051829901
  0.1410795266329264  0.6089002967524687  0.9997652145447377
  0.1394401642026175  0.6106363650618237  0.4993424099228046
  0.6408665041243391  0.1092320204957474  0.9996135145927754
  0.6389878720596860  0.1117151570117849  0.4997887943205965
  0.6408486539519388  0.6082834798130881  0.0010941490617934
  0.1092493765452009  0.3589912765239074  0.9996778099388735
  0.1119229626059708  0.3612951485038095  0.5000033841847477
  0.1096193893901643  0.8589228007314506  0.9991453817192067
  0.1114145106867887  0.8604785425417715  0.4976785537049137
  0.6083376155872362  0.3587769114972828  0.0011022568968668
  0.6086744142183621  0.8592097470508533  0.9998499341425262
  0.6095329802824951  0.8623622068706384  0.4992764224009886
  0.3910924869927656  0.1410957191574166  0.9998893939814844
  0.3894458940879219  0.1397650889613074  0.4995362687150380
  0.3915715896251057  0.6411175858409903  0.0011752941829562
  0.3903799738447740  0.6350916015491727  0.5111087200713654
  0.8903199473946176  0.1412692499120737  0.9990839937257051
  0.8897497593271005  0.1405030583440880  0.4979533119814801
  0.8909430466236298  0.6407437546658126  0.9997403299254545
  0.0003011162676623  0.0006304564439972  0.1252649149170381
  0.0011309665818026  0.0007011834447604  0.6249532129296441
  0.0005625494018578  0.4998810273583630  0.1248519610425584
  0.0004525329370915  0.4992059857587499  0.6252674289232695
  0.4994421697599952  0.0001604915672083  0.1248338209365304
  0.4998037633777090  0.0006063145311905  0.6251933184387791
  0.4998044378260212  0.4994431916393581  0.1245959508132596
  0.0008980353384441  0.0007880190249848  0.3742865629963276
  0.0002319721931679  0.0004643242540179  0.8760496661776216
  0.0003044131189594  0.4990627683049420  0.3745416154802121
  0.0003107884060848  0.4997564998849306  0.8753054714149821
  0.4994410080237408  0.0007158599382390  0.3744728860372434
  0.4992605814121255  0.0000194991933644  0.8752715884865240
  0.4998242623169931  0.4996939181542832  0.8769671522133671
  0.2548345505373610  0.2568051885834650  0.3758565149399009
  0.2553544292536863  0.2539470396441374  0.8744145903821354
  0.2566171515695882  0.7455683309692185  0.3759707349170397
  0.2540474788394168  0.7449817277011425  0.8741915713718054
  0.7438618503816421  0.2545859829922393  0.3758998323410454
  0.7460035552850479  0.2551855001474678  0.8742004283108271
  0.7455397224062802  0.7437764916860593  0.3743452998050774
  0.7453933344128759  0.7465861470320229  0.8747446837280365
  0.2501387068691940  0.2493031935031018  0.1250816499197804
  0.2443080923099792  0.2446598795272867  0.6251240352809563
  0.2489967450176778  0.7499097983722104  0.1251497407624399
  0.2442464341315543  0.7553465108128379  0.6246400291928889
  0.7508391960768854  0.2499504949026048  0.1251124197524482
  0.7548564783781805  0.2441891135435801  0.6246463718695840
  0.7502224314056504  0.7508917020110473  0.1248210834526604
  0.6361875543993170  0.3898310134195470  0.7392070302800015
  0.6098707158162698  0.6360597153432730  0.7407558467846329
  0.5001504661130614  0.5006575157601084  0.3748262788463369
  0.6077525886663055  0.3634447898096119  0.5105738593699241
  0.3649538744653194  0.3918470413143923  0.5124035108798332
  0.7555351533193000  0.7554923387524164  0.6264564643939777
  0.8891495592799249  0.6366778816173435  0.4999782518738347
  0.6321449990355211  0.6066538886104950  0.5133876470080900
 
  0.00000000E+00  0.00000000E+00  0.00000000E+00
  0.00000000E+00  0.00000000E+00  0.00000000E+00
  0.00000000E+00  0.00000000E+00  0.00000000E+00
  0.00000000E+00  0.00000000E+00  0.00000000E+00
  0.00000000E+00  0.00000000E+00  0.00000000E+00
  0.00000000E+00  0.00000000E+00  0.00000000E+00
  0.00000000E+00  0.00000000E+00  0.00000000E+00
  0.00000000E+00  0.00000000E+00  0.00000000E+00
  0.00000000E+00  0.00000000E+00  0.00000000E+00
  0.00000000E+00  0.00000000E+00  0.00000000E+00
  0.00000000E+00  0.00000000E+00  0.00000000E+00
  0.00000000E+00  0.00000000E+00  0.00000000E+00
  0.00000000E+00  0.00000000E+00  0.00000000E+00
  0.00000000E+00  0.00000000E+00  0.00000000E+00
  0.00000000E+00  0.00000000E+00  0.00000000E+00
  0.00000000E+00  0.00000000E+00  0.00000000E+00
  0.00000000E+00  0.00000000E+00  0.00000000E+00
  0.00000000E+00  0.00000000E+00  0.00000000E+00
  0.00000000E+00  0.00000000E+00  0.00000000E+00
  0.00000000E+00  0.00000000E+00  0.00000000E+00
  0.00000000E+00  0.00000000E+00  0.00000000E+00
  0.00000000E+00  0.00000000E+00  0.00000000E+00
  0.00000000E+00  0.00000000E+00  0.00000000E+00
  0.00000000E+00  0.00000000E+00  0.00000000E+00
  0.00000000E+00  0.00000000E+00  0.00000000E+00
  0.00000000E+00  0.00000000E+00  0.00000000E+00
  0.00000000E+00  0.00000000E+00  0.00000000E+00
  0.00000000E+00  0.00000000E+00  0.00000000E+00
  0.00000000E+00  0.00000000E+00  0.00000000E+00
  0.00000000E+00  0.00000000E+00  0.00000000E+00
  0.00000000E+00  0.00000000E+00  0.00000000E+00
  0.00000000E+00  0.00000000E+00  0.00000000E+00
  0.00000000E+00  0.00000000E+00  0.00000000E+00
  0.00000000E+00  0.00000000E+00  0.00000000E+00
  0.00000000E+00  0.00000000E+00  0.00000000E+00
  0.00000000E+00  0.00000000E+00  0.00000000E+00
  0.00000000E+00  0.00000000E+00  0.00000000E+00
  0.00000000E+00  0.00000000E+00  0.00000000E+00
  0.00000000E+00  0.00000000E+00  0.00000000E+00
  0.00000000E+00  0.00000000E+00  0.00000000E+00
  0.00000000E+00  0.00000000E+00  0.00000000E+00
  0.00000000E+00  0.00000000E+00  0.00000000E+00
  0.00000000E+00  0.00000000E+00  0.00000000E+00
  0.00000000E+00  0.00000000E+00  0.00000000E+00
  0.00000000E+00  0.00000000E+00  0.00000000E+00
  0.00000000E+00  0.00000000E+00  0.00000000E+00
  0.00000000E+00  0.00000000E+00  0.00000000E+00
  0.00000000E+00  0.00000000E+00  0.00000000E+00
  0.00000000E+00  0.00000000E+00  0.00000000E+00
  0.00000000E+00  0.00000000E+00  0.00000000E+00
  0.00000000E+00  0.00000000E+00  0.00000000E+00
  0.00000000E+00  0.00000000E+00  0.00000000E+00
  0.00000000E+00  0.00000000E+00  0.00000000E+00
  0.00000000E+00  0.00000000E+00  0.00000000E+00
  0.00000000E+00  0.00000000E+00  0.00000000E+00
  0.00000000E+00  0.00000000E+00  0.00000000E+00
  0.00000000E+00  0.00000000E+00  0.00000000E+00
  0.00000000E+00  0.00000000E+00  0.00000000E+00
  0.00000000E+00  0.00000000E+00  0.00000000E+00
  0.00000000E+00  0.00000000E+00  0.00000000E+00
  0.00000000E+00  0.00000000E+00  0.00000000E+00
  0.00000000E+00  0.00000000E+00  0.00000000E+00
  0.00000000E+00  0.00000000E+00  0.00000000E+00
  0.00000000E+00  0.00000000E+00  0.00000000E+00
  0.00000000E+00  0.00000000E+00  0.00000000E+00
  0.00000000E+00  0.00000000E+00  0.00000000E+00
  0.00000000E+00  0.00000000E+00  0.00000000E+00
  0.00000000E+00  0.00000000E+00  0.00000000E+00
  0.00000000E+00  0.00000000E+00  0.00000000E+00
  0.00000000E+00  0.00000000E+00  0.00000000E+00
  0.00000000E+00  0.00000000E+00  0.00000000E+00
  0.00000000E+00  0.00000000E+00  0.00000000E+00
  0.00000000E+00  0.00000000E+00  0.00000000E+00
  0.00000000E+00  0.00000000E+00  0.00000000E+00
  0.00000000E+00  0.00000000E+00  0.00000000E+00
  0.00000000E+00  0.00000000E+00  0.00000000E+00
  0.00000000E+00  0.00000000E+00  0.00000000E+00
  0.00000000E+00  0.00000000E+00  0.00000000E+00
  0.00000000E+00  0.00000000E+00  0.00000000E+00
  0.00000000E+00  0.00000000E+00  0.00000000E+00
  0.00000000E+00  0.00000000E+00  0.00000000E+00
  0.00000000E+00  0.00000000E+00  0.00000000E+00
  0.00000000E+00  0.00000000E+00  0.00000000E+00
  0.00000000E+00  0.00000000E+00  0.00000000E+00
  0.00000000E+00  0.00000000E+00  0.00000000E+00
  0.00000000E+00  0.00000000E+00  0.00000000E+00
  0.00000000E+00  0.00000000E+00  0.00000000E+00
  0.00000000E+00  0.00000000E+00  0.00000000E+00
  0.00000000E+00  0.00000000E+00  0.00000000E+00
  0.00000000E+00  0.00000000E+00  0.00000000E+00
  0.00000000E+00  0.00000000E+00  0.00000000E+00
  0.00000000E+00  0.00000000E+00  0.00000000E+00
  0.00000000E+00  0.00000000E+00  0.00000000E+00
  0.00000000E+00  0.00000000E+00  0.00000000E+00
  0.00000000E+00  0.00000000E+00  0.00000000E+00
  0.00000000E+00  0.00000000E+00  0.00000000E+00
  0.00000000E+00  0.00000000E+00  0.00000000E+00
  0.00000000E+00  0.00000000E+00  0.00000000E+00
  0.00000000E+00  0.00000000E+00  0.00000000E+00
  0.00000000E+00  0.00000000E+00  0.00000000E+00
  0.00000000E+00  0.00000000E+00  0.00000000E+00
  0.00000000E+00  0.00000000E+00  0.00000000E+00
  0.00000000E+00  0.00000000E+00  0.00000000E+00
  0.00000000E+00  0.00000000E+00  0.00000000E+00
  0.00000000E+00  0.00000000E+00  0.00000000E+00
  0.00000000E+00  0.00000000E+00  0.00000000E+00
  0.00000000E+00  0.00000000E+00  0.00000000E+00
  0.00000000E+00  0.00000000E+00  0.00000000E+00
  0.00000000E+00  0.00000000E+00  0.00000000E+00
  0.00000000E+00  0.00000000E+00  0.00000000E+00
  0.00000000E+00  0.00000000E+00  0.00000000E+00
  0.00000000E+00  0.00000000E+00  0.00000000E+00
  0.00000000E+00  0.00000000E+00  0.00000000E+00
  0.00000000E+00  0.00000000E+00  0.00000000E+00
  0.00000000E+00  0.00000000E+00  0.00000000E+00
  0.00000000E+00  0.00000000E+00  0.00000000E+00
  0.00000000E+00  0.00000000E+00  0.00000000E+00
  0.00000000E+00  0.00000000E+00  0.00000000E+00
  0.00000000E+00  0.00000000E+00  0.00000000E+00
  0.00000000E+00  0.00000000E+00  0.00000000E+00
  0.00000000E+00  0.00000000E+00  0.00000000E+00
  0.00000000E+00  0.00000000E+00  0.00000000E+00
  0.00000000E+00  0.00000000E+00  0.00000000E+00
  0.00000000E+00  0.00000000E+00  0.00000000E+00
  0.00000000E+00  0.00000000E+00  0.00000000E+00
  0.00000000E+00  0.00000000E+00  0.00000000E+00
  0.00000000E+00  0.00000000E+00  0.00000000E+00
  0.00000000E+00  0.00000000E+00  0.00000000E+00
  0.00000000E+00  0.00000000E+00  0.00000000E+00
  0.00000000E+00  0.00000000E+00  0.00000000E+00
  0.00000000E+00  0.00000000E+00  0.00000000E+00
  0.00000000E+00  0.00000000E+00  0.00000000E+00
  0.00000000E+00  0.00000000E+00  0.00000000E+00
  0.00000000E+00  0.00000000E+00  0.00000000E+00
  0.00000000E+00  0.00000000E+00  0.00000000E+00
  0.00000000E+00  0.00000000E+00  0.00000000E+00
  0.00000000E+00  0.00000000E+00  0.00000000E+00
  0.00000000E+00  0.00000000E+00  0.00000000E+00
  0.00000000E+00  0.00000000E+00  0.00000000E+00
  0.00000000E+00  0.00000000E+00  0.00000000E+00
  0.00000000E+00  0.00000000E+00  0.00000000E+00
  0.00000000E+00  0.00000000E+00  0.00000000E+00
  0.00000000E+00  0.00000000E+00  0.00000000E+00
  0.00000000E+00  0.00000000E+00  0.00000000E+00
  0.00000000E+00  0.00000000E+00  0.00000000E+00
  0.00000000E+00  0.00000000E+00  0.00000000E+00
  0.00000000E+00  0.00000000E+00  0.00000000E+00
  0.00000000E+00  0.00000000E+00  0.00000000E+00
  0.00000000E+00  0.00000000E+00  0.00000000E+00
  0.00000000E+00  0.00000000E+00  0.00000000E+00
  0.00000000E+00  0.00000000E+00  0.00000000E+00
  0.00000000E+00  0.00000000E+00  0.00000000E+00
  0.00000000E+00  0.00000000E+00  0.00000000E+00
  0.00000000E+00  0.00000000E+00  0.00000000E+00
  0.00000000E+00  0.00000000E+00  0.00000000E+00
  0.00000000E+00  0.00000000E+00  0.00000000E+00
  0.00000000E+00  0.00000000E+00  0.00000000E+00
  0.00000000E+00  0.00000000E+00  0.00000000E+00
  0.00000000E+00  0.00000000E+00  0.00000000E+00
