SrTiFeO                                 
   1.00000000000000     
    11.1989999999999998    0.0000000000000000    0.0000000000000000
     0.0000000000000000   11.1989999999999998    0.0000000000000000
     0.0000000000000000    0.0000000000000000   15.9830000000000005
   Sr   Ti   Fe   O 
    32    29     3    94
Direct
  0.9989818849320117  0.2500359498013919  0.1247591946172654
  0.0015243780608467  0.2493194294248502  0.6246918256193906
  0.9982835914267874  0.7508823953619844  0.1259793282944796
  0.0015208285653866  0.7492215434803337  0.6247814919585262
  0.4996203323447934  0.2458897206274790  0.1225457880323007
  0.5012946035289554  0.2503849881245196  0.6261326002556968
  0.5005996616555076  0.7537117401770610  0.1230014653895925
  0.5005282167546923  0.7484215090022125  0.6287812879181732
  0.0002476589673863  0.2481192073014542  0.3759058025572738
  0.0000771063461046  0.2492805507040894  0.8741923606242340
  0.0008470752704396  0.7497701649402334  0.3775230698506035
  0.9991224805813491  0.7506433732811829  0.8735958608131604
  0.5012349905744875  0.2422199963919261  0.3772667300109400
  0.5001800665367619  0.2526355193401526  0.8717436863113602
  0.4982242577436178  0.7632322986038002  0.3727101993345186
  0.4993989297961233  0.7500057347454688  0.8744349891711324
  0.2491866756341876  0.9999865984881302  0.1250202604891526
  0.2505808479421874  0.9999133015445367  0.6249775380619489
  0.2455352055271564  0.5000599851026987  0.1224894598908587
  0.2505659459344846  0.4990234082872309  0.6268117483545028
  0.7491703879840191  0.9984699497454865  0.1251467835906179
  0.7507906442467265  0.0031923272394036  0.6253788029176863
  0.7535585108551851  0.5006376520518369  0.1227522649027892
  0.7525718330712402  0.4975517508259433  0.6299356654413952
  0.2483553257281338  0.0000804157765307  0.3758369309362898
  0.2495911185273723  0.0001842489724338  0.8737654896703327
  0.2397606209114701  0.4991380140977275  0.3747337566165231
  0.2518731190177098  0.5002078320614539  0.8728103650126795
  0.7518239705650926  0.0023467968651264  0.3753646154761355
  0.7508787351637175  0.9992098158595661  0.8743178077725026
  0.7632099855789695  0.4971054015453745  0.3737471784267993
  0.7485569116674584  0.5020709531867934  0.8732404091131385
  0.9994666170372004  0.9993617908995555  0.0006285331355996
  0.0027449167036540  0.0015775314297848  0.5008434823985333
  0.9999668159893912  0.4999158302315569  0.9990503193864171
  0.9993660293582719  0.5003658727153525  0.5012167089700102
  0.5000033136075848  0.0001838944919740  0.9990963022358823
  0.5006186236027180  0.9982290728710395  0.5012058401755646
  0.4994103305344448  0.4995743958288405  0.9935569806641782
  0.2505393563077128  0.2506652322247572  0.9996865141370570
  0.2505452673301276  0.2505739972235977  0.4988341697270484
  0.2500152946738359  0.7496455783968331  0.9996841717274065
  0.2542104717936224  0.7483223006219781  0.4991027950878613
  0.7496743599413860  0.2502214392625076  0.9995453200663931
  0.7494593568620553  0.2530873972570985  0.4989883864313892
  0.7500262246662449  0.7500779824340077  0.9995767483016993
  0.2493831135018807  0.2493797671071010  0.2507527409441329
  0.2525556917026924  0.2516157298889733  0.7492265197761635
  0.2493401596921165  0.7500844675569407  0.2504218148854598
  0.2520714899609691  0.7481739404833245  0.7497504654265759
  0.7495037627480474  0.2496418490911152  0.2503458295303930
  0.7491243382655347  0.2518292499683200  0.7502661747931252
  0.7487217560319733  0.7484759246626338  0.2535643130456040
  0.7480449305022899  0.7484931623495364  0.7482312586434486
  0.9997953972676339  0.0001138831059649  0.2497723976367585
  0.0003725291203898  0.9996957896384244  0.7490103967308721
  0.0002541143614417  0.4999888637752117  0.2491369745466347
  0.0010850311496277  0.5001452451285368  0.7501452429218536
  0.4996508998324523  0.0009454708184610  0.2494544102004331
  0.5007780147801897  0.0002318078616406  0.7499478341319858
  0.4988134005283967  0.4992041397829650  0.2401082391156509
  0.5024934644177845  0.5018277431834569  0.7479818682860446
  0.4899946673506271  0.4932602237415812  0.5083169704221474
  0.7585570632279451  0.7627961428032539  0.5009756436189421
  0.1091109892263883  0.1394183017470559  0.2446050464868689
  0.1106014870870603  0.1401253948334439  0.7505341392431102
  0.1100714700186301  0.6392192262284677  0.2498366870852076
  0.1098714561063216  0.6407235129956946  0.7498854686543016
  0.6095920758687470  0.1400119372545268  0.2490420023262962
  0.6098990406317550  0.1401167882464716  0.7498416798953690
  0.6053237154819558  0.6345768524422220  0.2586693390145581
  0.3910972464941055  0.3638151747225197  0.2631349294932030
  0.3897239723994476  0.3595823658660983  0.7459872383764327
  0.3888410423405940  0.8607182892806696  0.2485129040921017
  0.3904439606008610  0.8609832057789002  0.7501905304944783
  0.8880185137014163  0.3614004576189950  0.2510877838879222
  0.8911168764214693  0.3598414031227282  0.7482738173813779
  0.8872583625090973  0.8583132824699671  0.2553017756970420
  0.8899736250505242  0.8598565496765490  0.7457755440258061
  0.3604187632738351  0.1106329150421491  0.2489537228256823
  0.3603110043596731  0.1100951027757910  0.7499577011216239
  0.3630419470317729  0.6074711465484098  0.2605651617494811
  0.3585429775993569  0.6118052894720554  0.7503813333540472
  0.8589549834584226  0.1094927632719346  0.2467165074467853
  0.8601501783250874  0.1103660763047666  0.7484816223045027
  0.8595446219605728  0.6093397488239060  0.2488810793507884
  0.8615485724359222  0.6097890073546928  0.7508202978991261
  0.1393041135798382  0.3895645019566877  0.2487541442758862
  0.1407427470208218  0.3909573476684897  0.7503780860261665
  0.1388676367190324  0.8889883124533847  0.2474134949939082
  0.1402757118694615  0.8898630285953968  0.7487512266025982
  0.6351144364902236  0.3917460263861683  0.2611803253035293
  0.6382595672269927  0.8883657408855369  0.2524168171609845
  0.6410258992866387  0.8915912929473357  0.7488988435288294
  0.3584855148685194  0.3916495320582508  0.0004280846016500
  0.3593828293365060  0.8906399729099067  0.0011324089476245
  0.3587901356275588  0.8913492171843684  0.4992896552921882
  0.8591641229710397  0.3907755267811033  0.9996905402481543
  0.8637449315174537  0.3871872656140571  0.5003524868202172
  0.8589721495173365  0.8902107543261303  0.0032979147658623
  0.8614950134341981  0.8943049963900421  0.4995854841369270
  0.1402984769442469  0.1098716511644391  0.0019378971820968
  0.1398889522859234  0.1087786616552783  0.5015056314522106
  0.1407490759991474  0.6088577254552916  0.9994514702190554
  0.1392168135438561  0.6107389229798541  0.4996868588866156
  0.6407945542683741  0.1093889134614189  0.0012987202702838
  0.6375678810548044  0.1134443774420744  0.4990260410592995
  0.6403359137647158  0.6088799111166248  0.9995698710062028
  0.1092770784850732  0.3590486283256181  0.0010362753616736
  0.1090886453926047  0.3598393363064644  0.4991193239194824
  0.1098512398520437  0.8588921013199471  0.0020261940457745
  0.1096238814529451  0.8594463234261606  0.5008476569158148
  0.6084355382553720  0.3588786638624022  0.9994373089126730
  0.6091595273816710  0.8593259585243904  0.0001061469069342
  0.6068436201729123  0.8561929679446315  0.5007103632714568
  0.3909277307185451  0.1406685414542602  0.9995915521113576
  0.3895357418447183  0.1389942484057645  0.5004757196480739
  0.3913861994451610  0.6408899946657608  0.0002401023355834
  0.3966170936203358  0.6422192833253894  0.4886684777896965
  0.8901917308718825  0.1405213406030854  0.0025515761544660
  0.8893619721120338  0.1404751020752004  0.5015699035503843
  0.8904895918176530  0.6402567410112898  0.0018690751549641
  0.9973627994097964  0.9957682437258565  0.1254616360564838
  0.0010135541893332  0.0013750076310508  0.6250006608074884
  0.9998329869061605  0.4990955700902140  0.1247720110431864
  0.0027147901487778  0.5006802423858475  0.6253103294629446
  0.5010096062449634  0.9996541408128741  0.1248918725166999
  0.5000854023928319  0.0016521082493324  0.6251313348794394
  0.4983605756870014  0.4975800246838543  0.1251671522132307
  0.0021439769877433  0.0034263102199940  0.3740999263027960
  0.9983899452237381  0.9981271539183586  0.8757768260166446
  0.0000651812626688  0.5008158378660755  0.3744871824988539
  0.0001082590303634  0.4992815307351740  0.8751871952457880
  0.4991539313952417  0.0008435665626141  0.3746511037414721
  0.5006668268908293  0.9998262046369777  0.8751456812230652
  0.4967643711128632  0.4977209538403263  0.8757959149566018
  0.2398535465422961  0.2395130548154698  0.3729331025243258
  0.2509142533879565  0.2509426973475108  0.8753517395027252
  0.2442635436115912  0.7552845200115182  0.3740219192433105
  0.2495072603025589  0.7516421135072319  0.8756641182361542
  0.7560139903340607  0.2427880650039193  0.3738145297238464
  0.7526891181131614  0.2471547245031588  0.8758608340834152
  0.7407906503617229  0.7379568012147962  0.3785864451261758
  0.7559310110758394  0.7546215368352831  0.8766430017047614
  0.2567971172160878  0.2544497102147178  0.1259327441561187
  0.2503594919952011  0.2528189887485354  0.6237016192914415
  0.2534783817107604  0.7437776865136374  0.1261223867007042
  0.2539824662210166  0.7467638123368371  0.6234198347214523
  0.7460159362780436  0.2567920546728473  0.1262371372516221
  0.7429882682981749  0.2540839771056332  0.6235004007040610
  0.7444897405568198  0.7471846175534901  0.1278484226633329
  0.6429743078402875  0.3880293677374099  0.7542534185125030
  0.6132248373907725  0.6433675083947430  0.7596338321165922
  0.6187676197930733  0.3757787675597003  0.4845386257152092
  0.3556709596341295  0.3848814279896411  0.4849022617116134
  0.7401759338239090  0.7381298798512469  0.6232986079006220
  0.8802813949277137  0.6327911965544040  0.5002314715016489
  0.5211523082792860  0.5152446038147885  0.6270926043457069
 
  0.00000000E+00  0.00000000E+00  0.00000000E+00
  0.00000000E+00  0.00000000E+00  0.00000000E+00
  0.00000000E+00  0.00000000E+00  0.00000000E+00
  0.00000000E+00  0.00000000E+00  0.00000000E+00
  0.00000000E+00  0.00000000E+00  0.00000000E+00
  0.00000000E+00  0.00000000E+00  0.00000000E+00
  0.00000000E+00  0.00000000E+00  0.00000000E+00
  0.00000000E+00  0.00000000E+00  0.00000000E+00
  0.00000000E+00  0.00000000E+00  0.00000000E+00
  0.00000000E+00  0.00000000E+00  0.00000000E+00
  0.00000000E+00  0.00000000E+00  0.00000000E+00
  0.00000000E+00  0.00000000E+00  0.00000000E+00
  0.00000000E+00  0.00000000E+00  0.00000000E+00
  0.00000000E+00  0.00000000E+00  0.00000000E+00
  0.00000000E+00  0.00000000E+00  0.00000000E+00
  0.00000000E+00  0.00000000E+00  0.00000000E+00
  0.00000000E+00  0.00000000E+00  0.00000000E+00
  0.00000000E+00  0.00000000E+00  0.00000000E+00
  0.00000000E+00  0.00000000E+00  0.00000000E+00
  0.00000000E+00  0.00000000E+00  0.00000000E+00
  0.00000000E+00  0.00000000E+00  0.00000000E+00
  0.00000000E+00  0.00000000E+00  0.00000000E+00
  0.00000000E+00  0.00000000E+00  0.00000000E+00
  0.00000000E+00  0.00000000E+00  0.00000000E+00
  0.00000000E+00  0.00000000E+00  0.00000000E+00
  0.00000000E+00  0.00000000E+00  0.00000000E+00
  0.00000000E+00  0.00000000E+00  0.00000000E+00
  0.00000000E+00  0.00000000E+00  0.00000000E+00
  0.00000000E+00  0.00000000E+00  0.00000000E+00
  0.00000000E+00  0.00000000E+00  0.00000000E+00
  0.00000000E+00  0.00000000E+00  0.00000000E+00
  0.00000000E+00  0.00000000E+00  0.00000000E+00
  0.00000000E+00  0.00000000E+00  0.00000000E+00
  0.00000000E+00  0.00000000E+00  0.00000000E+00
  0.00000000E+00  0.00000000E+00  0.00000000E+00
  0.00000000E+00  0.00000000E+00  0.00000000E+00
  0.00000000E+00  0.00000000E+00  0.00000000E+00
  0.00000000E+00  0.00000000E+00  0.00000000E+00
  0.00000000E+00  0.00000000E+00  0.00000000E+00
  0.00000000E+00  0.00000000E+00  0.00000000E+00
  0.00000000E+00  0.00000000E+00  0.00000000E+00
  0.00000000E+00  0.00000000E+00  0.00000000E+00
  0.00000000E+00  0.00000000E+00  0.00000000E+00
  0.00000000E+00  0.00000000E+00  0.00000000E+00
  0.00000000E+00  0.00000000E+00  0.00000000E+00
  0.00000000E+00  0.00000000E+00  0.00000000E+00
  0.00000000E+00  0.00000000E+00  0.00000000E+00
  0.00000000E+00  0.00000000E+00  0.00000000E+00
  0.00000000E+00  0.00000000E+00  0.00000000E+00
  0.00000000E+00  0.00000000E+00  0.00000000E+00
  0.00000000E+00  0.00000000E+00  0.00000000E+00
  0.00000000E+00  0.00000000E+00  0.00000000E+00
  0.00000000E+00  0.00000000E+00  0.00000000E+00
  0.00000000E+00  0.00000000E+00  0.00000000E+00
  0.00000000E+00  0.00000000E+00  0.00000000E+00
  0.00000000E+00  0.00000000E+00  0.00000000E+00
  0.00000000E+00  0.00000000E+00  0.00000000E+00
  0.00000000E+00  0.00000000E+00  0.00000000E+00
  0.00000000E+00  0.00000000E+00  0.00000000E+00
  0.00000000E+00  0.00000000E+00  0.00000000E+00
  0.00000000E+00  0.00000000E+00  0.00000000E+00
  0.00000000E+00  0.00000000E+00  0.00000000E+00
  0.00000000E+00  0.00000000E+00  0.00000000E+00
  0.00000000E+00  0.00000000E+00  0.00000000E+00
  0.00000000E+00  0.00000000E+00  0.00000000E+00
  0.00000000E+00  0.00000000E+00  0.00000000E+00
  0.00000000E+00  0.00000000E+00  0.00000000E+00
  0.00000000E+00  0.00000000E+00  0.00000000E+00
  0.00000000E+00  0.00000000E+00  0.00000000E+00
  0.00000000E+00  0.00000000E+00  0.00000000E+00
  0.00000000E+00  0.00000000E+00  0.00000000E+00
  0.00000000E+00  0.00000000E+00  0.00000000E+00
  0.00000000E+00  0.00000000E+00  0.00000000E+00
  0.00000000E+00  0.00000000E+00  0.00000000E+00
  0.00000000E+00  0.00000000E+00  0.00000000E+00
  0.00000000E+00  0.00000000E+00  0.00000000E+00
  0.00000000E+00  0.00000000E+00  0.00000000E+00
  0.00000000E+00  0.00000000E+00  0.00000000E+00
  0.00000000E+00  0.00000000E+00  0.00000000E+00
  0.00000000E+00  0.00000000E+00  0.00000000E+00
  0.00000000E+00  0.00000000E+00  0.00000000E+00
  0.00000000E+00  0.00000000E+00  0.00000000E+00
  0.00000000E+00  0.00000000E+00  0.00000000E+00
  0.00000000E+00  0.00000000E+00  0.00000000E+00
  0.00000000E+00  0.00000000E+00  0.00000000E+00
  0.00000000E+00  0.00000000E+00  0.00000000E+00
  0.00000000E+00  0.00000000E+00  0.00000000E+00
  0.00000000E+00  0.00000000E+00  0.00000000E+00
  0.00000000E+00  0.00000000E+00  0.00000000E+00
  0.00000000E+00  0.00000000E+00  0.00000000E+00
  0.00000000E+00  0.00000000E+00  0.00000000E+00
  0.00000000E+00  0.00000000E+00  0.00000000E+00
  0.00000000E+00  0.00000000E+00  0.00000000E+00
  0.00000000E+00  0.00000000E+00  0.00000000E+00
  0.00000000E+00  0.00000000E+00  0.00000000E+00
  0.00000000E+00  0.00000000E+00  0.00000000E+00
  0.00000000E+00  0.00000000E+00  0.00000000E+00
  0.00000000E+00  0.00000000E+00  0.00000000E+00
  0.00000000E+00  0.00000000E+00  0.00000000E+00
  0.00000000E+00  0.00000000E+00  0.00000000E+00
  0.00000000E+00  0.00000000E+00  0.00000000E+00
  0.00000000E+00  0.00000000E+00  0.00000000E+00
  0.00000000E+00  0.00000000E+00  0.00000000E+00
  0.00000000E+00  0.00000000E+00  0.00000000E+00
  0.00000000E+00  0.00000000E+00  0.00000000E+00
  0.00000000E+00  0.00000000E+00  0.00000000E+00
  0.00000000E+00  0.00000000E+00  0.00000000E+00
  0.00000000E+00  0.00000000E+00  0.00000000E+00
  0.00000000E+00  0.00000000E+00  0.00000000E+00
  0.00000000E+00  0.00000000E+00  0.00000000E+00
  0.00000000E+00  0.00000000E+00  0.00000000E+00
  0.00000000E+00  0.00000000E+00  0.00000000E+00
  0.00000000E+00  0.00000000E+00  0.00000000E+00
  0.00000000E+00  0.00000000E+00  0.00000000E+00
  0.00000000E+00  0.00000000E+00  0.00000000E+00
  0.00000000E+00  0.00000000E+00  0.00000000E+00
  0.00000000E+00  0.00000000E+00  0.00000000E+00
  0.00000000E+00  0.00000000E+00  0.00000000E+00
  0.00000000E+00  0.00000000E+00  0.00000000E+00
  0.00000000E+00  0.00000000E+00  0.00000000E+00
  0.00000000E+00  0.00000000E+00  0.00000000E+00
  0.00000000E+00  0.00000000E+00  0.00000000E+00
  0.00000000E+00  0.00000000E+00  0.00000000E+00
  0.00000000E+00  0.00000000E+00  0.00000000E+00
  0.00000000E+00  0.00000000E+00  0.00000000E+00
  0.00000000E+00  0.00000000E+00  0.00000000E+00
  0.00000000E+00  0.00000000E+00  0.00000000E+00
  0.00000000E+00  0.00000000E+00  0.00000000E+00
  0.00000000E+00  0.00000000E+00  0.00000000E+00
  0.00000000E+00  0.00000000E+00  0.00000000E+00
  0.00000000E+00  0.00000000E+00  0.00000000E+00
  0.00000000E+00  0.00000000E+00  0.00000000E+00
  0.00000000E+00  0.00000000E+00  0.00000000E+00
  0.00000000E+00  0.00000000E+00  0.00000000E+00
  0.00000000E+00  0.00000000E+00  0.00000000E+00
  0.00000000E+00  0.00000000E+00  0.00000000E+00
  0.00000000E+00  0.00000000E+00  0.00000000E+00
  0.00000000E+00  0.00000000E+00  0.00000000E+00
  0.00000000E+00  0.00000000E+00  0.00000000E+00
  0.00000000E+00  0.00000000E+00  0.00000000E+00
  0.00000000E+00  0.00000000E+00  0.00000000E+00
  0.00000000E+00  0.00000000E+00  0.00000000E+00
  0.00000000E+00  0.00000000E+00  0.00000000E+00
  0.00000000E+00  0.00000000E+00  0.00000000E+00
  0.00000000E+00  0.00000000E+00  0.00000000E+00
  0.00000000E+00  0.00000000E+00  0.00000000E+00
  0.00000000E+00  0.00000000E+00  0.00000000E+00
  0.00000000E+00  0.00000000E+00  0.00000000E+00
  0.00000000E+00  0.00000000E+00  0.00000000E+00
  0.00000000E+00  0.00000000E+00  0.00000000E+00
  0.00000000E+00  0.00000000E+00  0.00000000E+00
  0.00000000E+00  0.00000000E+00  0.00000000E+00
  0.00000000E+00  0.00000000E+00  0.00000000E+00
  0.00000000E+00  0.00000000E+00  0.00000000E+00
  0.00000000E+00  0.00000000E+00  0.00000000E+00
  0.00000000E+00  0.00000000E+00  0.00000000E+00
  0.00000000E+00  0.00000000E+00  0.00000000E+00
  0.00000000E+00  0.00000000E+00  0.00000000E+00
