SrTiFeO                                 
   1.00000000000000     
    11.1989999999999998    0.0000000000000000    0.0000000000000000
     0.0000000000000000   11.1989999999999998    0.0000000000000000
     0.0000000000000000    0.0000000000000000   15.9830000000000005
   Sr   Ti   Fe   O 
    32    29     3    94
Direct
  0.9986732723831760  0.2497670961663095  0.1250835535174595
  0.9990332454674797  0.2497076288191537  0.6227514885256431
  0.9981023119814360  0.7507498091951691  0.1263257546700763
  0.0015326279070213  0.7488617688134589  0.6233411399675757
  0.4999939464817458  0.2459987731343587  0.1234721474428857
  0.5035892967617884  0.2492135276375165  0.6224525995104923
  0.5008564997442074  0.7538754276953572  0.1236145611243962
  0.4993746223461756  0.7529660399421793  0.6269524836290445
  0.9985666130397677  0.2483737537679381  0.3773715685573484
  0.9993808409186415  0.2494582715768293  0.8746847233087635
  0.0007784346657491  0.7496069866221963  0.3778227672411267
  0.9987877453356182  0.7504037643831043  0.8742240639224477
  0.5056012403975790  0.2437600699171438  0.3785575050318135
  0.5003406759765961  0.2505173330122146  0.8729587149450124
  0.4980562061233403  0.7637785316862536  0.3727346028781724
  0.4995154468795276  0.7518955800422986  0.8755474992932226
  0.2492966779469434  0.0002091111828534  0.1252687785696192
  0.2507024261630521  0.0004279974162132  0.6237860519225568
  0.2452692101724016  0.5001022630556924  0.1231944583838545
  0.2482860129111687  0.4984432798442685  0.6242642112230571
  0.7491356345219907  0.9985409303420794  0.1254404516505462
  0.7506646387334321  0.0066585805042868  0.6230985471821334
  0.7534867810419814  0.4998118258711329  0.1237189550173544
  0.7551926423930786  0.4949185601564606  0.6263622179214023
  0.2487067974958285  0.0005518611769569  0.3762074036674108
  0.2496174432834704  0.0001326806000024  0.8745194630782269
  0.2397163206493708  0.4988741423996875  0.3753792936617002
  0.2497993348712380  0.5000481494800222  0.8740382325211825
  0.7522217045558436  0.0046232561943434  0.3768286001594891
  0.7503399908414933  0.9993016822696107  0.8746512019195374
  0.7628288607236388  0.4941673552989073  0.3749430807279306
  0.7507528139711489  0.5013724440919962  0.8742765728746060
  0.9993890366592175  0.9992943829481641  0.0005367360707919
  0.0017640855919130  0.0029894042581737  0.5007025610736074
  0.9998864827896951  0.4998773258477832  0.9995187655863009
  0.9981286947540712  0.4990961405634507  0.5008586194416794
  0.5000675749216447  0.0002259667421392  0.9995815538353310
  0.5017623288679449  0.9996609931776325  0.5006925089808603
  0.4992179979767873  0.4995404870103207  0.9944258495484486
  0.2505698916142440  0.2507126591364153  0.9999415586441596
  0.2508720997872487  0.2508256289658238  0.4988797067150780
  0.2500112340847254  0.7496016782995237  0.9999897205515242
  0.2531429452182745  0.7493945679065770  0.4990873094778787
  0.7495237690081878  0.2501750978506659  0.9997379057945207
  0.7498962452225931  0.7498006839656036  0.9997672316111439
  0.2495886152841621  0.2494977945029176  0.2514155488520337
  0.2510294253206647  0.2502690745620796  0.7490279544033591
  0.2492307660946017  0.7500931878869203  0.2505598860904766
  0.2507487203241912  0.7495085864397464  0.7498825995965116
  0.7499067414178922  0.2492531066891440  0.2515067796107854
  0.7497993305037380  0.2507503254393602  0.7488732912525458
  0.7488524575327963  0.7483624356973354  0.2540928738438434
  0.7489543187736599  0.7490683014353563  0.7474424809225291
  0.9999151647940516  0.0000505713525986  0.2499478585270361
  0.0001697151856513  0.9996333668204926  0.7487799400469481
  0.0001080275355194  0.4998331030173216  0.2493553619639474
  0.0010556155233989  0.5001003635026450  0.7500622908344314
  0.4997558556077580  0.0011210325802669  0.2497907928437377
  0.5006070994482529  0.0005582521240155  0.7498909277838156
  0.4987941701273194  0.4993135761281332  0.2401124602200948
  0.5019140749394122  0.5016343650697711  0.7473336673836677
  0.7501794233919041  0.2535469235156106  0.4986486346648459
  0.4918552832623668  0.4963825226733307  0.5050058508025432
  0.7583463096740728  0.7622579459465821  0.5008006271784839
  0.1092281849760980  0.1395381251345699  0.2450235438713684
  0.1097323418429509  0.1409130305451480  0.7510650920168145
  0.1100202149657411  0.6394419003146978  0.2496321368764983
  0.1094721009294068  0.6415211150222746  0.7503280541845843
  0.6092966669587763  0.1398065893408972  0.2486720481941832
  0.6085514231398137  0.1412088376817256  0.7502829021289782
  0.6047465781613310  0.6350557518613399  0.2580470030188495
  0.6094184167362380  0.6427539459445939  0.7591341981895993
  0.3917236780508457  0.3635556403501995  0.2636841146691031
  0.3925428683915311  0.3596383867752858  0.7457751867634745
  0.3889656524637156  0.8604287227505766  0.2483034068882965
  0.3910977263117008  0.8593618300837830  0.7507882476288922
  0.8887822390478844  0.3612133909962752  0.2503857247961699
  0.8913775314764181  0.3596859220399209  0.7488930236392107
  0.8876004622091728  0.8579584123004187  0.2550225918573076
  0.8899997556123148  0.8583368620398287  0.7453406278956554
  0.3600840554974796  0.1104853464985127  0.2488916115208975
  0.3591878857758009  0.1092586199686303  0.7506429052772718
  0.3626254085194600  0.6070249290963909  0.2605573000775489
  0.3588767972829485  0.6086270924607036  0.7505024969027195
  0.8594092667203274  0.1088064584285824  0.2463896621117341
  0.8592632925640307  0.1095310248220030  0.7491187814780093
  0.8595113866491159  0.6091161821084862  0.2488881019161072
  0.8598497176130654  0.6088132466282785  0.7504944218913646
  0.1398685735867381  0.3899526106964873  0.2487168702806817
  0.1420543025593075  0.3915839324811916  0.7505116059416651
  0.1392200244620768  0.8890274417192061  0.2470852600331976
  0.1413311337059958  0.8901338153860553  0.7491531765108110
  0.6354257135387270  0.3921608663672866  0.2595848431809151
  0.6417974385477674  0.3915104594048918  0.7541729442089975
  0.6384816118259085  0.8884084958163861  0.2524738534896059
  0.6414304485148169  0.8915687383151842  0.7483146024109499
  0.3584908021392736  0.3919077869308698  0.0002583231933677
  0.3594092558632604  0.8905088966424419  0.0009013553259995
  0.3592243850917716  0.8909905446226632  0.4995693581055995
  0.8593457433618596  0.3908633659773563  0.9997203696079870
  0.8589603672795205  0.8898600442038335  0.0025482935513212
  0.8627818660160596  0.8920893216079877  0.5004437654423345
  0.1404332393680238  0.1098937958269042  0.0013423579023626
  0.1400684578865538  0.1089455497587619  0.5016818008762788
  0.1408590092494668  0.6088344406190416  0.9995941611246272
  0.1394480586423494  0.6113517574152830  0.4998301135292434
  0.6406159696092431  0.1092657038217543  0.0009802004226724
  0.6348143423240555  0.1140622200709054  0.4995012016348919
  0.6401209247862157  0.6083980741228390  0.9994348029028060
  0.1093640186931442  0.3590662210939014  0.0008413708952123
  0.1106083351567686  0.3604166774877565  0.4997647721950369
  0.1100352300709242  0.8587313378283750  0.0014573883483174
  0.1108713686272693  0.8592477794239044  0.5013794450367571
  0.6079382257158780  0.3592164889312010  0.9994907994466369
  0.6093012850524570  0.8592594115536348  0.0002151215656061
  0.6076925663664781  0.8567324136650983  0.5005172871920798
  0.3909443715128831  0.1406489100955245  0.9996545591297487
  0.3887097973657943  0.1388425777931599  0.5002075094770432
  0.3917195635552302  0.6407890619348179  0.9999863542659424
  0.8903322718630785  0.1402961263091188  0.0016444050149965
  0.8899833905446888  0.1369476171998494  0.5017434264574862
  0.8904549748653863  0.6403177912954214  0.0013361180645171
  0.9978711724628614  0.9958119106881038  0.1250093909806512
  0.0020484017470745  0.0008268119146814  0.6258533861270652
  0.0000437615860742  0.4994932508540860  0.1246223780318878
  0.0031604608555978  0.5013094229504247  0.6257996948725690
  0.5008987244220060  0.9994042757406425  0.1247953306775580
  0.4989470835173713  0.0010219541527582  0.6255173453898382
  0.4975418423826877  0.4977302224896381  0.1249053981518247
  0.5162627498486527  0.5127471773178528  0.6284287294884632
  0.0027445273858029  0.0022645339417101  0.3740040908349638
  0.9983881909914332  0.9973111675046604  0.8752994300310931
  0.0008014694749077  0.5009559557457963  0.3743301574185334
  0.0002824733816322  0.4996881152870672  0.8752394611419075
  0.4986327542239551  0.0005211956695599  0.3743871256337480
  0.5008699474379352  0.9993786617478069  0.8752132486166168
  0.4963337813624928  0.4975323651545379  0.8753449193061694
  0.2399333039363055  0.2407462905576604  0.3734194046638071
  0.2518044356269535  0.2516382836582157  0.8750796318040958
  0.2446903732591468  0.7551464472512494  0.3740090189600818
  0.2502402051076757  0.7505255385156836  0.8754550017921822
  0.7514663767583983  0.2484732851776092  0.8757232416711305
  0.7542743762233547  0.7534212702411283  0.8759564327300258
  0.2568193771354026  0.2546279938579182  0.1259423270765687
  0.2506356185161609  0.2518767157610093  0.6245934021721623
  0.2537201831333210  0.7436652934627517  0.1258972853722251
  0.2548815643967224  0.7460333521444560  0.6243550997606236
  0.7463803991790743  0.2559933391713950  0.1255990847958580
  0.7431540438650204  0.2544224759653063  0.6257213362587020
  0.7446939047726874  0.7469237160560604  0.1275028215715258
  0.7376835887122205  0.7355622840162322  0.6233046658090095
  0.7551917397139083  0.2430248458273491  0.3725127727866870
  0.8674470545611052  0.3861928458909432  0.5008756334622204
  0.3978203263078520  0.6433801615998938  0.4896184001978618
  0.3556819165940547  0.3855920011356825  0.4883447613551924
  0.8796417134907474  0.6322759881569615  0.5006777168294435
  0.7407070363008798  0.7374459726154811  0.3785400438243082
  0.6205605837595296  0.3845749038135849  0.4830782816440005
 
  0.00000000E+00  0.00000000E+00  0.00000000E+00
  0.00000000E+00  0.00000000E+00  0.00000000E+00
  0.00000000E+00  0.00000000E+00  0.00000000E+00
  0.00000000E+00  0.00000000E+00  0.00000000E+00
  0.00000000E+00  0.00000000E+00  0.00000000E+00
  0.00000000E+00  0.00000000E+00  0.00000000E+00
  0.00000000E+00  0.00000000E+00  0.00000000E+00
  0.00000000E+00  0.00000000E+00  0.00000000E+00
  0.00000000E+00  0.00000000E+00  0.00000000E+00
  0.00000000E+00  0.00000000E+00  0.00000000E+00
  0.00000000E+00  0.00000000E+00  0.00000000E+00
  0.00000000E+00  0.00000000E+00  0.00000000E+00
  0.00000000E+00  0.00000000E+00  0.00000000E+00
  0.00000000E+00  0.00000000E+00  0.00000000E+00
  0.00000000E+00  0.00000000E+00  0.00000000E+00
  0.00000000E+00  0.00000000E+00  0.00000000E+00
  0.00000000E+00  0.00000000E+00  0.00000000E+00
  0.00000000E+00  0.00000000E+00  0.00000000E+00
  0.00000000E+00  0.00000000E+00  0.00000000E+00
  0.00000000E+00  0.00000000E+00  0.00000000E+00
  0.00000000E+00  0.00000000E+00  0.00000000E+00
  0.00000000E+00  0.00000000E+00  0.00000000E+00
  0.00000000E+00  0.00000000E+00  0.00000000E+00
  0.00000000E+00  0.00000000E+00  0.00000000E+00
  0.00000000E+00  0.00000000E+00  0.00000000E+00
  0.00000000E+00  0.00000000E+00  0.00000000E+00
  0.00000000E+00  0.00000000E+00  0.00000000E+00
  0.00000000E+00  0.00000000E+00  0.00000000E+00
  0.00000000E+00  0.00000000E+00  0.00000000E+00
  0.00000000E+00  0.00000000E+00  0.00000000E+00
  0.00000000E+00  0.00000000E+00  0.00000000E+00
  0.00000000E+00  0.00000000E+00  0.00000000E+00
  0.00000000E+00  0.00000000E+00  0.00000000E+00
  0.00000000E+00  0.00000000E+00  0.00000000E+00
  0.00000000E+00  0.00000000E+00  0.00000000E+00
  0.00000000E+00  0.00000000E+00  0.00000000E+00
  0.00000000E+00  0.00000000E+00  0.00000000E+00
  0.00000000E+00  0.00000000E+00  0.00000000E+00
  0.00000000E+00  0.00000000E+00  0.00000000E+00
  0.00000000E+00  0.00000000E+00  0.00000000E+00
  0.00000000E+00  0.00000000E+00  0.00000000E+00
  0.00000000E+00  0.00000000E+00  0.00000000E+00
  0.00000000E+00  0.00000000E+00  0.00000000E+00
  0.00000000E+00  0.00000000E+00  0.00000000E+00
  0.00000000E+00  0.00000000E+00  0.00000000E+00
  0.00000000E+00  0.00000000E+00  0.00000000E+00
  0.00000000E+00  0.00000000E+00  0.00000000E+00
  0.00000000E+00  0.00000000E+00  0.00000000E+00
  0.00000000E+00  0.00000000E+00  0.00000000E+00
  0.00000000E+00  0.00000000E+00  0.00000000E+00
  0.00000000E+00  0.00000000E+00  0.00000000E+00
  0.00000000E+00  0.00000000E+00  0.00000000E+00
  0.00000000E+00  0.00000000E+00  0.00000000E+00
  0.00000000E+00  0.00000000E+00  0.00000000E+00
  0.00000000E+00  0.00000000E+00  0.00000000E+00
  0.00000000E+00  0.00000000E+00  0.00000000E+00
  0.00000000E+00  0.00000000E+00  0.00000000E+00
  0.00000000E+00  0.00000000E+00  0.00000000E+00
  0.00000000E+00  0.00000000E+00  0.00000000E+00
  0.00000000E+00  0.00000000E+00  0.00000000E+00
  0.00000000E+00  0.00000000E+00  0.00000000E+00
  0.00000000E+00  0.00000000E+00  0.00000000E+00
  0.00000000E+00  0.00000000E+00  0.00000000E+00
  0.00000000E+00  0.00000000E+00  0.00000000E+00
  0.00000000E+00  0.00000000E+00  0.00000000E+00
  0.00000000E+00  0.00000000E+00  0.00000000E+00
  0.00000000E+00  0.00000000E+00  0.00000000E+00
  0.00000000E+00  0.00000000E+00  0.00000000E+00
  0.00000000E+00  0.00000000E+00  0.00000000E+00
  0.00000000E+00  0.00000000E+00  0.00000000E+00
  0.00000000E+00  0.00000000E+00  0.00000000E+00
  0.00000000E+00  0.00000000E+00  0.00000000E+00
  0.00000000E+00  0.00000000E+00  0.00000000E+00
  0.00000000E+00  0.00000000E+00  0.00000000E+00
  0.00000000E+00  0.00000000E+00  0.00000000E+00
  0.00000000E+00  0.00000000E+00  0.00000000E+00
  0.00000000E+00  0.00000000E+00  0.00000000E+00
  0.00000000E+00  0.00000000E+00  0.00000000E+00
  0.00000000E+00  0.00000000E+00  0.00000000E+00
  0.00000000E+00  0.00000000E+00  0.00000000E+00
  0.00000000E+00  0.00000000E+00  0.00000000E+00
  0.00000000E+00  0.00000000E+00  0.00000000E+00
  0.00000000E+00  0.00000000E+00  0.00000000E+00
  0.00000000E+00  0.00000000E+00  0.00000000E+00
  0.00000000E+00  0.00000000E+00  0.00000000E+00
  0.00000000E+00  0.00000000E+00  0.00000000E+00
  0.00000000E+00  0.00000000E+00  0.00000000E+00
  0.00000000E+00  0.00000000E+00  0.00000000E+00
  0.00000000E+00  0.00000000E+00  0.00000000E+00
  0.00000000E+00  0.00000000E+00  0.00000000E+00
  0.00000000E+00  0.00000000E+00  0.00000000E+00
  0.00000000E+00  0.00000000E+00  0.00000000E+00
  0.00000000E+00  0.00000000E+00  0.00000000E+00
  0.00000000E+00  0.00000000E+00  0.00000000E+00
  0.00000000E+00  0.00000000E+00  0.00000000E+00
  0.00000000E+00  0.00000000E+00  0.00000000E+00
  0.00000000E+00  0.00000000E+00  0.00000000E+00
  0.00000000E+00  0.00000000E+00  0.00000000E+00
  0.00000000E+00  0.00000000E+00  0.00000000E+00
  0.00000000E+00  0.00000000E+00  0.00000000E+00
  0.00000000E+00  0.00000000E+00  0.00000000E+00
  0.00000000E+00  0.00000000E+00  0.00000000E+00
  0.00000000E+00  0.00000000E+00  0.00000000E+00
  0.00000000E+00  0.00000000E+00  0.00000000E+00
  0.00000000E+00  0.00000000E+00  0.00000000E+00
  0.00000000E+00  0.00000000E+00  0.00000000E+00
  0.00000000E+00  0.00000000E+00  0.00000000E+00
  0.00000000E+00  0.00000000E+00  0.00000000E+00
  0.00000000E+00  0.00000000E+00  0.00000000E+00
  0.00000000E+00  0.00000000E+00  0.00000000E+00
  0.00000000E+00  0.00000000E+00  0.00000000E+00
  0.00000000E+00  0.00000000E+00  0.00000000E+00
  0.00000000E+00  0.00000000E+00  0.00000000E+00
  0.00000000E+00  0.00000000E+00  0.00000000E+00
  0.00000000E+00  0.00000000E+00  0.00000000E+00
  0.00000000E+00  0.00000000E+00  0.00000000E+00
  0.00000000E+00  0.00000000E+00  0.00000000E+00
  0.00000000E+00  0.00000000E+00  0.00000000E+00
  0.00000000E+00  0.00000000E+00  0.00000000E+00
  0.00000000E+00  0.00000000E+00  0.00000000E+00
  0.00000000E+00  0.00000000E+00  0.00000000E+00
  0.00000000E+00  0.00000000E+00  0.00000000E+00
  0.00000000E+00  0.00000000E+00  0.00000000E+00
  0.00000000E+00  0.00000000E+00  0.00000000E+00
  0.00000000E+00  0.00000000E+00  0.00000000E+00
  0.00000000E+00  0.00000000E+00  0.00000000E+00
  0.00000000E+00  0.00000000E+00  0.00000000E+00
  0.00000000E+00  0.00000000E+00  0.00000000E+00
  0.00000000E+00  0.00000000E+00  0.00000000E+00
  0.00000000E+00  0.00000000E+00  0.00000000E+00
  0.00000000E+00  0.00000000E+00  0.00000000E+00
  0.00000000E+00  0.00000000E+00  0.00000000E+00
  0.00000000E+00  0.00000000E+00  0.00000000E+00
  0.00000000E+00  0.00000000E+00  0.00000000E+00
  0.00000000E+00  0.00000000E+00  0.00000000E+00
  0.00000000E+00  0.00000000E+00  0.00000000E+00
  0.00000000E+00  0.00000000E+00  0.00000000E+00
  0.00000000E+00  0.00000000E+00  0.00000000E+00
  0.00000000E+00  0.00000000E+00  0.00000000E+00
  0.00000000E+00  0.00000000E+00  0.00000000E+00
  0.00000000E+00  0.00000000E+00  0.00000000E+00
  0.00000000E+00  0.00000000E+00  0.00000000E+00
  0.00000000E+00  0.00000000E+00  0.00000000E+00
  0.00000000E+00  0.00000000E+00  0.00000000E+00
  0.00000000E+00  0.00000000E+00  0.00000000E+00
  0.00000000E+00  0.00000000E+00  0.00000000E+00
  0.00000000E+00  0.00000000E+00  0.00000000E+00
  0.00000000E+00  0.00000000E+00  0.00000000E+00
  0.00000000E+00  0.00000000E+00  0.00000000E+00
  0.00000000E+00  0.00000000E+00  0.00000000E+00
  0.00000000E+00  0.00000000E+00  0.00000000E+00
  0.00000000E+00  0.00000000E+00  0.00000000E+00
  0.00000000E+00  0.00000000E+00  0.00000000E+00
  0.00000000E+00  0.00000000E+00  0.00000000E+00
  0.00000000E+00  0.00000000E+00  0.00000000E+00
  0.00000000E+00  0.00000000E+00  0.00000000E+00
  0.00000000E+00  0.00000000E+00  0.00000000E+00
  0.00000000E+00  0.00000000E+00  0.00000000E+00
