Sr   Ti   Fe   O                        
   1.00000000000000     
    11.1989999999999998    0.0000000000000000    0.0000000000000000
     0.0000000000000000   11.1989999999999998    0.0000000000000000
     0.0000000000000000    0.0000000000000000   15.9830000000000005
   Sr   Ti   Fe   O 
    32    29     3    94
Direct
  0.9985945362161508  0.2502279185868924  0.1250176717886574
  0.0019830727095352  0.2501124693790155  0.6232413574412261
  0.9983751517087253  0.7508531261206696  0.1263744782525775
  0.9969559275375927  0.7483864651082207  0.6224780822503371
  0.5003609390018173  0.2463527329247518  0.1238675613409649
  0.4976065593155847  0.2422346307667682  0.6287232425669355
  0.5012753989222678  0.7544665848128396  0.1235227173413219
  0.4994015895947082  0.7576279526489601  0.6272945590392844
  0.0016441822713640  0.2483680015766329  0.3765057153581790
  0.9990073543319355  0.2496785321889425  0.8746107590794783
  0.9988455463386509  0.7498767012960114  0.3777095620882467
  0.9984155834916747  0.7508315397884366  0.8743147792560177
  0.5023564982015215  0.2411446877331163  0.3765736747272905
  0.5008634692774143  0.2489619580420432  0.8751027538801154
  0.5021680763577848  0.7628669995799070  0.3726787818812352
  0.4994905150959610  0.7514261363622200  0.8753960600570433
  0.2495679859534387  0.0004103061914739  0.1251989261837002
  0.2492955928472854  0.9992212070084223  0.6245635869770729
  0.2460587377990467  0.5006041629016190  0.1229331562936478
  0.2421047792349424  0.4997006868731242  0.6295828794294911
  0.7502426578104652  0.9998981095164915  0.1261047107456705
  0.7488901932134966 -0.0017463455531899  0.6220093052930197
  0.7537323619500974  0.4999847119175259  0.1234349603518913
  0.7513638888430355  0.4978447629416364  0.6191968964262056
  0.2490831136139459  0.0004855434358473  0.3761447277720961
  0.2488738213451404  0.0000273224660773  0.8750052164185148
  0.2407905154394377  0.4969936978438046  0.3747351998742257
  0.2482916026299787  0.4996378038050547  0.8752286170923838
  0.7503657947902125 -0.0019300786296945  0.3783452488623836
  0.7501825586040887  1.0000278022079889  0.8736641103435453
  0.7697633882109310  0.4974611763509735  0.3696538760133588
  0.7504262919856985  0.5008218202090372  0.8744646288173844
  0.9990241791999401  0.9999869859399029  0.0003716589316849
  0.0007000618723739  0.9975586828137165  0.5004670277637522
 -0.0003608284275795  0.5001204410918207  0.9994033160736686
  1.0000487570493748  0.4994421575700930  0.5003741466982110
  0.4999668135620039  0.0002336406794798  0.9997464729250617
  0.5009926279877154  1.0001536721037712  0.5005426160558095
  0.4992147564746650  0.4999980179586832  0.9956528471780487
  0.2501217070435587  0.2502514950008302  1.0002006200974942
  0.2508425769474784  0.2480532111377070  0.4994981345096984
  0.2499559482892625  0.7498341368722187  0.0001922721804570
  0.2512406968885771  0.7506473252253001  0.4994815861354642
  0.7498357912648141  0.2501167024157858  0.9997033234027717
  0.7496868951330149  0.7501312783096911  0.9998208867242731
  0.2499791539854415  0.2496654391757141  0.2506646280961120
  0.2499993433189643  0.2502028798063144  0.7507069380503768
  0.2502196645878224  0.7504005019494412  0.2510306742211553
  0.2492978028972980  0.7493994182640371  0.7501849437083832
  0.7495565399090728  0.2497835657259380  0.2526417035144373
  0.7489470460392214  0.2513832477588059  0.7473970667363422
  0.7499529349901290  0.7494693501970454  0.2525506187888386
  0.7480040196482257  0.7477721403952354  0.7474345195927495
  0.0002867355239409  0.0001119908212505  0.2501580674086883
  0.9992294710381736  0.9997286377484736  0.7481912707700502
  0.0020533965291552  0.5000882304951263  0.2483396091051262
 -0.0016622199908771  0.4995939013073096  0.7500140927157852
  0.5001046091429114  0.0010392808797327  0.2494398702377551
  0.4998844970960251  0.9997131613659354  0.7506883326061838
  0.4996610818155117  0.4998846090905484  0.2398117960362427
  0.4994539414990610  0.5001758450427667  0.7509386370026518
  0.7626486802666657  0.2431097373965614  0.4996733201729402
  0.4787366774121097  0.5042565813721548  0.5123658554746303
  0.7533497846612314  0.7518493910437306  0.4995493544876248
  0.1098052627488367  0.1405575568223337  0.2452357739980765
  0.1097918916336936  0.1408406443269103  0.7495513342235703
  0.1124004615029379  0.6390975812622979  0.2486054085289436
  0.1087927909585239  0.6405204710637133  0.7493296021620963
  0.6094996850482481  0.1404116232224773  0.2484557006273245
  0.6088415941010467  0.1406961613031912  0.7510538435018624
  0.6067624390392854  0.6360620441546309  0.2544895783166313
  0.6059424214134869  0.6409163233669322  0.7551055148015424
  0.3923208545889523  0.3642860482813630  0.2627705125583195
  0.3909394068706868  0.3584040193506622  0.7533971632451034
  0.3896821038283910  0.8609083273071730  0.2490918947718492
  0.3902200974597301  0.8593787182685090  0.7514234500831510
  0.8892175215971094  0.3616209301927746  0.2513629061459855
  0.8909736536169639  0.3582935429536281  0.7492475922674777
  0.8888373612378385  0.8608978199871975  0.2522433522610693
  0.8888799105039538  0.8587872020155163  0.7466583225201162
  0.3609626903606832  0.1116517579200879  0.2490971743794299
  0.3593768858335065  0.1097993152969194  0.7498049120398068
  0.3647117982914355  0.6082343838621930  0.2621047024400524
  0.3571998990862998  0.6081917180321494  0.7528353883461606
  0.8591713360732351  0.1109238257464113  0.2526597437897431
  0.8581136320475268  0.1100620741193634  0.7453157449641011
  0.8635177993321282  0.6117622278156436  0.2454879694733793
  0.8588457391481114  0.6079211417326328  0.7501682988193971
  0.1410119274618799  0.3898276132017707  0.2474785937524121
  0.1405520010500454  0.3903695928437788  0.7524826469561985
  0.1399419324399124  0.8896662656220645  0.2462715110658845
  0.1402527944371397  0.8897763803609358  0.7508678089913674
  0.6358657146442132  0.3927666585152062  0.2560745316712847
  0.6402184997893047  0.3918879951875110  0.7534995987829732
  0.6386443916981427  0.8897226600137820  0.2510694814005111
  0.6397185036233582  0.8905998864499934  0.7494532971453954
  0.3585846462410109  0.3916536134467842  0.9991776095402110
  0.3590718978906011  0.8906714738990830  0.0007680953153420
  0.3576945110241264  0.8927699814576376  0.5000052962784722
  0.8589820841153349  0.3910198130248130  0.9998973822948950
  0.8588670953038139  0.8906514512186315  0.0006586609137677
  0.8662674845296038  0.8956418896510463  0.5001922504301655
  0.1403295562971842  0.1095919981637816  0.0022620522520630
  0.1415253770495212  0.1114589482354570  0.5029527729313629
  0.1405498607355364  0.6091726725839526  1.0000957349769075
  0.1462343761642227  0.6091219048011247  0.5011039983615072
  0.6406069980243250  0.1095251352966847  0.0009440695344766
  0.6313871832688734  0.1242228698452233  0.5002677356649827
  0.6398659246821079  0.6081496247180811  1.0006765972520570
  0.1094331648418129  0.3591967388653603  0.0004537951350851
  0.1188876761827459  0.3627424798908750  0.4995995293195119
  0.1094661381862402  0.8595036483559612  0.0018388361413799
  0.1116898536648500  0.8582542416887755  0.5019252210484481
  0.6082409781497102  0.3594129627177521  1.0003066124869195
  0.6086535206183651  0.8595268576119525  0.9996138995239313
  0.6056554937565550  0.8664175489333263  0.5001310951355294
  0.3909201717117485  0.1407366918615818  1.0001961774976067
  0.3871001114950843  0.1386555609871288  0.5007821216333016
  0.3914580262315778  0.6409086840653876 -0.0001239553224310
  0.8903720923812846  0.1412001456019021  0.0012119265776281
  0.8936871993101616  0.1375829554160383  0.5013087240504817
  0.8905303274392187  0.6405129097213936  0.0013038020318303
  0.9956775858238104  0.9993677403484625  0.1252098579949701
  0.0043988631853837  0.9995577172017880  0.6259390638076494
  0.0008434601775251  0.4980542579946534  0.1241222909175893
  0.0041822671557531  0.4977763355156606  0.6263012195467593
  0.4999811698134288  0.9997636722446936  0.1246571314723795
  0.4986353081147360  1.0012127671387878  0.6265007130939705
  0.4946824642939832  0.4981546104785925  0.1245378541169723
  0.4969456474104871  0.4995431244331987  0.6291115112448659
  0.0069190034075556  0.0016266406896129  0.3741432866444601
  0.9977967419744191  1.0005079643237516  0.8748556897106153
  0.0058137015057939  0.5001792595687051  0.3731822444494240
 -0.0008462749365305  0.5001490513339717  0.8753477897151835
  0.4986837517700013  0.0026508531578189  0.3738862219148794
  0.4996701589709736  1.0004332248822887  0.8755114010616147
  0.4984214300292555  0.4994942503833175  0.8761813579958526
  0.2421732579316694  0.2429378550807653  0.3734587762645151
  0.2491887364041575  0.2478871936113635  0.8760004413877002
  0.2443833997790598  0.7556353895322451  0.3743929532095392
  0.2488801036933503  0.7503442653091852  0.8759640149039336
  0.7513709387251956  0.2485611952270652  0.8751484881833742
  0.7512189620216611  0.7501898825353381  0.8756957669408875
  0.2572454487897186  0.2545839216462317  0.1257507804561919
  0.2549368112999274  0.2570249764403591  0.6252516174643660
  0.2550414494569974  0.7441636799040202  0.1260670570358907
  0.2558260389386801  0.7473350095692886  0.6251443350750032
  0.7484716557504574  0.2539213624037931  0.1263580608163684
  0.7380230361777346  0.2610524785983470  0.6232448349284930
  0.7456928034235510  0.7494903483606168  0.1254216659500718
  0.7381415905351397  0.7377637947904693  0.6260333818238070
  0.7446454520290842  0.2526724306066179  0.3759575361113779
  0.8696972451419306  0.3830797849564054  0.4997751108101213
  0.4004324368016690  0.6489173180300112  0.4899315898260512
  0.3732755304786635  0.3814881971577822  0.4840967042788749
  0.8938369268972222  0.6311096762593832  0.5001695488758888
  0.7465165544638861  0.7425807285593023  0.3729863116839977
  0.6299049250285101  0.4876770826339080  0.4775059846037432
 
  0.00000000E+00  0.00000000E+00  0.00000000E+00
  0.00000000E+00  0.00000000E+00  0.00000000E+00
  0.00000000E+00  0.00000000E+00  0.00000000E+00
  0.00000000E+00  0.00000000E+00  0.00000000E+00
  0.00000000E+00  0.00000000E+00  0.00000000E+00
  0.00000000E+00  0.00000000E+00  0.00000000E+00
  0.00000000E+00  0.00000000E+00  0.00000000E+00
  0.00000000E+00  0.00000000E+00  0.00000000E+00
  0.00000000E+00  0.00000000E+00  0.00000000E+00
  0.00000000E+00  0.00000000E+00  0.00000000E+00
  0.00000000E+00  0.00000000E+00  0.00000000E+00
  0.00000000E+00  0.00000000E+00  0.00000000E+00
  0.00000000E+00  0.00000000E+00  0.00000000E+00
  0.00000000E+00  0.00000000E+00  0.00000000E+00
  0.00000000E+00  0.00000000E+00  0.00000000E+00
  0.00000000E+00  0.00000000E+00  0.00000000E+00
  0.00000000E+00  0.00000000E+00  0.00000000E+00
  0.00000000E+00  0.00000000E+00  0.00000000E+00
  0.00000000E+00  0.00000000E+00  0.00000000E+00
  0.00000000E+00  0.00000000E+00  0.00000000E+00
  0.00000000E+00  0.00000000E+00  0.00000000E+00
  0.00000000E+00  0.00000000E+00  0.00000000E+00
  0.00000000E+00  0.00000000E+00  0.00000000E+00
  0.00000000E+00  0.00000000E+00  0.00000000E+00
  0.00000000E+00  0.00000000E+00  0.00000000E+00
  0.00000000E+00  0.00000000E+00  0.00000000E+00
  0.00000000E+00  0.00000000E+00  0.00000000E+00
  0.00000000E+00  0.00000000E+00  0.00000000E+00
  0.00000000E+00  0.00000000E+00  0.00000000E+00
  0.00000000E+00  0.00000000E+00  0.00000000E+00
  0.00000000E+00  0.00000000E+00  0.00000000E+00
  0.00000000E+00  0.00000000E+00  0.00000000E+00
  0.00000000E+00  0.00000000E+00  0.00000000E+00
  0.00000000E+00  0.00000000E+00  0.00000000E+00
  0.00000000E+00  0.00000000E+00  0.00000000E+00
  0.00000000E+00  0.00000000E+00  0.00000000E+00
  0.00000000E+00  0.00000000E+00  0.00000000E+00
  0.00000000E+00  0.00000000E+00  0.00000000E+00
  0.00000000E+00  0.00000000E+00  0.00000000E+00
  0.00000000E+00  0.00000000E+00  0.00000000E+00
  0.00000000E+00  0.00000000E+00  0.00000000E+00
  0.00000000E+00  0.00000000E+00  0.00000000E+00
  0.00000000E+00  0.00000000E+00  0.00000000E+00
  0.00000000E+00  0.00000000E+00  0.00000000E+00
  0.00000000E+00  0.00000000E+00  0.00000000E+00
  0.00000000E+00  0.00000000E+00  0.00000000E+00
  0.00000000E+00  0.00000000E+00  0.00000000E+00
  0.00000000E+00  0.00000000E+00  0.00000000E+00
  0.00000000E+00  0.00000000E+00  0.00000000E+00
  0.00000000E+00  0.00000000E+00  0.00000000E+00
  0.00000000E+00  0.00000000E+00  0.00000000E+00
  0.00000000E+00  0.00000000E+00  0.00000000E+00
  0.00000000E+00  0.00000000E+00  0.00000000E+00
  0.00000000E+00  0.00000000E+00  0.00000000E+00
  0.00000000E+00  0.00000000E+00  0.00000000E+00
  0.00000000E+00  0.00000000E+00  0.00000000E+00
  0.00000000E+00  0.00000000E+00  0.00000000E+00
  0.00000000E+00  0.00000000E+00  0.00000000E+00
  0.00000000E+00  0.00000000E+00  0.00000000E+00
  0.00000000E+00  0.00000000E+00  0.00000000E+00
  0.00000000E+00  0.00000000E+00  0.00000000E+00
  0.00000000E+00  0.00000000E+00  0.00000000E+00
  0.00000000E+00  0.00000000E+00  0.00000000E+00
  0.00000000E+00  0.00000000E+00  0.00000000E+00
  0.00000000E+00  0.00000000E+00  0.00000000E+00
  0.00000000E+00  0.00000000E+00  0.00000000E+00
  0.00000000E+00  0.00000000E+00  0.00000000E+00
  0.00000000E+00  0.00000000E+00  0.00000000E+00
  0.00000000E+00  0.00000000E+00  0.00000000E+00
  0.00000000E+00  0.00000000E+00  0.00000000E+00
  0.00000000E+00  0.00000000E+00  0.00000000E+00
  0.00000000E+00  0.00000000E+00  0.00000000E+00
  0.00000000E+00  0.00000000E+00  0.00000000E+00
  0.00000000E+00  0.00000000E+00  0.00000000E+00
  0.00000000E+00  0.00000000E+00  0.00000000E+00
  0.00000000E+00  0.00000000E+00  0.00000000E+00
  0.00000000E+00  0.00000000E+00  0.00000000E+00
  0.00000000E+00  0.00000000E+00  0.00000000E+00
  0.00000000E+00  0.00000000E+00  0.00000000E+00
  0.00000000E+00  0.00000000E+00  0.00000000E+00
  0.00000000E+00  0.00000000E+00  0.00000000E+00
  0.00000000E+00  0.00000000E+00  0.00000000E+00
  0.00000000E+00  0.00000000E+00  0.00000000E+00
  0.00000000E+00  0.00000000E+00  0.00000000E+00
  0.00000000E+00  0.00000000E+00  0.00000000E+00
  0.00000000E+00  0.00000000E+00  0.00000000E+00
  0.00000000E+00  0.00000000E+00  0.00000000E+00
  0.00000000E+00  0.00000000E+00  0.00000000E+00
  0.00000000E+00  0.00000000E+00  0.00000000E+00
  0.00000000E+00  0.00000000E+00  0.00000000E+00
  0.00000000E+00  0.00000000E+00  0.00000000E+00
  0.00000000E+00  0.00000000E+00  0.00000000E+00
  0.00000000E+00  0.00000000E+00  0.00000000E+00
  0.00000000E+00  0.00000000E+00  0.00000000E+00
  0.00000000E+00  0.00000000E+00  0.00000000E+00
  0.00000000E+00  0.00000000E+00  0.00000000E+00
  0.00000000E+00  0.00000000E+00  0.00000000E+00
  0.00000000E+00  0.00000000E+00  0.00000000E+00
  0.00000000E+00  0.00000000E+00  0.00000000E+00
  0.00000000E+00  0.00000000E+00  0.00000000E+00
  0.00000000E+00  0.00000000E+00  0.00000000E+00
  0.00000000E+00  0.00000000E+00  0.00000000E+00
  0.00000000E+00  0.00000000E+00  0.00000000E+00
  0.00000000E+00  0.00000000E+00  0.00000000E+00
  0.00000000E+00  0.00000000E+00  0.00000000E+00
  0.00000000E+00  0.00000000E+00  0.00000000E+00
  0.00000000E+00  0.00000000E+00  0.00000000E+00
  0.00000000E+00  0.00000000E+00  0.00000000E+00
  0.00000000E+00  0.00000000E+00  0.00000000E+00
  0.00000000E+00  0.00000000E+00  0.00000000E+00
  0.00000000E+00  0.00000000E+00  0.00000000E+00
  0.00000000E+00  0.00000000E+00  0.00000000E+00
  0.00000000E+00  0.00000000E+00  0.00000000E+00
  0.00000000E+00  0.00000000E+00  0.00000000E+00
  0.00000000E+00  0.00000000E+00  0.00000000E+00
  0.00000000E+00  0.00000000E+00  0.00000000E+00
  0.00000000E+00  0.00000000E+00  0.00000000E+00
  0.00000000E+00  0.00000000E+00  0.00000000E+00
  0.00000000E+00  0.00000000E+00  0.00000000E+00
  0.00000000E+00  0.00000000E+00  0.00000000E+00
  0.00000000E+00  0.00000000E+00  0.00000000E+00
  0.00000000E+00  0.00000000E+00  0.00000000E+00
  0.00000000E+00  0.00000000E+00  0.00000000E+00
  0.00000000E+00  0.00000000E+00  0.00000000E+00
  0.00000000E+00  0.00000000E+00  0.00000000E+00
  0.00000000E+00  0.00000000E+00  0.00000000E+00
  0.00000000E+00  0.00000000E+00  0.00000000E+00
  0.00000000E+00  0.00000000E+00  0.00000000E+00
  0.00000000E+00  0.00000000E+00  0.00000000E+00
  0.00000000E+00  0.00000000E+00  0.00000000E+00
  0.00000000E+00  0.00000000E+00  0.00000000E+00
  0.00000000E+00  0.00000000E+00  0.00000000E+00
  0.00000000E+00  0.00000000E+00  0.00000000E+00
  0.00000000E+00  0.00000000E+00  0.00000000E+00
  0.00000000E+00  0.00000000E+00  0.00000000E+00
  0.00000000E+00  0.00000000E+00  0.00000000E+00
  0.00000000E+00  0.00000000E+00  0.00000000E+00
  0.00000000E+00  0.00000000E+00  0.00000000E+00
  0.00000000E+00  0.00000000E+00  0.00000000E+00
  0.00000000E+00  0.00000000E+00  0.00000000E+00
  0.00000000E+00  0.00000000E+00  0.00000000E+00
  0.00000000E+00  0.00000000E+00  0.00000000E+00
  0.00000000E+00  0.00000000E+00  0.00000000E+00
  0.00000000E+00  0.00000000E+00  0.00000000E+00
  0.00000000E+00  0.00000000E+00  0.00000000E+00
  0.00000000E+00  0.00000000E+00  0.00000000E+00
  0.00000000E+00  0.00000000E+00  0.00000000E+00
  0.00000000E+00  0.00000000E+00  0.00000000E+00
  0.00000000E+00  0.00000000E+00  0.00000000E+00
  0.00000000E+00  0.00000000E+00  0.00000000E+00
  0.00000000E+00  0.00000000E+00  0.00000000E+00
  0.00000000E+00  0.00000000E+00  0.00000000E+00
  0.00000000E+00  0.00000000E+00  0.00000000E+00
  0.00000000E+00  0.00000000E+00  0.00000000E+00
  0.00000000E+00  0.00000000E+00  0.00000000E+00
  0.00000000E+00  0.00000000E+00  0.00000000E+00
  0.00000000E+00  0.00000000E+00  0.00000000E+00
  0.00000000E+00  0.00000000E+00  0.00000000E+00
