Sr   Ti   Fe   O                        
   1.00000000000000     
    11.1989999999999998    0.0000000000000000    0.0000000000000000
     0.0000000000000000   11.1989999999999998    0.0000000000000000
     0.0000000000000000    0.0000000000000000   15.9830000000000005
   Sr   Ti   Fe   O 
    32    30     2    94
Direct
  0.9990898753906338  0.2503668659797932  0.1245370473454201
  0.0060828809996704  0.2502227540586787  0.6243408868627499
  0.9984679745387022  0.7508046057238642  0.1261101167649114
  0.9977563569552949  0.7475861459270382  0.6234044692691662
  0.4997552220195406  0.2460013408116548  0.1234284675600119
  0.4960660576133197  0.2462069163890138  0.6283577062609189
  0.5011183388609451  0.7542558283114804  0.1230992153163792
  0.4985286491609328  0.7510917545159614  0.6265850128658373
  0.0044494722306558  0.2479900627459793  0.3751851129348265
  0.9996565607877597  0.2497972941052956  0.8747960090962401
  0.9992544578532039  0.7491224831084820  0.3771105819843182
  0.9985250365825855  0.7507937275841853  0.8743039552483274
  0.4985832061777474  0.2391677297583329  0.3752826101071987
  0.5005719739780814  0.2491112436521561  0.8748452054392262
  0.5013870563624433  0.7615477575283395  0.3727094020313589
  0.4991761326860386  0.7509794885139960  0.8747697009570738
  0.2496196636396802  0.0002540217106717  0.1249984956111683
  0.2492102689724548  0.9994739797947747  0.6248407127367382
  0.2460103108787966  0.5005515455566067  0.1225589317122772
  0.2490261620233541  0.4984472134574408  0.6266697872366885
  0.7505014404940600  0.9990219960398354  0.1257471489270360
  0.7485810211026314  0.9942289367713776  0.6235888416791939
  0.7536336680655162  0.5006970576064402  0.1228242468350743
  0.7521199503158780  0.4995599764060704  0.6213174231642864
  0.2482722871098916  0.0003224878566099  0.3760103198310841
  0.2488654764137319  0.0001530519902064  0.8748438130954644
  0.2414704247422956  0.4963712123879152  0.3745734234425932
  0.2488316469797850  0.4996880666436120  0.8745524695970960
  0.7503449770351529  0.9943172350676722  0.3776676931182781
  0.7502837086358507  0.9992962676990296  0.8740057839444261
  0.7699836428581086  0.4990360072761559  0.3691819155863697
  0.7497635491456924  0.5016978290175088  0.8744254239177530
  0.9988963725036059  0.0000918795018754  0.0005040418467298
  0.0032848014378244  0.9940944237814021  0.5008389317912709
  0.9998209699613242  0.5000361063298802  0.9990752284447585
  0.0028431992402218  0.5007689128801496  0.5004651909498845
  0.4999637367954951  0.0001145378634304  0.9994771196231339
  0.4989378713554259  0.9985332435614596  0.5009679489845211
  0.4990086542797434  0.4999976936790989  0.9950057384624738
  0.2501941144678329  0.2502315037399601  0.9999676568591250
  0.2515074175252061  0.2497368804788702  0.4990772198659499
  0.2501228565432328  0.7500507239654791  0.9999658468549522
  0.2539876720603526  0.7485008855843712  0.4991274509845594
  0.7498261138799983  0.2501015553956262  0.9995959569931078
  0.7496497728250153  0.7500500488918748  0.9997325236165217
  0.2497646255985655  0.2490845470651057  0.2502239213367346
  0.2502308124304948  0.2500651185295004  0.7507120822216129
  0.2500120750443016  0.7504650434493808  0.2509313938859418
  0.2492239601344022  0.7492818456003764  0.7500022566267583
  0.7490544596747456  0.2499644494703744  0.2508241451855434
  0.7490500537055873  0.2515403336953615  0.7492064791391202
  0.7500909781017024  0.7491748016378551  0.2520472953521878
  0.7480508106283765  0.7475753425808342  0.7479349614059650
  0.9999368126218005  0.0000915461031955  0.2500446885467503
  0.9990863773112066  0.9998438579573026  0.7486595570182478
  0.0021528039265303  0.4998531422622077  0.2479930519751919
  0.9994629646751493  0.4996108895237731  0.7498481310066984
  0.5003267655806033  0.0003207620527016  0.2493564014669968
  0.4999042034845863  0.9994537008569013  0.7501899094003595
  0.4992970927690377  0.4997160641307729  0.2397990142990677
  0.4995948313020007  0.4998813523555451  0.7489565098642211
  0.7618498121093121  0.2469039672262306  0.4995831151471850
  0.4874952670317783  0.5021354962659622  0.5047157748030315
  0.7538595871652701  0.7509009487056467  0.4997209089544666
  0.1095649947508274  0.1401316671360960  0.2444014401315216
  0.1092211908276343  0.1407236669681282  0.7502259824737846
  0.1128200334574055  0.6386456305506746  0.2478078846536300
  0.1085559135137899  0.6409323188465714  0.7503786238099704
  0.6095764702197968  0.1406530499971443  0.2487698377338672
  0.6089287104861953  0.1412635323390735  0.7498326821821272
  0.6073771094743391  0.6354156219580588  0.2545982984243516
  0.6076321175287518  0.6407633822053088  0.7557550167048536
  0.3915117327736660  0.3645838883596279  0.2632652638628324
  0.3898632713382101  0.3578927905151681  0.7547664418053869
  0.3897478784458390  0.8610217862042902  0.2493813146538380
  0.3901372294123186  0.8596528049339075  0.7510153302806465
  0.8886911785416050  0.3613990609392004  0.2515928318709376
  0.8908628934098206  0.3584145304823308  0.7488348444434121
  0.8884946679267743  0.8612564933359548  0.2519454751812847
  0.8884375581328592  0.8596000164625990  0.7474496233689728
  0.3616482521640100  0.1117688086113397  0.2492230926101285
  0.3592282739922560  0.1095656826520750  0.7497545169090506
  0.3653351315847980  0.6088592518393650  0.2631128849581776
  0.3571001200464855  0.6097245386532394  0.7537702815368329
  0.8582896112522195  0.1116486758578192  0.2538167601150409
  0.8575344539177198  0.1106857974584172  0.7450717418759705
  0.8642525973419667  0.6123973486074903  0.2445613405445596
  0.8600531983107438  0.6088966065199156  0.7509405342631188
  0.1404833835492018  0.3890639843409631  0.2474766280471799
  0.1406199413334005  0.3903614389916082  0.7516533764532575
  0.1394079184858172  0.8899788968814605  0.2457151560577958
  0.1394480836564762  0.8904676007356447  0.7510697445396980
  0.6355848796786502  0.3923922138826782  0.2560061233518723
  0.6407682867172476  0.3906674365426712  0.7544829072645584
  0.6386735663869049  0.8894026581993184  0.2506904694129020
  0.6397114975055544  0.8906461116291774  0.7508775608204433
  0.3584121131117330  0.3913747068839339  0.9991024014609615
  0.3592443814378712  0.8908499517476034  0.0008193456308928
  0.3555640692617860  0.8949967700417102  0.4997935211413249
  0.8587920250865518  0.3906776030720719  0.9997453580585202
  0.8589255842868279  0.8906002978013332  0.0007800388772997
  0.8638221831397364  0.8980033236534118  0.5000960411093103
  0.1399171029908555  0.1097408869824348  0.0028493781582346
  0.1387403172655838  0.1106374354828663  0.5030252153741123
  0.1403250710630738  0.6094124497182694  0.0001492529674039
  0.1465096737957531  0.6078080461612900  0.5006548595100887
  0.6406682775358491  0.1097630913232681  0.0011280396611990
  0.6317216332224631  0.1264557021160956  0.5002721249118643
  0.6397695647838583  0.6084253698996487  0.0012837521875745
  0.1094842734925358  0.3591799026697236  0.0006247764017921
  0.1157938095440803  0.3605585709111197  0.4991249712852586
  0.1093788505161035  0.8600515121584541  0.0024740947033643
  0.1090378447230159  0.8574400308871527  0.5017281421503784
  0.6086860881318673  0.3591809127987318  0.0006949488915542
  0.6087010558829251  0.8597692511320187  0.9993265973139246
  0.6043292343281629  0.8651892975331059  0.5000952583952467
  0.3908042478798741  0.1406509866712414  0.0002389276887839
  0.3873756350275823  0.1384714123058240  0.5006589677763313
  0.3910861963301624  0.6410420681229889  0.9998308023639054
  0.8899305005298448  0.1414606995652902  0.0013446288372154
  0.8885950001458970  0.1395409433283108  0.5012678509806880
  0.8904171767367713  0.6401148825551994  0.0015498351846837
  0.9939224653608550  0.0002928717192533  0.1253655373138989
  0.0023898571688435  0.0003225079905550  0.6258849251834939
  0.0007602344283871  0.4971473819828979  0.1239644158746461
  0.0044572031480952  0.4982804979732302  0.6260283152011369
  0.5002657773960563  0.9997716916242286  0.1247092000457514
  0.4994984528945116  0.0010682246774989  0.6261710173568732
  0.4935725432161656  0.4980451882800033  0.1247771232962709
  0.4951047187052339  0.4997131995466290  0.6316941793281469
  0.0055064453854051  0.0022093156794416  0.3741961530832299
  0.9971088469393224  0.0013063865096610  0.8752423028461070
  0.0058081258572101  0.5003905975148653  0.3728102314593586
  0.9994548604643256  0.4992256476822476  0.8753606110527986
  0.4997226325517790  0.0023596600747773  0.3741015082048486
  0.4995969386512403  0.0013431683243711  0.8753824223014430
  0.4988340191772684  0.4995342776762329  0.8768147177225275
  0.2407836423410924  0.2401634138662222  0.3726913597710907
  0.2481392611395070  0.2473423397707157  0.8763016514771949
  0.2422712419260369  0.7570478629974131  0.3738655512340438
  0.2483311777546646  0.7517190153472503  0.8762817463170181
  0.7516812287958616  0.2477167266611128  0.8750494622600788
  0.7517188742638946  0.7500587880945461  0.8762169314223088
  0.2576402159664244  0.2544623890619812  0.1257370419622354
  0.2534738941077374  0.2554390675513633  0.6257089381404803
  0.2557567750827959  0.7444788684244275  0.1261453197570374
  0.2533115763529367  0.7485815232907924  0.6254066826605941
  0.7485565061772445  0.2538551202179169  0.1266971005691533
  0.7377093326089226  0.2631969094308560  0.6217631129584127
  0.7455978128333010  0.7499292242151168  0.1253629565699208
  0.7389911162858621  0.7397144194401121  0.6264293349366733
  0.7430775874471793  0.2549207157825496  0.3771981912347750
  0.8727963266455997  0.3810630126702528  0.4994323018178046
  0.3959624994348812  0.6521715293835397  0.4912099200040732
  0.3640860523071698  0.3812968236107809  0.4853087295978906
  0.8955685935249630  0.6317718953782171  0.4996787737395657
  0.7472392788682370  0.7428374570592079  0.3726556752134788
  0.6478629531670085  0.4798989367378804  0.4852310333292192
 
  0.00000000E+00  0.00000000E+00  0.00000000E+00
  0.00000000E+00  0.00000000E+00  0.00000000E+00
  0.00000000E+00  0.00000000E+00  0.00000000E+00
  0.00000000E+00  0.00000000E+00  0.00000000E+00
  0.00000000E+00  0.00000000E+00  0.00000000E+00
  0.00000000E+00  0.00000000E+00  0.00000000E+00
  0.00000000E+00  0.00000000E+00  0.00000000E+00
  0.00000000E+00  0.00000000E+00  0.00000000E+00
  0.00000000E+00  0.00000000E+00  0.00000000E+00
  0.00000000E+00  0.00000000E+00  0.00000000E+00
  0.00000000E+00  0.00000000E+00  0.00000000E+00
  0.00000000E+00  0.00000000E+00  0.00000000E+00
  0.00000000E+00  0.00000000E+00  0.00000000E+00
  0.00000000E+00  0.00000000E+00  0.00000000E+00
  0.00000000E+00  0.00000000E+00  0.00000000E+00
  0.00000000E+00  0.00000000E+00  0.00000000E+00
  0.00000000E+00  0.00000000E+00  0.00000000E+00
  0.00000000E+00  0.00000000E+00  0.00000000E+00
  0.00000000E+00  0.00000000E+00  0.00000000E+00
  0.00000000E+00  0.00000000E+00  0.00000000E+00
  0.00000000E+00  0.00000000E+00  0.00000000E+00
  0.00000000E+00  0.00000000E+00  0.00000000E+00
  0.00000000E+00  0.00000000E+00  0.00000000E+00
  0.00000000E+00  0.00000000E+00  0.00000000E+00
  0.00000000E+00  0.00000000E+00  0.00000000E+00
  0.00000000E+00  0.00000000E+00  0.00000000E+00
  0.00000000E+00  0.00000000E+00  0.00000000E+00
  0.00000000E+00  0.00000000E+00  0.00000000E+00
  0.00000000E+00  0.00000000E+00  0.00000000E+00
  0.00000000E+00  0.00000000E+00  0.00000000E+00
  0.00000000E+00  0.00000000E+00  0.00000000E+00
  0.00000000E+00  0.00000000E+00  0.00000000E+00
  0.00000000E+00  0.00000000E+00  0.00000000E+00
  0.00000000E+00  0.00000000E+00  0.00000000E+00
  0.00000000E+00  0.00000000E+00  0.00000000E+00
  0.00000000E+00  0.00000000E+00  0.00000000E+00
  0.00000000E+00  0.00000000E+00  0.00000000E+00
  0.00000000E+00  0.00000000E+00  0.00000000E+00
  0.00000000E+00  0.00000000E+00  0.00000000E+00
  0.00000000E+00  0.00000000E+00  0.00000000E+00
  0.00000000E+00  0.00000000E+00  0.00000000E+00
  0.00000000E+00  0.00000000E+00  0.00000000E+00
  0.00000000E+00  0.00000000E+00  0.00000000E+00
  0.00000000E+00  0.00000000E+00  0.00000000E+00
  0.00000000E+00  0.00000000E+00  0.00000000E+00
  0.00000000E+00  0.00000000E+00  0.00000000E+00
  0.00000000E+00  0.00000000E+00  0.00000000E+00
  0.00000000E+00  0.00000000E+00  0.00000000E+00
  0.00000000E+00  0.00000000E+00  0.00000000E+00
  0.00000000E+00  0.00000000E+00  0.00000000E+00
  0.00000000E+00  0.00000000E+00  0.00000000E+00
  0.00000000E+00  0.00000000E+00  0.00000000E+00
  0.00000000E+00  0.00000000E+00  0.00000000E+00
  0.00000000E+00  0.00000000E+00  0.00000000E+00
  0.00000000E+00  0.00000000E+00  0.00000000E+00
  0.00000000E+00  0.00000000E+00  0.00000000E+00
  0.00000000E+00  0.00000000E+00  0.00000000E+00
  0.00000000E+00  0.00000000E+00  0.00000000E+00
  0.00000000E+00  0.00000000E+00  0.00000000E+00
  0.00000000E+00  0.00000000E+00  0.00000000E+00
  0.00000000E+00  0.00000000E+00  0.00000000E+00
  0.00000000E+00  0.00000000E+00  0.00000000E+00
  0.00000000E+00  0.00000000E+00  0.00000000E+00
  0.00000000E+00  0.00000000E+00  0.00000000E+00
  0.00000000E+00  0.00000000E+00  0.00000000E+00
  0.00000000E+00  0.00000000E+00  0.00000000E+00
  0.00000000E+00  0.00000000E+00  0.00000000E+00
  0.00000000E+00  0.00000000E+00  0.00000000E+00
  0.00000000E+00  0.00000000E+00  0.00000000E+00
  0.00000000E+00  0.00000000E+00  0.00000000E+00
  0.00000000E+00  0.00000000E+00  0.00000000E+00
  0.00000000E+00  0.00000000E+00  0.00000000E+00
  0.00000000E+00  0.00000000E+00  0.00000000E+00
  0.00000000E+00  0.00000000E+00  0.00000000E+00
  0.00000000E+00  0.00000000E+00  0.00000000E+00
  0.00000000E+00  0.00000000E+00  0.00000000E+00
  0.00000000E+00  0.00000000E+00  0.00000000E+00
  0.00000000E+00  0.00000000E+00  0.00000000E+00
  0.00000000E+00  0.00000000E+00  0.00000000E+00
  0.00000000E+00  0.00000000E+00  0.00000000E+00
  0.00000000E+00  0.00000000E+00  0.00000000E+00
  0.00000000E+00  0.00000000E+00  0.00000000E+00
  0.00000000E+00  0.00000000E+00  0.00000000E+00
  0.00000000E+00  0.00000000E+00  0.00000000E+00
  0.00000000E+00  0.00000000E+00  0.00000000E+00
  0.00000000E+00  0.00000000E+00  0.00000000E+00
  0.00000000E+00  0.00000000E+00  0.00000000E+00
  0.00000000E+00  0.00000000E+00  0.00000000E+00
  0.00000000E+00  0.00000000E+00  0.00000000E+00
  0.00000000E+00  0.00000000E+00  0.00000000E+00
  0.00000000E+00  0.00000000E+00  0.00000000E+00
  0.00000000E+00  0.00000000E+00  0.00000000E+00
  0.00000000E+00  0.00000000E+00  0.00000000E+00
  0.00000000E+00  0.00000000E+00  0.00000000E+00
  0.00000000E+00  0.00000000E+00  0.00000000E+00
  0.00000000E+00  0.00000000E+00  0.00000000E+00
  0.00000000E+00  0.00000000E+00  0.00000000E+00
  0.00000000E+00  0.00000000E+00  0.00000000E+00
  0.00000000E+00  0.00000000E+00  0.00000000E+00
  0.00000000E+00  0.00000000E+00  0.00000000E+00
  0.00000000E+00  0.00000000E+00  0.00000000E+00
  0.00000000E+00  0.00000000E+00  0.00000000E+00
  0.00000000E+00  0.00000000E+00  0.00000000E+00
  0.00000000E+00  0.00000000E+00  0.00000000E+00
  0.00000000E+00  0.00000000E+00  0.00000000E+00
  0.00000000E+00  0.00000000E+00  0.00000000E+00
  0.00000000E+00  0.00000000E+00  0.00000000E+00
  0.00000000E+00  0.00000000E+00  0.00000000E+00
  0.00000000E+00  0.00000000E+00  0.00000000E+00
  0.00000000E+00  0.00000000E+00  0.00000000E+00
  0.00000000E+00  0.00000000E+00  0.00000000E+00
  0.00000000E+00  0.00000000E+00  0.00000000E+00
  0.00000000E+00  0.00000000E+00  0.00000000E+00
  0.00000000E+00  0.00000000E+00  0.00000000E+00
  0.00000000E+00  0.00000000E+00  0.00000000E+00
  0.00000000E+00  0.00000000E+00  0.00000000E+00
  0.00000000E+00  0.00000000E+00  0.00000000E+00
  0.00000000E+00  0.00000000E+00  0.00000000E+00
  0.00000000E+00  0.00000000E+00  0.00000000E+00
  0.00000000E+00  0.00000000E+00  0.00000000E+00
  0.00000000E+00  0.00000000E+00  0.00000000E+00
  0.00000000E+00  0.00000000E+00  0.00000000E+00
  0.00000000E+00  0.00000000E+00  0.00000000E+00
  0.00000000E+00  0.00000000E+00  0.00000000E+00
  0.00000000E+00  0.00000000E+00  0.00000000E+00
  0.00000000E+00  0.00000000E+00  0.00000000E+00
  0.00000000E+00  0.00000000E+00  0.00000000E+00
  0.00000000E+00  0.00000000E+00  0.00000000E+00
  0.00000000E+00  0.00000000E+00  0.00000000E+00
  0.00000000E+00  0.00000000E+00  0.00000000E+00
  0.00000000E+00  0.00000000E+00  0.00000000E+00
  0.00000000E+00  0.00000000E+00  0.00000000E+00
  0.00000000E+00  0.00000000E+00  0.00000000E+00
  0.00000000E+00  0.00000000E+00  0.00000000E+00
  0.00000000E+00  0.00000000E+00  0.00000000E+00
  0.00000000E+00  0.00000000E+00  0.00000000E+00
  0.00000000E+00  0.00000000E+00  0.00000000E+00
  0.00000000E+00  0.00000000E+00  0.00000000E+00
  0.00000000E+00  0.00000000E+00  0.00000000E+00
  0.00000000E+00  0.00000000E+00  0.00000000E+00
  0.00000000E+00  0.00000000E+00  0.00000000E+00
  0.00000000E+00  0.00000000E+00  0.00000000E+00
  0.00000000E+00  0.00000000E+00  0.00000000E+00
  0.00000000E+00  0.00000000E+00  0.00000000E+00
  0.00000000E+00  0.00000000E+00  0.00000000E+00
  0.00000000E+00  0.00000000E+00  0.00000000E+00
  0.00000000E+00  0.00000000E+00  0.00000000E+00
  0.00000000E+00  0.00000000E+00  0.00000000E+00
  0.00000000E+00  0.00000000E+00  0.00000000E+00
  0.00000000E+00  0.00000000E+00  0.00000000E+00
  0.00000000E+00  0.00000000E+00  0.00000000E+00
  0.00000000E+00  0.00000000E+00  0.00000000E+00
  0.00000000E+00  0.00000000E+00  0.00000000E+00
  0.00000000E+00  0.00000000E+00  0.00000000E+00
  0.00000000E+00  0.00000000E+00  0.00000000E+00
  0.00000000E+00  0.00000000E+00  0.00000000E+00
  0.00000000E+00  0.00000000E+00  0.00000000E+00
  0.00000000E+00  0.00000000E+00  0.00000000E+00
