SrTiFeO                                 
   1.00000000000000     
    11.1989999999999998    0.0000000000000000    0.0000000000000000
     0.0000000000000000   11.1989999999999998    0.0000000000000000
     0.0000000000000000    0.0000000000000000   15.9830000000000005
   Sr   Ti   Fe   O 
    32    30     2    94
Direct
  0.9992474860330290  0.2497819681434707  0.1249355660514396
  0.0015387968164511  0.2487832227804349  0.6237124766872578
  0.9983110331964781  0.7506516527748858  0.1259150486314344
  0.9977126458415952  0.7495318563200956  0.6223404703017309
  0.4993133374803743  0.2457815431047522  0.1232717134813246
  0.5008444311925471  0.2474920471326560  0.6241002225260799
  0.5011486620105956  0.7541466981994633  0.1235461028556066
  0.4994288201415925  0.7523712016170772  0.6277943710888192
  0.0006656924703506  0.2475396175355849  0.3762087249259801
  1.0000758150716014  0.2494974950301142  0.8749002890294550
  0.9983765245157166  0.7505369665423457  0.3778573365277959
  0.9985765647113853  0.7502596253509105  0.8743488303350258
  0.5015792895520480  0.2422892038600372  0.3773644365034479
  0.4998378973565331  0.2501289968997842  0.8733482101752157
  0.4992212578573549  0.7636042248434854  0.3724994748237788
  0.4992759183726656  0.7524561007089525  0.8759702880146319
  0.2491704450101183  0.0002088447207248  0.1251397548541796
  0.2490614470199739  0.0006486246410501  0.6238450359682903
  0.2458154185680543  0.5001444764468830  0.1230233941161775
  0.2475204937254203  0.4980336957225957  0.6247561469368498
  0.7498282634745956  0.9980198297088978  0.1253788885776110
  0.7506954288404442  0.9998611786730537  0.6232267720428177
  0.7535449142800138  0.5003355020665399  0.1231314747048604
  0.7563965575375300  0.4971584930130853  0.6286784320943365
  0.2478316926444808  0.0007400578409403  0.3761134549094809
  0.2493043436176202  0.0001553631500577  0.8746236595823836
  0.2399487057099787  0.4983111211612340  0.3746331403474754
  0.2499727953597969  0.5000132622581928  0.8741773063437244
  0.7517464617657738  0.9984761726128348  0.3773837501979910
  0.7506638926751174  0.9986929316021655  0.8750309408702398
  0.7646773954213112  0.4966438961434551  0.3727521527550203
  0.7504544316153384  0.5017663507690643  0.8747671875273354
  0.9995474585003166  0.9994995208977183  0.0005039357444026
  0.0001852535866239 -0.0000722168606667  0.5004501471936712
  0.0000899320943731  0.4997483679130818  0.9994319021995465
  0.9996254303785510  0.5004407308100005  0.5005749808023328
  0.4999545114482709  0.0003429462331295  0.9995612086397503
  0.5000030564534522  0.9980044163011473  0.5009434115788612
  0.4992582003012774  0.4994298355730200  0.9944307103529341
  0.2505319870461263  0.2506768187024087  0.9998986151211571
  0.2499890980661712  0.2499504033293762  0.4988575920482526
  0.2500279079920973  0.7496294831277923  0.9999572079330546
  0.2536972562766197  0.7488924928603526  0.4990201495578719
  0.7496182614633319  0.2500510201682103  0.9997801090504709
  0.7498706213057378  0.7498181726979984  1.0000175290800657
  0.2495004901512263  0.2493289186125880  0.2507224731945146
  0.2509271146515986  0.2502950581593943  0.7494143085529188
  0.2494525534946821  0.7501409915650382  0.2506439994363647
  0.2502817816479317  0.7493160368960737  0.7496045687162219
  0.7498200885242744  0.2488820971183103  0.2505707165053801
  0.7497937072019355  0.2499898116263737  0.7500742737258056
  0.7492753200837964  0.7484537259903984  0.2531699990026483
  0.7485116429998957  0.7490432136300718  0.7487227779353861
  0.9999277406180745  0.9999229541105106  0.2497530297710945
 -0.0000183252622083  0.9993147829456025  0.7490221756162061
  0.0007330530552294  0.4999340280997917  0.2488097765759029
  0.0010865787932679  0.5000516623104798  0.7502103179748235
  0.4999061389947405  0.0010422860631325  0.2494401562764160
  0.5002081689124874  0.0004475953275443  0.7500924133486452
  0.4991028398809496  0.4992138175110728  0.2395839802636369
  0.5022619473551079  0.5018063699158033  0.7478563925473368
  0.7499678940741327  0.2530212920155553  0.4989693865914363
  0.4903111803952774  0.4947837941808373  0.5066947807884866
  0.7533871666323105  0.7557432191235304  0.5012067337954486
  0.1093390255107821  0.1402166891599204  0.2447364609288425
  0.1099215986989997  0.1412709746369447  0.7513941221488631
  0.1101083495591314  0.6396502739302845  0.2497766092121367
  0.1093172929565092  0.6414212709746168  0.7497933998005368
  0.6091446321263947  0.1406625800311727  0.2488220068430782
  0.6084643193729724  0.1420306950508825  0.7501264626027386
  0.6043352022653532  0.6350656494024145  0.2563566554367798
  0.6088919713204262  0.6418293767868709  0.7615361870210785
  0.3919974721451493  0.3634176472240022  0.2625125330854053
  0.3926228169367518  0.3601115732900543  0.7459327643643360
  0.3893699917816138  0.8603282511585262  0.2485232958580222
  0.3906684350809628  0.8597119474071574  0.7507533626680633
  0.8883751076602673  0.3609356009089100  0.2509788789584165
  0.8910297243253960  0.3591630305819147  0.7483344804593043
  0.8889241385044435  0.8590631517831072  0.2522138375166823
  0.8904016385573712  0.8592296591482353  0.7469664631318841
  0.3602312997897544  0.1106219529663509  0.2488406353877964
  0.3591683146804863  0.1099242212450602  0.7509189346226508
  0.3626816467656930  0.6068005255681741  0.2601779432091256
  0.3589632803970378  0.6086565009422684  0.7501235057140946
  0.8587839153863945  0.1092292684675241  0.2472948609306495
  0.8585097592200496  0.1095628260666672  0.7484669896928468
  0.8603726129263811  0.6084757701652097  0.2468250832577322
  0.8604589022010162  0.6082691412130441  0.7522228255066202
  0.1401709850022292  0.3898756642418040  0.2481536940457959
  0.1420058704251973  0.3914759514237849  0.7507363466253494
  0.1399003794190676  0.8895606162970354  0.2473557870482025
  0.1411946312758415  0.8902041181540654  0.7492252034468262
  0.6358132302975208  0.3923382850647444  0.2606356132076003
  0.6424200095528296  0.3912309013110680  0.7538541790563862
  0.6383298497685500  0.8892093703985248  0.2507325688728104
  0.6404696596144279  0.8922041546702668  0.7504137618989032
  0.3584184692070525  0.3918723169438421  0.0003698375507740
  0.3593314172099805  0.8904737037678957  0.0008438490491403
  0.3572494667051692  0.8925205625457955  0.4996903350019285
  0.8591932328744087  0.3905660097304219  0.9998280086053265
  0.8594706877835063  0.8902605722072346  0.0023871591640349
  0.8649550179263078  0.8978865103333596  0.4997393457094644
  0.1406667755454367  0.1100046610265089  0.0010746614090955
  0.1402608624717021  0.1098978686339941  0.5015195383906682
  0.1408007317640071  0.6089481249202309  0.9996906181055141
  0.1416786639425358  0.6097241269637985  0.4998813245822586
  0.6408149508704358  0.1095066211405983  0.0010615378961458
  0.6363359624511555  0.1159000186955295  0.4996800317988341
  0.6397045100038320  0.6080701837975252  0.9992604689767209
  0.1094149973582861  0.3588927767125231  0.0008040916850782
  0.1096014959471018  0.3594120121921711  0.4997215607261689
  0.1100564731333165  0.8588709386901719  0.0013555436926375
  0.1107953682363437  0.8587514445798513  0.5011340948645394
  0.6082574913971133  0.3588405319664878  0.9994371048530355
  0.6089787134660987  0.8598057163382808  0.0001019091078079
  0.6036088165093396  0.8603518487224134  0.5016765795451630
  0.3908789332188854  0.1408753175292350  0.9997230598651460
  0.3892069260352892  0.1400439196794158  0.5002903354725005
  0.3915950019184837  0.6406746100667876  1.0000547327914262
  0.8901435590428164  0.1407405772030687  0.0016600678030047
  0.8893152992231196  0.1422456176640222  0.5018603572185519
  0.8906363564418923  0.6397310904589216  0.0013083970895990
  0.9986137225934683  0.9977131121507922  0.1247046552885975
  0.0024652724887156  0.0024214961355408  0.6261522110343887
  0.0008521099892179  0.4984861360080973  0.1243889852781210
  0.0027700679424685  0.5002270001309165  0.6257683461847585
  0.5001565530015440  0.0003253944354893  0.1246626235704954
  0.4986621714720015  0.0026812619800142  0.6259255628880126
  0.4979547766417280  0.4968227978105174  0.1244849677264595
  0.5190647424421635  0.5139619483339962  0.6285422029233716
  0.0034797209873673  0.0038324296299563  0.3734466516959836
  0.9987483031271068  0.9987869990172402  0.8754014032705097
  0.0012524974217373  0.4994417723000658  0.3738685952193485
  0.0009033090799745  0.4987250070065611  0.8753175235619535
  0.4991309564534912  0.0011530778803447  0.3743698451465303
  0.4999675163769817  0.0006716955305510  0.8754472423903557
  0.4957081560426462  0.4962079295030267  0.8754701548236646
  0.2411520871958665  0.2414015477508090  0.3729547003084345
  0.2518989517100180  0.2519861955805513  0.8751760557086140
  0.2456073107404862  0.7545823581296968  0.3742103542612918
  0.2500250112104569  0.7502692860855741  0.8753339968708945
  0.7517775195636043  0.2482469473448071  0.8754131011049038
  0.7541967080906180  0.7534167868983128  0.8771511033450028
  0.2567310929606868  0.2543251451320074  0.1256279350638564
  0.2511032490105936  0.2526364256604933  0.6248239069703151
  0.2536092063449161  0.7440684008091867  0.1259594711703121
  0.2551116598295132  0.7461849277228276  0.6241256068369487
  0.7463745120613590  0.2559421102546510  0.1260574309950266
  0.7427551202135274  0.2549609644250886  0.6241149737401220
  0.7446200239594204  0.7469393499469971  0.1258191887194722
  0.7383470621839383  0.7372742498789803  0.6291016004979479
  0.7549766576970836  0.2435205810353079  0.3740293611307458
  0.8640889525748686  0.3868215032703765  0.5004665669858919
  0.4001867332072152  0.6444833514521976  0.4900195063626466
  0.3552772745881413  0.3864340233083803  0.4874125230331275
  0.8850166940080967  0.6301168657966371  0.4995200184308335
  0.7446615524323559  0.7391185550207766  0.3726007552651180
  0.6193735831444617  0.3789911761320259  0.4854760549729355
 
  0.00000000E+00  0.00000000E+00  0.00000000E+00
  0.00000000E+00  0.00000000E+00  0.00000000E+00
  0.00000000E+00  0.00000000E+00  0.00000000E+00
  0.00000000E+00  0.00000000E+00  0.00000000E+00
  0.00000000E+00  0.00000000E+00  0.00000000E+00
  0.00000000E+00  0.00000000E+00  0.00000000E+00
  0.00000000E+00  0.00000000E+00  0.00000000E+00
  0.00000000E+00  0.00000000E+00  0.00000000E+00
  0.00000000E+00  0.00000000E+00  0.00000000E+00
  0.00000000E+00  0.00000000E+00  0.00000000E+00
  0.00000000E+00  0.00000000E+00  0.00000000E+00
  0.00000000E+00  0.00000000E+00  0.00000000E+00
  0.00000000E+00  0.00000000E+00  0.00000000E+00
  0.00000000E+00  0.00000000E+00  0.00000000E+00
  0.00000000E+00  0.00000000E+00  0.00000000E+00
  0.00000000E+00  0.00000000E+00  0.00000000E+00
  0.00000000E+00  0.00000000E+00  0.00000000E+00
  0.00000000E+00  0.00000000E+00  0.00000000E+00
  0.00000000E+00  0.00000000E+00  0.00000000E+00
  0.00000000E+00  0.00000000E+00  0.00000000E+00
  0.00000000E+00  0.00000000E+00  0.00000000E+00
  0.00000000E+00  0.00000000E+00  0.00000000E+00
  0.00000000E+00  0.00000000E+00  0.00000000E+00
  0.00000000E+00  0.00000000E+00  0.00000000E+00
  0.00000000E+00  0.00000000E+00  0.00000000E+00
  0.00000000E+00  0.00000000E+00  0.00000000E+00
  0.00000000E+00  0.00000000E+00  0.00000000E+00
  0.00000000E+00  0.00000000E+00  0.00000000E+00
  0.00000000E+00  0.00000000E+00  0.00000000E+00
  0.00000000E+00  0.00000000E+00  0.00000000E+00
  0.00000000E+00  0.00000000E+00  0.00000000E+00
  0.00000000E+00  0.00000000E+00  0.00000000E+00
  0.00000000E+00  0.00000000E+00  0.00000000E+00
  0.00000000E+00  0.00000000E+00  0.00000000E+00
  0.00000000E+00  0.00000000E+00  0.00000000E+00
  0.00000000E+00  0.00000000E+00  0.00000000E+00
  0.00000000E+00  0.00000000E+00  0.00000000E+00
  0.00000000E+00  0.00000000E+00  0.00000000E+00
  0.00000000E+00  0.00000000E+00  0.00000000E+00
  0.00000000E+00  0.00000000E+00  0.00000000E+00
  0.00000000E+00  0.00000000E+00  0.00000000E+00
  0.00000000E+00  0.00000000E+00  0.00000000E+00
  0.00000000E+00  0.00000000E+00  0.00000000E+00
  0.00000000E+00  0.00000000E+00  0.00000000E+00
  0.00000000E+00  0.00000000E+00  0.00000000E+00
  0.00000000E+00  0.00000000E+00  0.00000000E+00
  0.00000000E+00  0.00000000E+00  0.00000000E+00
  0.00000000E+00  0.00000000E+00  0.00000000E+00
  0.00000000E+00  0.00000000E+00  0.00000000E+00
  0.00000000E+00  0.00000000E+00  0.00000000E+00
  0.00000000E+00  0.00000000E+00  0.00000000E+00
  0.00000000E+00  0.00000000E+00  0.00000000E+00
  0.00000000E+00  0.00000000E+00  0.00000000E+00
  0.00000000E+00  0.00000000E+00  0.00000000E+00
  0.00000000E+00  0.00000000E+00  0.00000000E+00
  0.00000000E+00  0.00000000E+00  0.00000000E+00
  0.00000000E+00  0.00000000E+00  0.00000000E+00
  0.00000000E+00  0.00000000E+00  0.00000000E+00
  0.00000000E+00  0.00000000E+00  0.00000000E+00
  0.00000000E+00  0.00000000E+00  0.00000000E+00
  0.00000000E+00  0.00000000E+00  0.00000000E+00
  0.00000000E+00  0.00000000E+00  0.00000000E+00
  0.00000000E+00  0.00000000E+00  0.00000000E+00
  0.00000000E+00  0.00000000E+00  0.00000000E+00
  0.00000000E+00  0.00000000E+00  0.00000000E+00
  0.00000000E+00  0.00000000E+00  0.00000000E+00
  0.00000000E+00  0.00000000E+00  0.00000000E+00
  0.00000000E+00  0.00000000E+00  0.00000000E+00
  0.00000000E+00  0.00000000E+00  0.00000000E+00
  0.00000000E+00  0.00000000E+00  0.00000000E+00
  0.00000000E+00  0.00000000E+00  0.00000000E+00
  0.00000000E+00  0.00000000E+00  0.00000000E+00
  0.00000000E+00  0.00000000E+00  0.00000000E+00
  0.00000000E+00  0.00000000E+00  0.00000000E+00
  0.00000000E+00  0.00000000E+00  0.00000000E+00
  0.00000000E+00  0.00000000E+00  0.00000000E+00
  0.00000000E+00  0.00000000E+00  0.00000000E+00
  0.00000000E+00  0.00000000E+00  0.00000000E+00
  0.00000000E+00  0.00000000E+00  0.00000000E+00
  0.00000000E+00  0.00000000E+00  0.00000000E+00
  0.00000000E+00  0.00000000E+00  0.00000000E+00
  0.00000000E+00  0.00000000E+00  0.00000000E+00
  0.00000000E+00  0.00000000E+00  0.00000000E+00
  0.00000000E+00  0.00000000E+00  0.00000000E+00
  0.00000000E+00  0.00000000E+00  0.00000000E+00
  0.00000000E+00  0.00000000E+00  0.00000000E+00
  0.00000000E+00  0.00000000E+00  0.00000000E+00
  0.00000000E+00  0.00000000E+00  0.00000000E+00
  0.00000000E+00  0.00000000E+00  0.00000000E+00
  0.00000000E+00  0.00000000E+00  0.00000000E+00
  0.00000000E+00  0.00000000E+00  0.00000000E+00
  0.00000000E+00  0.00000000E+00  0.00000000E+00
  0.00000000E+00  0.00000000E+00  0.00000000E+00
  0.00000000E+00  0.00000000E+00  0.00000000E+00
  0.00000000E+00  0.00000000E+00  0.00000000E+00
  0.00000000E+00  0.00000000E+00  0.00000000E+00
  0.00000000E+00  0.00000000E+00  0.00000000E+00
  0.00000000E+00  0.00000000E+00  0.00000000E+00
  0.00000000E+00  0.00000000E+00  0.00000000E+00
  0.00000000E+00  0.00000000E+00  0.00000000E+00
  0.00000000E+00  0.00000000E+00  0.00000000E+00
  0.00000000E+00  0.00000000E+00  0.00000000E+00
  0.00000000E+00  0.00000000E+00  0.00000000E+00
  0.00000000E+00  0.00000000E+00  0.00000000E+00
  0.00000000E+00  0.00000000E+00  0.00000000E+00
  0.00000000E+00  0.00000000E+00  0.00000000E+00
  0.00000000E+00  0.00000000E+00  0.00000000E+00
  0.00000000E+00  0.00000000E+00  0.00000000E+00
  0.00000000E+00  0.00000000E+00  0.00000000E+00
  0.00000000E+00  0.00000000E+00  0.00000000E+00
  0.00000000E+00  0.00000000E+00  0.00000000E+00
  0.00000000E+00  0.00000000E+00  0.00000000E+00
  0.00000000E+00  0.00000000E+00  0.00000000E+00
  0.00000000E+00  0.00000000E+00  0.00000000E+00
  0.00000000E+00  0.00000000E+00  0.00000000E+00
  0.00000000E+00  0.00000000E+00  0.00000000E+00
  0.00000000E+00  0.00000000E+00  0.00000000E+00
  0.00000000E+00  0.00000000E+00  0.00000000E+00
  0.00000000E+00  0.00000000E+00  0.00000000E+00
  0.00000000E+00  0.00000000E+00  0.00000000E+00
  0.00000000E+00  0.00000000E+00  0.00000000E+00
  0.00000000E+00  0.00000000E+00  0.00000000E+00
  0.00000000E+00  0.00000000E+00  0.00000000E+00
  0.00000000E+00  0.00000000E+00  0.00000000E+00
  0.00000000E+00  0.00000000E+00  0.00000000E+00
  0.00000000E+00  0.00000000E+00  0.00000000E+00
  0.00000000E+00  0.00000000E+00  0.00000000E+00
  0.00000000E+00  0.00000000E+00  0.00000000E+00
  0.00000000E+00  0.00000000E+00  0.00000000E+00
  0.00000000E+00  0.00000000E+00  0.00000000E+00
  0.00000000E+00  0.00000000E+00  0.00000000E+00
  0.00000000E+00  0.00000000E+00  0.00000000E+00
  0.00000000E+00  0.00000000E+00  0.00000000E+00
  0.00000000E+00  0.00000000E+00  0.00000000E+00
  0.00000000E+00  0.00000000E+00  0.00000000E+00
  0.00000000E+00  0.00000000E+00  0.00000000E+00
  0.00000000E+00  0.00000000E+00  0.00000000E+00
  0.00000000E+00  0.00000000E+00  0.00000000E+00
  0.00000000E+00  0.00000000E+00  0.00000000E+00
  0.00000000E+00  0.00000000E+00  0.00000000E+00
  0.00000000E+00  0.00000000E+00  0.00000000E+00
  0.00000000E+00  0.00000000E+00  0.00000000E+00
  0.00000000E+00  0.00000000E+00  0.00000000E+00
  0.00000000E+00  0.00000000E+00  0.00000000E+00
  0.00000000E+00  0.00000000E+00  0.00000000E+00
  0.00000000E+00  0.00000000E+00  0.00000000E+00
  0.00000000E+00  0.00000000E+00  0.00000000E+00
  0.00000000E+00  0.00000000E+00  0.00000000E+00
  0.00000000E+00  0.00000000E+00  0.00000000E+00
  0.00000000E+00  0.00000000E+00  0.00000000E+00
  0.00000000E+00  0.00000000E+00  0.00000000E+00
  0.00000000E+00  0.00000000E+00  0.00000000E+00
  0.00000000E+00  0.00000000E+00  0.00000000E+00
  0.00000000E+00  0.00000000E+00  0.00000000E+00
  0.00000000E+00  0.00000000E+00  0.00000000E+00
  0.00000000E+00  0.00000000E+00  0.00000000E+00
  0.00000000E+00  0.00000000E+00  0.00000000E+00
  0.00000000E+00  0.00000000E+00  0.00000000E+00
