SrTiFeO                                 
   1.00000000000000     
    11.1989999999999998    0.0000000000000000    0.0000000000000000
     0.0000000000000000   11.1989999999999998    0.0000000000000000
     0.0000000000000000    0.0000000000000000   15.9830000000000005
   Sr   Ti   Fe   O 
    32    30     2    94
Direct
  0.9972498754013254  0.2500062261547640  0.1255655025463067
  0.0074260247807752  0.2501830359587007  0.6262016004549087
  0.0002935396552411  0.7511896206648840  0.1254609087616683
  0.9979961587545744  0.7489785834814361  0.6243065215290083
  0.5002890667711709  0.2471266346157726  0.1230186537608504
  0.4953942200204144  0.2433642904937870  0.6293664650123516
  0.5006881351684070  0.7545609213096992  0.1233953230728846
  0.5006944098706968  0.7500645491923129  0.6231729142423156
  0.0057198565825372  0.2484053347074328  0.3732922017395885
  0.9991597603366561  0.2499020981150804  0.8753597979263886
  0.9985976634955329  0.7513652200786217  0.3755907021925474
  0.9997328748947067  0.7505224031999679  0.8746800643638917
  0.4948328117489389  0.2373703896540617  0.3725154986402742
  0.5018122266469376  0.2489488015441624  0.8750769590851482
  0.5022698923617142  0.7584698671307679  0.3755961606282175
  0.5002651986900497  0.7501004962017135  0.8738643275217440
  0.2489244864593226  0.0005675101894679  0.1253184327237868
  0.2496689461061925  0.9981344936629970  0.6242930439529030
  0.2458963805278732  0.5007958203512134  0.1235270444714370
  0.2491028238391633  0.4988907423581396  0.6242560755655554
  0.7512032004696472  0.0026013225907356  0.1263968659313217
  0.7488128983928617  0.9914582674006260  0.6247066995678016
  0.7532334883499898  0.4996428612160456  0.1236693832802019
  0.7511194138258818  0.5047040848944613  0.6262442537829375
  0.2480765409039627  0.9993515822365473  0.3750731563239213
  0.2491839959991707  0.9996143932699652  0.8750318604697119
  0.2419574482121123  0.4983697351197318  0.3763576770735813
  0.2502995436942621  0.5002782617416501  0.8734643386289311
  0.7500216864930368  0.9938951538348143  0.3760254879130857
  0.7510805548853781  0.0007764288446107  0.8747200176032551
  0.7625996917583158  0.5051403300923361  0.3736369489468111
  0.7513596560402189  0.5012695492495530  0.8758445923756503
  0.9993254871189455  0.0006898714087864  0.0005635192899432
  0.0027903905474951  0.9930960962543246  0.5006750908255323
  0.0001600732809967  0.5000009859610894  0.9995806992301650
  0.9990734323071012  0.5023237192297965  0.5008829340606508
  0.4997871654232605  1.0000219628526650  0.9995096226148660
  0.5000951792240577  0.9981943943202601  0.5008245861788190
  0.4994366279701611  0.5007293714960200  0.9944862838519786
  0.2501334790127454  0.2503835868234502  0.9998910876640327
  0.2525673860655848  0.2498575005728901  0.4988813081953541
  0.2506714958171423  0.7495862680503024  0.9999746642489856
  0.2516555526271683  0.7484658896681231  0.4988675967665138
  0.7499571407783937  0.2500893515754516  0.0012999411647054
  0.7496644868139866  0.7500385290306311  0.9999964880971306
  0.2498111972782854  0.2501051482245265  0.2499234439443856
  0.2509752829604180  0.2501505116594137  0.7507837295886499
  0.2491672824102934  0.7513428348699247  0.2514125572861866
  0.2505192954574046  0.7489572743681633  0.7491665337170782
  0.7465492121196843  0.2534669555117202  0.2538086710723431
  0.7494586821270730  0.2512341746039231  0.7504622206925584
  0.7501061757844564  0.7502877458950333  0.2509769952805916
  0.7493863854749201  0.7489977954204985  0.7489193718185493
  0.9977845800176951  0.0011479396332929  0.2498459379116295
  0.9997065015330640  0.9999283100202974  0.7491222390021097
  0.0004349792627110  0.4999823261088501  0.2494517529722576
  0.0004146015126288  0.4996954445030956  0.7500198433748276
  0.5004818844810338  0.9997606060760112  0.2492309064908313
  0.5000993520821569  0.9986675914212110  0.7502841168179669
  0.4987652301416319  0.5019503436492584  0.2400214691379448
  0.5014233610962529  0.4980359929476770  0.7477601427437262
  0.7624666459169931  0.2422529692103633  0.5019510839098517
  0.4956771452338922  0.5073272687166828  0.5052355301636676
  0.7487641016545837  0.7457144279399583  0.4986638775793417
  0.1107073534492782  0.1404193677331584  0.2464167399555163
  0.1103628630154819  0.1409512727381342  0.7490511977241875
  0.1112974616162346  0.6387222159114702  0.2493826788106394
  0.1096743961247787  0.6403584815803781  0.7499565530458842
  0.6077739370092305  0.1399435515878558  0.2490674564242186
  0.6091167061701679  0.1398729838025095  0.7500519075246681
  0.6062930489695312  0.6396960035298896  0.2575656608477180
  0.6085647863294821  0.6402438295304727  0.7500833584146442
  0.3901728471109196  0.3648236481349912  0.2600466942255064
  0.3910721144969542  0.3573768669525733  0.7544245798494489
  0.3903014885513215  0.8603747709779602  0.2499268343109408
  0.3912359703780148  0.8580799014725379  0.7496448612821235
  0.8897336541367429  0.3621813960856513  0.2527318416287100
  0.8917480740309720  0.3585459789159098  0.7481153292284548
  0.8904563875643803  0.8595902633039805  0.2474995204212184
  0.8898027582023388  0.8598340657798145  0.7490624294954419
  0.3611698121832567  0.1116273149374032  0.2511701868437008
  0.3593931364746474  0.1091549720820952  0.7482488994266755
  0.3634256678879234  0.6091354293688801  0.2640745694050985
  0.3594570428599377  0.6073294041110787  0.7463715597978851
  0.8619386641113508  0.1079225170064675  0.2547425108396836
  0.8586350707067191  0.1105916850476642  0.7438260738396436
  0.8608259972086242  0.6105381310521875  0.2478360559735434
  0.8602472374640013  0.6089982216211013  0.7507431461274184
  0.1396092728485599  0.3894827393023372  0.2492111339365479
  0.1415519024113656  0.3905930621946485  0.7497179244119997
  0.1406047775846417  0.8897763315570849  0.2454177734197008
  0.1407545498741233  0.8899173436059948  0.7502683610502765
  0.6319134388419314  0.3989445840299523  0.2600588945116786
  0.6423444282530174  0.3905826079060043  0.7586800092868159
  0.6400157682485720  0.8909136158239530  0.2488906382164964
  0.6404986709685627  0.8903775551472424  0.7513593326279616
  0.3586701102903219  0.3918898967666520  0.9991640841778686
  0.3589220418282936  0.8907669253614166  0.0007477357411937
  0.3594000781236643  0.8910835064409022  0.4996300891660381
  0.8596721681976556  0.3910503742924161  0.9989436876820903
  0.8590751821845918  0.8902209697965979  0.0007878056634916
  0.8612505883959164  0.8927037476560258  0.5009177133927296
  0.1411180783831373  0.1096764799683101  0.0012818770378687
  0.1399133139660154  0.1113477495882616  0.5023189307332590
  0.1408846715440490  0.6089042966795731  0.9996049928324025
  0.1402541268854716  0.6095656223958267  0.5007116398286344
  0.6398580432492706  0.1092188037670032  0.9997634851719406
  0.6337942504223659  0.1209712590538448  0.5028540918844669
  0.6405935000499562  0.6083245502012409  0.0001150277039528
  0.1094613631649491  0.3589843022582170  0.0011037494592528
  0.1137932273731123  0.3621438052606679  0.4994512646713048
  0.1102301178860153  0.8590607741629719  0.0002841229335636
  0.1091842031190885  0.8589409345997664  0.5028965712262998
  0.6080445487789339  0.3601173803444706  0.9977718311464825
  0.6086761261518212  0.8594139753298869  0.9991990678407423
  0.6103447449555850  0.8631248834486784  0.5001031982080444
  0.3908714023705587  0.1411749944992464  0.9998491922346688
  0.3873787813163577  0.1362327296841837  0.5006334870457848
  0.3918292120128610  0.6416204332146566  0.9999566689555927
  0.8911110146757151  0.1404333324647373  0.0002976819015371
  0.8927902102545935  0.1414790335844911  0.5006341836194349
  0.8908302290623001  0.6403725536703617  0.0007878773998016
  0.9981017526301548  0.0009216564462514  0.1240547684062204
  0.0019691131462923 -0.0000372590349024  0.6253772824844537
 -0.0000377917810091  0.4986387298547777  0.1246485357311635
  0.0023128464092973  0.4998081038935125  0.6254739895302879
  0.4989155677558196  0.0002713921226153  0.1245281386496154
  0.5000783380778260  0.9977307300039453  0.6256786061299545
  0.4971707721863325  0.5005409207915276  0.1242490675472998
  0.5092910786863414  0.4824503151206471  0.6286349587848770
  0.0051844857831177  0.9981842840497669  0.3755611252755473
  0.9984328983687724  0.0015310989308478  0.8742997789583707
  0.0013103565918017  0.4999643060100254  0.3750153412025110
  0.0007030659975889  0.4990739935600029  0.8749013190284354
  0.5016024736430922  0.0005743198785996  0.3749466320730739
  0.4977953950325097  0.0001389536583670  0.8748749609325196
  0.4969199631656196  0.5038595720644705  0.8750575663498767
  0.2431908347754573  0.2441635359770442  0.3739374211360967
  0.2484902423419276  0.2483210273909726  0.8754841648473655
  0.2397710244336089  0.7591901774325249  0.3743064427851406
  0.2517505635594403  0.7483768483373776  0.8746945568904139
  0.7541934045760929  0.2453756883392553  0.8741042732393813
  0.7506474642480483  0.7490682177962391  0.8754663353272770
  0.2565706857681772  0.2536172243252814  0.1257663040513257
  0.2545308113728609  0.2571612411832529  0.6243139395840132
  0.2548457131794239  0.7434376385922131  0.1258780966133486
  0.2526887061335688  0.7487700629241286  0.6243445748852473
  0.7485465427360231  0.2531661785514225  0.1228351753528984
  0.7336091815693480  0.2655278242615029  0.6223835367012898
  0.7448650671507909  0.7470516993929318  0.1251492569063978
  0.7464247479597961  0.7467368570357696  0.6258644707265968
  0.7333279826200086  0.2632816308724769  0.3845448185715405
  0.8560819563343178  0.3920700133638049  0.5022189392395380
  0.3857992698214747  0.6445589416577541  0.4883682794032834
  0.3762088228978425  0.3811237314863297  0.4854328930244630
  0.8927336575894247  0.6391709274772939  0.4998703343133729
  0.7543027811242072  0.7548004831662397  0.3726241485514425
  0.6417473397196736  0.5981233081841808  0.4891514704202894
 
  0.00000000E+00  0.00000000E+00  0.00000000E+00
  0.00000000E+00  0.00000000E+00  0.00000000E+00
  0.00000000E+00  0.00000000E+00  0.00000000E+00
  0.00000000E+00  0.00000000E+00  0.00000000E+00
  0.00000000E+00  0.00000000E+00  0.00000000E+00
  0.00000000E+00  0.00000000E+00  0.00000000E+00
  0.00000000E+00  0.00000000E+00  0.00000000E+00
  0.00000000E+00  0.00000000E+00  0.00000000E+00
  0.00000000E+00  0.00000000E+00  0.00000000E+00
  0.00000000E+00  0.00000000E+00  0.00000000E+00
  0.00000000E+00  0.00000000E+00  0.00000000E+00
  0.00000000E+00  0.00000000E+00  0.00000000E+00
  0.00000000E+00  0.00000000E+00  0.00000000E+00
  0.00000000E+00  0.00000000E+00  0.00000000E+00
  0.00000000E+00  0.00000000E+00  0.00000000E+00
  0.00000000E+00  0.00000000E+00  0.00000000E+00
  0.00000000E+00  0.00000000E+00  0.00000000E+00
  0.00000000E+00  0.00000000E+00  0.00000000E+00
  0.00000000E+00  0.00000000E+00  0.00000000E+00
  0.00000000E+00  0.00000000E+00  0.00000000E+00
  0.00000000E+00  0.00000000E+00  0.00000000E+00
  0.00000000E+00  0.00000000E+00  0.00000000E+00
  0.00000000E+00  0.00000000E+00  0.00000000E+00
  0.00000000E+00  0.00000000E+00  0.00000000E+00
  0.00000000E+00  0.00000000E+00  0.00000000E+00
  0.00000000E+00  0.00000000E+00  0.00000000E+00
  0.00000000E+00  0.00000000E+00  0.00000000E+00
  0.00000000E+00  0.00000000E+00  0.00000000E+00
  0.00000000E+00  0.00000000E+00  0.00000000E+00
  0.00000000E+00  0.00000000E+00  0.00000000E+00
  0.00000000E+00  0.00000000E+00  0.00000000E+00
  0.00000000E+00  0.00000000E+00  0.00000000E+00
  0.00000000E+00  0.00000000E+00  0.00000000E+00
  0.00000000E+00  0.00000000E+00  0.00000000E+00
  0.00000000E+00  0.00000000E+00  0.00000000E+00
  0.00000000E+00  0.00000000E+00  0.00000000E+00
  0.00000000E+00  0.00000000E+00  0.00000000E+00
  0.00000000E+00  0.00000000E+00  0.00000000E+00
  0.00000000E+00  0.00000000E+00  0.00000000E+00
  0.00000000E+00  0.00000000E+00  0.00000000E+00
  0.00000000E+00  0.00000000E+00  0.00000000E+00
  0.00000000E+00  0.00000000E+00  0.00000000E+00
  0.00000000E+00  0.00000000E+00  0.00000000E+00
  0.00000000E+00  0.00000000E+00  0.00000000E+00
  0.00000000E+00  0.00000000E+00  0.00000000E+00
  0.00000000E+00  0.00000000E+00  0.00000000E+00
  0.00000000E+00  0.00000000E+00  0.00000000E+00
  0.00000000E+00  0.00000000E+00  0.00000000E+00
  0.00000000E+00  0.00000000E+00  0.00000000E+00
  0.00000000E+00  0.00000000E+00  0.00000000E+00
  0.00000000E+00  0.00000000E+00  0.00000000E+00
  0.00000000E+00  0.00000000E+00  0.00000000E+00
  0.00000000E+00  0.00000000E+00  0.00000000E+00
  0.00000000E+00  0.00000000E+00  0.00000000E+00
  0.00000000E+00  0.00000000E+00  0.00000000E+00
  0.00000000E+00  0.00000000E+00  0.00000000E+00
  0.00000000E+00  0.00000000E+00  0.00000000E+00
  0.00000000E+00  0.00000000E+00  0.00000000E+00
  0.00000000E+00  0.00000000E+00  0.00000000E+00
  0.00000000E+00  0.00000000E+00  0.00000000E+00
  0.00000000E+00  0.00000000E+00  0.00000000E+00
  0.00000000E+00  0.00000000E+00  0.00000000E+00
  0.00000000E+00  0.00000000E+00  0.00000000E+00
  0.00000000E+00  0.00000000E+00  0.00000000E+00
  0.00000000E+00  0.00000000E+00  0.00000000E+00
  0.00000000E+00  0.00000000E+00  0.00000000E+00
  0.00000000E+00  0.00000000E+00  0.00000000E+00
  0.00000000E+00  0.00000000E+00  0.00000000E+00
  0.00000000E+00  0.00000000E+00  0.00000000E+00
  0.00000000E+00  0.00000000E+00  0.00000000E+00
  0.00000000E+00  0.00000000E+00  0.00000000E+00
  0.00000000E+00  0.00000000E+00  0.00000000E+00
  0.00000000E+00  0.00000000E+00  0.00000000E+00
  0.00000000E+00  0.00000000E+00  0.00000000E+00
  0.00000000E+00  0.00000000E+00  0.00000000E+00
  0.00000000E+00  0.00000000E+00  0.00000000E+00
  0.00000000E+00  0.00000000E+00  0.00000000E+00
  0.00000000E+00  0.00000000E+00  0.00000000E+00
  0.00000000E+00  0.00000000E+00  0.00000000E+00
  0.00000000E+00  0.00000000E+00  0.00000000E+00
  0.00000000E+00  0.00000000E+00  0.00000000E+00
  0.00000000E+00  0.00000000E+00  0.00000000E+00
  0.00000000E+00  0.00000000E+00  0.00000000E+00
  0.00000000E+00  0.00000000E+00  0.00000000E+00
  0.00000000E+00  0.00000000E+00  0.00000000E+00
  0.00000000E+00  0.00000000E+00  0.00000000E+00
  0.00000000E+00  0.00000000E+00  0.00000000E+00
  0.00000000E+00  0.00000000E+00  0.00000000E+00
  0.00000000E+00  0.00000000E+00  0.00000000E+00
  0.00000000E+00  0.00000000E+00  0.00000000E+00
  0.00000000E+00  0.00000000E+00  0.00000000E+00
  0.00000000E+00  0.00000000E+00  0.00000000E+00
  0.00000000E+00  0.00000000E+00  0.00000000E+00
  0.00000000E+00  0.00000000E+00  0.00000000E+00
  0.00000000E+00  0.00000000E+00  0.00000000E+00
  0.00000000E+00  0.00000000E+00  0.00000000E+00
  0.00000000E+00  0.00000000E+00  0.00000000E+00
  0.00000000E+00  0.00000000E+00  0.00000000E+00
  0.00000000E+00  0.00000000E+00  0.00000000E+00
  0.00000000E+00  0.00000000E+00  0.00000000E+00
  0.00000000E+00  0.00000000E+00  0.00000000E+00
  0.00000000E+00  0.00000000E+00  0.00000000E+00
  0.00000000E+00  0.00000000E+00  0.00000000E+00
  0.00000000E+00  0.00000000E+00  0.00000000E+00
  0.00000000E+00  0.00000000E+00  0.00000000E+00
  0.00000000E+00  0.00000000E+00  0.00000000E+00
  0.00000000E+00  0.00000000E+00  0.00000000E+00
  0.00000000E+00  0.00000000E+00  0.00000000E+00
  0.00000000E+00  0.00000000E+00  0.00000000E+00
  0.00000000E+00  0.00000000E+00  0.00000000E+00
  0.00000000E+00  0.00000000E+00  0.00000000E+00
  0.00000000E+00  0.00000000E+00  0.00000000E+00
  0.00000000E+00  0.00000000E+00  0.00000000E+00
  0.00000000E+00  0.00000000E+00  0.00000000E+00
  0.00000000E+00  0.00000000E+00  0.00000000E+00
  0.00000000E+00  0.00000000E+00  0.00000000E+00
  0.00000000E+00  0.00000000E+00  0.00000000E+00
  0.00000000E+00  0.00000000E+00  0.00000000E+00
  0.00000000E+00  0.00000000E+00  0.00000000E+00
  0.00000000E+00  0.00000000E+00  0.00000000E+00
  0.00000000E+00  0.00000000E+00  0.00000000E+00
  0.00000000E+00  0.00000000E+00  0.00000000E+00
  0.00000000E+00  0.00000000E+00  0.00000000E+00
  0.00000000E+00  0.00000000E+00  0.00000000E+00
  0.00000000E+00  0.00000000E+00  0.00000000E+00
  0.00000000E+00  0.00000000E+00  0.00000000E+00
  0.00000000E+00  0.00000000E+00  0.00000000E+00
  0.00000000E+00  0.00000000E+00  0.00000000E+00
  0.00000000E+00  0.00000000E+00  0.00000000E+00
  0.00000000E+00  0.00000000E+00  0.00000000E+00
  0.00000000E+00  0.00000000E+00  0.00000000E+00
  0.00000000E+00  0.00000000E+00  0.00000000E+00
  0.00000000E+00  0.00000000E+00  0.00000000E+00
  0.00000000E+00  0.00000000E+00  0.00000000E+00
  0.00000000E+00  0.00000000E+00  0.00000000E+00
  0.00000000E+00  0.00000000E+00  0.00000000E+00
  0.00000000E+00  0.00000000E+00  0.00000000E+00
  0.00000000E+00  0.00000000E+00  0.00000000E+00
  0.00000000E+00  0.00000000E+00  0.00000000E+00
  0.00000000E+00  0.00000000E+00  0.00000000E+00
  0.00000000E+00  0.00000000E+00  0.00000000E+00
  0.00000000E+00  0.00000000E+00  0.00000000E+00
  0.00000000E+00  0.00000000E+00  0.00000000E+00
  0.00000000E+00  0.00000000E+00  0.00000000E+00
  0.00000000E+00  0.00000000E+00  0.00000000E+00
  0.00000000E+00  0.00000000E+00  0.00000000E+00
  0.00000000E+00  0.00000000E+00  0.00000000E+00
  0.00000000E+00  0.00000000E+00  0.00000000E+00
  0.00000000E+00  0.00000000E+00  0.00000000E+00
  0.00000000E+00  0.00000000E+00  0.00000000E+00
  0.00000000E+00  0.00000000E+00  0.00000000E+00
  0.00000000E+00  0.00000000E+00  0.00000000E+00
  0.00000000E+00  0.00000000E+00  0.00000000E+00
  0.00000000E+00  0.00000000E+00  0.00000000E+00
  0.00000000E+00  0.00000000E+00  0.00000000E+00
  0.00000000E+00  0.00000000E+00  0.00000000E+00
  0.00000000E+00  0.00000000E+00  0.00000000E+00
  0.00000000E+00  0.00000000E+00  0.00000000E+00
