Sr   Ti   Fe   O                        
   1.00000000000000     
    11.1989999999999998    0.0000000000000000    0.0000000000000000
     0.0000000000000000   11.1989999999999998    0.0000000000000000
     0.0000000000000000    0.0000000000000000   15.9830000000000005
   Sr   Ti   Fe   O 
    32    29     3    95
Direct
  0.9987144555213083  0.2504413509432679  0.1249459510968650
  0.0020859299280033  0.2508499672101330  0.6244210964464075
  0.9982251021635862  0.7502353187354420  0.1255747498137798
  1.0010708463927012  0.7482115909072266  0.6243404240458698
  0.5004937742066411  0.2507619154752175  0.1249757808575070
  0.4976579215062439  0.2458654395235443  0.6268342535464158
  0.5004264870910590  0.7501278036493513  0.1246154470090415
  0.4991177356433967  0.7532274273911681  0.6271105275343430
  0.0020859299280033  0.2508499672101330  0.3755789035535926
  0.9987144555213083  0.2504413509432679  0.8750540489031291
  1.0010708463927012  0.7482115909072266  0.3756595759541296
  0.9982251021635862  0.7502353187354420  0.8744252501862200
  0.4976579215062439  0.2458654395235443  0.3731657464535831
  0.5004937742066411  0.2507619154752175  0.8750242191424932
  0.4991177356433967  0.7532274273911681  0.3728894724656577
  0.5004264870910590  0.7501278036493513  0.8753845529909582
  0.2497448237814050  1.0000324830387985  0.1249406796334682
  0.2506261090909008  0.9992724442846233  0.6248100076813278
  0.2502055087106889  0.5004927523610313  0.1248505942599208
  0.2507039174914331  0.4982745928185414  0.6245871606166515
  0.7498067399669562  0.0002696589500740  0.1255692111848585
  0.7484612874250578  0.0016691895745148  0.6241557866225454
  0.7498400592382403  0.5005734566744625  0.1246950750661403
  0.7570857924046783  0.4978595144536585  0.6292344982500151
  0.2506261090909008  0.9992724442846233  0.3751899923186723
  0.2497448237814050  1.0000324830387985  0.8750593203665320
  0.2507039174914331  0.4982745928185414  0.3754128393833481
  0.2502055087106889  0.5004927523610313  0.8751494057400793
  0.7484612874250578  0.0016691895745148  0.3758442133774546
  0.7498067399669562  0.0002696589500740  0.8744307888151405
  0.7570857924046783  0.4978595144536585  0.3707655017499846
  0.7498400592382403  0.5005734566744625  0.8753049249338597
  0.9994154497492611 -0.0000063962356158  0.0000000000000000
  0.0032362050903850  0.9995923261140598  0.5000000000000000
  0.0000706883048111  0.4998670389529890  0.0000000000000000
  0.9983984956708802  0.5004971100827817  0.5000000000000000
  0.4997783731386625  0.0001706872841870  0.0000000000000000
  0.5017635202362248  0.9991809729446227  0.5000000000000000
  0.4993768409107349  0.5002819937239197  0.0000000000000000
  0.2500117961643884  0.2502018975618437  0.0000000000000000
  0.2508947122663285  0.2485796550771699  0.5000000000000000
  0.2496874683702268  0.7500346548584772  0.0000000000000000
  0.2511356487334524  0.7500524887014660  0.5000000000000000
  0.7500769768971964  0.2498965582790366  0.0000000000000000
  0.7498313751952734  0.7506296964628066  0.0000000000000000
  0.2495555502505937  0.2497187146788875  0.2497777736992871
  0.2495555502505937  0.2497187146788875  0.7502222263007127
  0.2494789830518726  0.7498724990171312  0.2499024728320675
  0.2494789830518726  0.7498724990171312  0.7500975271679329
  0.7490219015735707  0.2505082622005324  0.2520408597198301
  0.7490219015735707  0.2505082622005324  0.7479591402801694
  0.7494620503851449  0.7494606823116569  0.2522771308927836
  0.7494620503851449  0.7494606823116569  0.7477228691072170
  0.9998454863851751  1.0000485335383364  0.2507397757167107
  0.9998454863851751  1.0000485335383364  0.7492602242832898
  0.0011890279238276  0.5001320373030919  0.2496435710720686
  0.0011890279238276  0.5001320373030919  0.7503564289279319
  0.4998421323838568  0.9997623078071493  0.2496615861742950
  0.4998421323838568  0.9997623078071493  0.7503384138257059
  0.4993023108075685  0.5002765898725527  0.2504511074930877
  0.4993023108075685  0.5002765898725527  0.7495488925069114
  0.7625857056824915  0.2434030135129445  0.5000000000000000
  0.4893058817058106  0.5030628917052321  0.5000000000000000
  0.7598506619880172  0.7609027356093465  0.5000000000000000
  0.1085465291358599  0.1410923858252832  0.2486716624217261
  0.1085465291358599  0.1410923858252832  0.7513283375782733
  0.1093234520334581  0.6411454898411247  0.2491038561736788
  0.1093234520334581  0.6411454898411247  0.7508961438263211
  0.6085360929991768  0.1406728853735773  0.2495358391342057
  0.6085360929991768  0.1406728853735773  0.7504641608657949
  0.6081751584735497  0.6396862897360654  0.2490368520511033
  0.6081751584735497  0.6396862897360654  0.7509631479488962
  0.3906755310684932  0.3588874066852814  0.2511097623145128
  0.3906755310684932  0.3588874066852814  0.7488902376854869
  0.3902784940129428  0.8594390302640800  0.2494638863726419
  0.3902784940129428  0.8594390302640800  0.7505361136273577
  0.8900195052796153  0.3602175553249867  0.2515712966460809
  0.8900195052796153  0.3602175553249867  0.7484287033539184
  0.8891125180696493  0.8595722804723156  0.2536671664604009
  0.8891125180696493  0.8595722804723156  0.7463328335395997
  0.3593011915870827  0.1094610354789868  0.2506878457238866
  0.3593011915870827  0.1094610354789868  0.7493121542761126
  0.3586019809655962  0.6092466424633738  0.2508469310301056
  0.3586019809655962  0.6092466424633738  0.7491530689698956
  0.8582990728442853  0.1103374837925656  0.2537809514755709
  0.8582990728442853  0.1103374837925656  0.7462190485244300
  0.8609833731969256  0.6108162778547609  0.2480095212645740
  0.8609833731969256  0.6108162778547609  0.7519904787354269
  0.1412230187296860  0.3909597426965961  0.2495818149409199
  0.1412230187296860  0.3909597426965961  0.7504181850590806
  0.1401678658480744  0.8908020505937231  0.2486754402755877
  0.1401678658480744  0.8908020505937231  0.7513245597244126
  0.6389586009346939  0.3914022347418645  0.2484442643559154
  0.6389586009346939  0.3914022347418645  0.7515557356440843
  0.6403915971167266  0.8906169285656675  0.2512012596413638
  0.6403915971167266  0.8906169285656675  0.7487987403586365
  0.3589013721880576  0.3910544731780403  0.0000000000000000
  0.3587843454277968  0.8910927943882815  0.0000000000000000
  0.3587513948172347  0.8914115807709370  0.5000000000000000
  0.8590498978048435  0.3908531467648171  0.0000000000000000
  0.8587642236837580  0.8910723808379273  0.0000000000000000
  0.8609923315685953  0.8952198325484300  0.5000000000000000
  0.1404607836034972  0.1088233551890233  0.0000000000000000
  0.1421722830670584  0.1088513454356796  0.5000000000000000
  0.1406915714292917  0.6089616153638312  0.0000000000000000
  0.1435159278829347  0.6094278036660143  0.5000000000000000
  0.6407400180775755  0.1092590925944271  0.0000000000000000
  0.6337642810053161  0.1194133903194607  0.5000000000000000
  0.6400641160366358  0.6092263915528121  0.0000000000000000
  0.1091123288677372  0.3586711013664704  0.0000000000000000
  0.1150698840216208  0.3615171698005556  0.5000000000000000
  0.1086913764848650  0.8594445743202830  0.0000000000000000
  0.1096442915207908  0.8580772354080545  0.5000000000000000
  0.6090068500994574  0.3597941104186360  0.0000000000000000
  0.6087579559025591  0.8594697844647807  0.0000000000000000
  0.6085183809070235  0.8572745204737500  0.5000000000000000
  0.3909400594864971  0.1409935680831801  0.0000000000000000
  0.3884802024165033  0.1376510663016993  0.5000000000000000
  0.3908619744483262  0.6410215734398504  0.0000000000000000
  0.8910318074855784  0.1410872986210924  0.0000000000000000
  0.8948418173721675  0.1384639962528814  0.5000000000000000
  0.8905076244854130  0.6406924797122959  0.0000000000000000
  0.9967791575000294  0.9997201044170306  0.1255476392295677
  0.0038760706749284  0.0000588199793787  0.6250402396739146
  0.0002517295278482  0.4987710487002722  0.1247775152077163
  0.0021923976394967  0.5012756784323333  0.6257448098140531
  0.4996716370307324  0.9997612849523935  0.1249877602835991
  0.4999772399895261  0.0000090735246631  0.6254091941816160
  0.4972454258969159  0.5000383087530703  0.1255084235605030
  0.4930779472956735  0.5007751724259392  0.6214163722629825
  0.0038760706749284  0.0000588199793787  0.3749597603260857
  0.9967791575000294  0.9997201044170306  0.8744523607704322
  0.0021923976394967  0.5012756784323333  0.3742551901859468
  0.0002517295278482  0.4987710487002722  0.8752224847922836
  0.4999772399895261  0.0000090735246631  0.3745908058183843
  0.4996716370307324  0.9997612849523935  0.8750122397164013
  0.4972454258969159  0.5000383087530703  0.8744915764394969
  0.2485990097378006  0.2491668699912928  0.3745267473898231
  0.2510663121914984  0.2500759072731219  0.8751054531651138
  0.2492471224376148  0.7509809925139733  0.3746352925106939
  0.2504956420096964  0.7493195531242112  0.8752504129694696
  0.7509192315756547  0.2494870826965596  0.8745877780344172
  0.7496008918250707  0.7512206909902770  0.8746896203561060
  0.2510663121914984  0.2500759072731219  0.1248945468348852
  0.2485990097378006  0.2491668699912928  0.6254732526101775
  0.2504956420096964  0.7493195531242112  0.1247495870305292
  0.2492471224376148  0.7509809925139733  0.6253647074893062
  0.7509192315756547  0.2494870826965596  0.1254122219655827
  0.7400651099366903  0.2572080260733688  0.6233431680465761
  0.7496008918250707  0.7512206909902770  0.1253103796438947
  0.7423076725524920  0.7404275478283475  0.6230867325949736
  0.7400651099366903  0.2572080260733688  0.3766568319534238
  0.8673294780698498  0.3860765415672096  0.5000000000000000
  0.3973678245362410  0.6473143476295699  0.5000000000000000
  0.4930779472956735  0.5007751724259392  0.3785836277370169
  0.3698338912542066  0.3811802951086375  0.5000000000000000
  0.8887707753922786  0.6381908415447536  0.5000000000000000
  0.7423076725524920  0.7404275478283475  0.3769132674050267
  0.6455321938603866  0.4864978446446787  0.5000000000000000
 
  0.00000000E+00  0.00000000E+00  0.00000000E+00
  0.00000000E+00  0.00000000E+00  0.00000000E+00
  0.00000000E+00  0.00000000E+00  0.00000000E+00
  0.00000000E+00  0.00000000E+00  0.00000000E+00
  0.00000000E+00  0.00000000E+00  0.00000000E+00
  0.00000000E+00  0.00000000E+00  0.00000000E+00
  0.00000000E+00  0.00000000E+00  0.00000000E+00
  0.00000000E+00  0.00000000E+00  0.00000000E+00
  0.00000000E+00  0.00000000E+00  0.00000000E+00
  0.00000000E+00  0.00000000E+00  0.00000000E+00
  0.00000000E+00  0.00000000E+00  0.00000000E+00
  0.00000000E+00  0.00000000E+00  0.00000000E+00
  0.00000000E+00  0.00000000E+00  0.00000000E+00
  0.00000000E+00  0.00000000E+00  0.00000000E+00
  0.00000000E+00  0.00000000E+00  0.00000000E+00
  0.00000000E+00  0.00000000E+00  0.00000000E+00
  0.00000000E+00  0.00000000E+00  0.00000000E+00
  0.00000000E+00  0.00000000E+00  0.00000000E+00
  0.00000000E+00  0.00000000E+00  0.00000000E+00
  0.00000000E+00  0.00000000E+00  0.00000000E+00
  0.00000000E+00  0.00000000E+00  0.00000000E+00
  0.00000000E+00  0.00000000E+00  0.00000000E+00
  0.00000000E+00  0.00000000E+00  0.00000000E+00
  0.00000000E+00  0.00000000E+00  0.00000000E+00
  0.00000000E+00  0.00000000E+00  0.00000000E+00
  0.00000000E+00  0.00000000E+00  0.00000000E+00
  0.00000000E+00  0.00000000E+00  0.00000000E+00
  0.00000000E+00  0.00000000E+00  0.00000000E+00
  0.00000000E+00  0.00000000E+00  0.00000000E+00
  0.00000000E+00  0.00000000E+00  0.00000000E+00
  0.00000000E+00  0.00000000E+00  0.00000000E+00
  0.00000000E+00  0.00000000E+00  0.00000000E+00
  0.00000000E+00  0.00000000E+00  0.00000000E+00
  0.00000000E+00  0.00000000E+00  0.00000000E+00
  0.00000000E+00  0.00000000E+00  0.00000000E+00
  0.00000000E+00  0.00000000E+00  0.00000000E+00
  0.00000000E+00  0.00000000E+00  0.00000000E+00
  0.00000000E+00  0.00000000E+00  0.00000000E+00
  0.00000000E+00  0.00000000E+00  0.00000000E+00
  0.00000000E+00  0.00000000E+00  0.00000000E+00
  0.00000000E+00  0.00000000E+00  0.00000000E+00
  0.00000000E+00  0.00000000E+00  0.00000000E+00
  0.00000000E+00  0.00000000E+00  0.00000000E+00
  0.00000000E+00  0.00000000E+00  0.00000000E+00
  0.00000000E+00  0.00000000E+00  0.00000000E+00
  0.00000000E+00  0.00000000E+00  0.00000000E+00
  0.00000000E+00  0.00000000E+00  0.00000000E+00
  0.00000000E+00  0.00000000E+00  0.00000000E+00
  0.00000000E+00  0.00000000E+00  0.00000000E+00
  0.00000000E+00  0.00000000E+00  0.00000000E+00
  0.00000000E+00  0.00000000E+00  0.00000000E+00
  0.00000000E+00  0.00000000E+00  0.00000000E+00
  0.00000000E+00  0.00000000E+00  0.00000000E+00
  0.00000000E+00  0.00000000E+00  0.00000000E+00
  0.00000000E+00  0.00000000E+00  0.00000000E+00
  0.00000000E+00  0.00000000E+00  0.00000000E+00
  0.00000000E+00  0.00000000E+00  0.00000000E+00
  0.00000000E+00  0.00000000E+00  0.00000000E+00
  0.00000000E+00  0.00000000E+00  0.00000000E+00
  0.00000000E+00  0.00000000E+00  0.00000000E+00
  0.00000000E+00  0.00000000E+00  0.00000000E+00
  0.00000000E+00  0.00000000E+00  0.00000000E+00
  0.00000000E+00  0.00000000E+00  0.00000000E+00
  0.00000000E+00  0.00000000E+00  0.00000000E+00
  0.00000000E+00  0.00000000E+00  0.00000000E+00
  0.00000000E+00  0.00000000E+00  0.00000000E+00
  0.00000000E+00  0.00000000E+00  0.00000000E+00
  0.00000000E+00  0.00000000E+00  0.00000000E+00
  0.00000000E+00  0.00000000E+00  0.00000000E+00
  0.00000000E+00  0.00000000E+00  0.00000000E+00
  0.00000000E+00  0.00000000E+00  0.00000000E+00
  0.00000000E+00  0.00000000E+00  0.00000000E+00
  0.00000000E+00  0.00000000E+00  0.00000000E+00
  0.00000000E+00  0.00000000E+00  0.00000000E+00
  0.00000000E+00  0.00000000E+00  0.00000000E+00
  0.00000000E+00  0.00000000E+00  0.00000000E+00
  0.00000000E+00  0.00000000E+00  0.00000000E+00
  0.00000000E+00  0.00000000E+00  0.00000000E+00
  0.00000000E+00  0.00000000E+00  0.00000000E+00
  0.00000000E+00  0.00000000E+00  0.00000000E+00
  0.00000000E+00  0.00000000E+00  0.00000000E+00
  0.00000000E+00  0.00000000E+00  0.00000000E+00
  0.00000000E+00  0.00000000E+00  0.00000000E+00
  0.00000000E+00  0.00000000E+00  0.00000000E+00
  0.00000000E+00  0.00000000E+00  0.00000000E+00
  0.00000000E+00  0.00000000E+00  0.00000000E+00
  0.00000000E+00  0.00000000E+00  0.00000000E+00
  0.00000000E+00  0.00000000E+00  0.00000000E+00
  0.00000000E+00  0.00000000E+00  0.00000000E+00
  0.00000000E+00  0.00000000E+00  0.00000000E+00
  0.00000000E+00  0.00000000E+00  0.00000000E+00
  0.00000000E+00  0.00000000E+00  0.00000000E+00
  0.00000000E+00  0.00000000E+00  0.00000000E+00
  0.00000000E+00  0.00000000E+00  0.00000000E+00
  0.00000000E+00  0.00000000E+00  0.00000000E+00
  0.00000000E+00  0.00000000E+00  0.00000000E+00
  0.00000000E+00  0.00000000E+00  0.00000000E+00
  0.00000000E+00  0.00000000E+00  0.00000000E+00
  0.00000000E+00  0.00000000E+00  0.00000000E+00
  0.00000000E+00  0.00000000E+00  0.00000000E+00
  0.00000000E+00  0.00000000E+00  0.00000000E+00
  0.00000000E+00  0.00000000E+00  0.00000000E+00
  0.00000000E+00  0.00000000E+00  0.00000000E+00
  0.00000000E+00  0.00000000E+00  0.00000000E+00
  0.00000000E+00  0.00000000E+00  0.00000000E+00
  0.00000000E+00  0.00000000E+00  0.00000000E+00
  0.00000000E+00  0.00000000E+00  0.00000000E+00
  0.00000000E+00  0.00000000E+00  0.00000000E+00
  0.00000000E+00  0.00000000E+00  0.00000000E+00
  0.00000000E+00  0.00000000E+00  0.00000000E+00
  0.00000000E+00  0.00000000E+00  0.00000000E+00
  0.00000000E+00  0.00000000E+00  0.00000000E+00
  0.00000000E+00  0.00000000E+00  0.00000000E+00
  0.00000000E+00  0.00000000E+00  0.00000000E+00
  0.00000000E+00  0.00000000E+00  0.00000000E+00
  0.00000000E+00  0.00000000E+00  0.00000000E+00
  0.00000000E+00  0.00000000E+00  0.00000000E+00
  0.00000000E+00  0.00000000E+00  0.00000000E+00
  0.00000000E+00  0.00000000E+00  0.00000000E+00
  0.00000000E+00  0.00000000E+00  0.00000000E+00
  0.00000000E+00  0.00000000E+00  0.00000000E+00
  0.00000000E+00  0.00000000E+00  0.00000000E+00
  0.00000000E+00  0.00000000E+00  0.00000000E+00
  0.00000000E+00  0.00000000E+00  0.00000000E+00
  0.00000000E+00  0.00000000E+00  0.00000000E+00
  0.00000000E+00  0.00000000E+00  0.00000000E+00
  0.00000000E+00  0.00000000E+00  0.00000000E+00
  0.00000000E+00  0.00000000E+00  0.00000000E+00
  0.00000000E+00  0.00000000E+00  0.00000000E+00
  0.00000000E+00  0.00000000E+00  0.00000000E+00
  0.00000000E+00  0.00000000E+00  0.00000000E+00
  0.00000000E+00  0.00000000E+00  0.00000000E+00
  0.00000000E+00  0.00000000E+00  0.00000000E+00
  0.00000000E+00  0.00000000E+00  0.00000000E+00
  0.00000000E+00  0.00000000E+00  0.00000000E+00
  0.00000000E+00  0.00000000E+00  0.00000000E+00
  0.00000000E+00  0.00000000E+00  0.00000000E+00
  0.00000000E+00  0.00000000E+00  0.00000000E+00
  0.00000000E+00  0.00000000E+00  0.00000000E+00
  0.00000000E+00  0.00000000E+00  0.00000000E+00
  0.00000000E+00  0.00000000E+00  0.00000000E+00
  0.00000000E+00  0.00000000E+00  0.00000000E+00
  0.00000000E+00  0.00000000E+00  0.00000000E+00
  0.00000000E+00  0.00000000E+00  0.00000000E+00
  0.00000000E+00  0.00000000E+00  0.00000000E+00
  0.00000000E+00  0.00000000E+00  0.00000000E+00
  0.00000000E+00  0.00000000E+00  0.00000000E+00
  0.00000000E+00  0.00000000E+00  0.00000000E+00
  0.00000000E+00  0.00000000E+00  0.00000000E+00
  0.00000000E+00  0.00000000E+00  0.00000000E+00
  0.00000000E+00  0.00000000E+00  0.00000000E+00
  0.00000000E+00  0.00000000E+00  0.00000000E+00
  0.00000000E+00  0.00000000E+00  0.00000000E+00
  0.00000000E+00  0.00000000E+00  0.00000000E+00
  0.00000000E+00  0.00000000E+00  0.00000000E+00
  0.00000000E+00  0.00000000E+00  0.00000000E+00
  0.00000000E+00  0.00000000E+00  0.00000000E+00
  0.00000000E+00  0.00000000E+00  0.00000000E+00
  0.00000000E+00  0.00000000E+00  0.00000000E+00
