SrTiFeO                                 
   1.00000000000000     
    11.1989999999999998    0.0000000000000000    0.0000000000000000
     0.0000000000000000   11.1989999999999998    0.0000000000000000
     0.0000000000000000    0.0000000000000000   15.9830000000000005
   Sr   Ti   Fe   O 
    32    29     3    95
Direct
  0.9987702100082616  0.2505252006274906  0.1250354815168227
  0.0018223315836190  0.2507761656124807  0.6250744083258385
  0.9988974151435444  0.7501631689764772  0.1254422404098934
  0.9980975259484053  0.7488747567989036  0.6240532871251867
  0.5011113863781493  0.2499076110069770  0.1249041819791154
  0.4965982056620847  0.2454263173948996  0.6272338651269789
  0.5010852992211591  0.7503315766769620  0.1250381793885196
  0.5013543707947554  0.7516160530377961  0.6242477754816461
  0.0018223315836190  0.2507761656124807  0.3749255916741615
  0.9987702100082616  0.2505252006274906  0.8749645184831701
  0.9980975259484053  0.7488747567989036  0.3759467128748133
  0.9988974151435444  0.7501631689764772  0.8745577595901066
  0.4965982056620847  0.2454263173948996  0.3727661348730211
  0.5011113863781493  0.2499076110069770  0.8750958180208845
  0.5013543707947554  0.7516160530377961  0.3757522245183538
  0.5010852992211591  0.7503315766769620  0.8749618206114804
  0.2501346509590155  0.0002210144965806  0.1249177438047379
  0.2498208831955391  0.9986950542710260  0.6249411331870741
  0.2501932777438034  0.5006640373086555  0.1256197675420239
  0.2493730063735301  0.4981307580676645  0.6228794579796153
  0.7500553019548204  0.0011632166855239  0.1257335592667586
  0.7476615818024357  0.9976459582836823  0.6235613777677436
  0.7509534138931578  0.5004150070356641  0.1244982005510185
  0.7518322253567808  0.5026664788209279  0.6262348756985806
  0.2498208831955391  0.9986950542710260  0.3750588668129258
  0.2501346509590155  0.0002210144965806  0.8750822561952621
  0.2493730063735301  0.4981307580676645  0.3771205420203846
  0.2501932777438034  0.5006640373086555  0.8743802324579761
  0.7476615818024357  0.9976459582836823  0.3764386222322564
  0.7500553019548204  0.0011632166855239  0.8742664407332414
  0.7518322253567808  0.5026664788209279  0.3737651243014193
  0.7509534138931578  0.5004150070356641  0.8755017994489815
  0.9994861598240532  0.0005504183655282 -0.0000000000000000
  0.9995226745674675  0.9966156326517366  0.5000000000000000
  0.0003484734882701  0.5000183275566993 -0.0000000000000000
  0.9962429307466845  0.5005512844302418  0.5000000000000000
  0.4997225522737386  0.0000857964939839 -0.0000000000000000
  0.5012794022609920  0.9999276547665081  0.5000000000000000
  0.4994916757063586  0.5006587954137756 -0.0000000000000000
  0.2500744833136201  0.2502356612347558 -0.0000000000000000
  0.2498537218523441  0.2472212251571495  0.5000000000000000
  0.2502730300103934  0.7496536201916514 -0.0000000000000000
  0.2487401109174339  0.7508518654204011  0.5000000000000000
  0.7503359033659970  0.2499431757349715 -0.0000000000000000
  0.7499475559008747  0.7503972902404370 -0.0000000000000000
  0.2495685709790064  0.2501512371270465  0.2497033908705886
  0.2495685709790064  0.2501512371270465  0.7502966091294114
  0.2497838479473620  0.7496944493611262  0.2506503023088809
  0.2497838479473620  0.7496944493611262  0.7493496976911190
  0.7490361656009050  0.2508047607915849  0.2526305937683312
  0.7490361656009050  0.2508047607915849  0.7473694062316688
  0.7495555865384165  0.7501633311563836  0.2516751626463070
  0.7495555865384165  0.7501633311563836  0.7483248373536930
  0.9997879430700666  0.9999978217480843  0.2506666019020889
  0.9997879430700666  0.9999978217480843  0.7493333980979110
  0.0002129409552856  0.5000564659144269  0.2500538529074300
  0.0002129409552856  0.5000564659144269  0.7499461470925700
  0.4997011631448305  0.9993249077215828  0.2498634604494334
  0.4997011631448305  0.9993249077215828  0.7501365395505665
  0.5005444951779271  0.4992838392486407  0.2501890977766926
  0.5005444951779271  0.4992838392486407  0.7498109022233074
  0.7631558536339351  0.2409817727989556  0.5000000000000000
  0.4942785306531985  0.5097379500065957  0.5000000000000000
  0.7504925599835820  0.7513241793351902  0.5000000000000000
  0.1090933623350622  0.1415821403056640  0.2499730442945116
  0.1090933623350622  0.1415821403056640  0.7500269557054884
  0.1094164046674577  0.6409223184868150  0.2496579861809094
  0.1094164046674577  0.6409223184868150  0.7503420138190906
  0.6086905631183235  0.1407302479459495  0.2494676051707995
  0.6086905631183235  0.1407302479459495  0.7505323948292005
  0.6082253777422569  0.6400633644965639  0.2517758654428821
  0.6082253777422569  0.6400633644965639  0.7482241345571179
  0.3913669500012124  0.3590986658974163  0.2504232360593949
  0.3913669500012124  0.3590986658974163  0.7495767639406050
  0.3909591855040340  0.8585793190698877  0.2500119695784772
  0.3909591855040340  0.8585793190698877  0.7499880304215227
  0.8906924263925108  0.3594245139214406  0.2512503544168695
  0.8906924263925108  0.3594245139214406  0.7487496455831306
  0.8903719981808759  0.8601925354109023  0.2503170413356886
  0.8903719981808759  0.8601925354109023  0.7496829586643114
  0.3591453708885396  0.1095659699223238  0.2511959843956027
  0.3591453708885396  0.1095659699223238  0.7488040156043974
  0.3603942013245148  0.6078509652563588  0.2559981353342481
  0.3603942013245148  0.6078509652563588  0.7440018646657519
  0.8585186025370423  0.1106438021402245  0.2552115930675122
  0.8585186025370423  0.1106438021402245  0.7447884069324878
  0.8600315660888049  0.6098391461552145  0.2492168413198711
  0.8600315660888049  0.6098391461552145  0.7507831586801290
  0.1413422640809890  0.3911330116975941  0.2500000810204629
  0.1413422640809890  0.3911330116975941  0.7499999189795370
  0.1409834374341129  0.8910365286632603  0.2479141377240534
  0.1409834374341129  0.8910365286632603  0.7520858622759465
  0.6402732962982478  0.3917141265523603  0.2462217834220135
  0.6402732962982478  0.3917141265523603  0.7537782165779864
  0.6404086941823394  0.8912350700148354  0.2493896958000316
  0.6404086941823394  0.8912350700148354  0.7506103041999684
  0.3591789135857663  0.3914407475495016 -0.0000000000000000
  0.3585652392267619  0.8908963973322208 -0.0000000000000000
  0.3588706868737351  0.8912840077903118  0.5000000000000000
  0.8593197425121348  0.3908264818379641 -0.0000000000000000
  0.8591071849030429  0.8909555382861247 -0.0000000000000000
  0.8604960082088291  0.8925507090418791  0.5000000000000000
  0.1408916623979397  0.1090740993891562 -0.0000000000000000
  0.1426405706284495  0.1105790889872398  0.5000000000000000
  0.1410543736747183  0.6089149746827582 -0.0000000000000000
  0.1397407827409794  0.6107740083208383  0.5000000000000000
  0.6404321179405051  0.1094411271687333 -0.0000000000000000
  0.6336347155778269  0.1202195161647902  0.5000000000000000
  0.6401473898552393  0.6088748750606821 -0.0000000000000000
  0.1092489445305064  0.3588591689759976 -0.0000000000000000
  0.1147073551232460  0.3625792328771524  0.5000000000000000
  0.1092660606484285  0.8592774633662039 -0.0000000000000000
  0.1092941681814403  0.8593473076989068  0.5000000000000000
  0.6089602927852509  0.3601274016606986 -0.0000000000000000
  0.6087661188162545  0.8595642975771373 -0.0000000000000000
  0.6092796576106480  0.8618665866844564  0.5000000000000000
  0.3907245197369481  0.1411646068729892 -0.0000000000000000
  0.3884653024620692  0.1394457540457971  0.5000000000000000
  0.3913653324972753  0.6411889943349158 -0.0000000000000000
  0.8910211678032212  0.1410903720285857 -0.0000000000000000
  0.8962007319893545  0.1396620555148035  0.5000000000000000
  0.8908283480851583  0.6406373650757601 -0.0000000000000000
  0.9975283242758531  0.0020942334820156  0.1253861322393840
  0.0037625153158689  0.9989089737299703  0.6250324321215401
  0.0001313118184254  0.4992067995606532  0.1249592965393078
  0.0013732407712594  0.4999767040981082  0.6252830922562026
  0.4986254733572020  0.0003239107556370  0.1249151183038317
  0.5000122041936069  0.9994838996886003  0.6254112852861229
  0.4971397533903691  0.5023714397450072  0.1260312898311534
  0.5104263186553740  0.4860817318775135  0.6187168380568616
  0.0037625153158689  0.9989089737299703  0.3749675678784599
  0.9975283242758531  0.0020942334820156  0.8746138677606160
  0.0013732407712594  0.4999767040981082  0.3747169077437973
  0.0001313118184254  0.4992067995606532  0.8750407034606922
  0.5000122041936069  0.9994838996886003  0.3745887147138771
  0.4986254733572020  0.0003239107556370  0.8750848816961684
  0.4971397533903691  0.5023714397450072  0.8739687101688466
  0.2504837392284906  0.2520288063771450  0.3751494650915517
  0.2508354207859818  0.2501529926573466  0.8749332789414381
  0.2479244562906101  0.7525428497986018  0.3749998771611157
  0.2522873648472559  0.7470307041113444  0.8745986794504771
  0.7515467099050601  0.2486612988702674  0.8746405088120361
  0.7489559626699849  0.7494515174548593  0.8750530174999974
  0.2508354207859818  0.2501529926573466  0.1250667210585620
  0.2504837392284906  0.2520288063771450  0.6248505349084483
  0.2522873648472559  0.7470307041113444  0.1254013205495230
  0.2479244562906101  0.7525428497986018  0.6250001228388844
  0.7515467099050601  0.2486612988702674  0.1253594911879639
  0.7379025254346452  0.2605611985217686  0.6227236364850296
  0.7489559626699849  0.7494515174548593  0.1249469825000025
  0.7481836409833045  0.7497192493871156  0.6257879215195357
  0.7379025254346452  0.2605611985217686  0.3772763635149703
  0.8568271744841258  0.3915793161133562  0.5000000000000000
  0.3893629384895979  0.6432341931303497  0.5000000000000000
  0.5104263186553740  0.4860817318775135  0.3812831619431383
  0.3768057588109611  0.3872611655738757  0.5000000000000000
  0.8890188374119076  0.6386873506341321  0.5000000000000000
  0.7481836409833045  0.7497192493871156  0.3742120784804643
  0.6375633596438119  0.5930266979773652  0.5000000000000000
 
  0.00000000E+00  0.00000000E+00  0.00000000E+00
  0.00000000E+00  0.00000000E+00  0.00000000E+00
  0.00000000E+00  0.00000000E+00  0.00000000E+00
  0.00000000E+00  0.00000000E+00  0.00000000E+00
  0.00000000E+00  0.00000000E+00  0.00000000E+00
  0.00000000E+00  0.00000000E+00  0.00000000E+00
  0.00000000E+00  0.00000000E+00  0.00000000E+00
  0.00000000E+00  0.00000000E+00  0.00000000E+00
  0.00000000E+00  0.00000000E+00  0.00000000E+00
  0.00000000E+00  0.00000000E+00  0.00000000E+00
  0.00000000E+00  0.00000000E+00  0.00000000E+00
  0.00000000E+00  0.00000000E+00  0.00000000E+00
  0.00000000E+00  0.00000000E+00  0.00000000E+00
  0.00000000E+00  0.00000000E+00  0.00000000E+00
  0.00000000E+00  0.00000000E+00  0.00000000E+00
  0.00000000E+00  0.00000000E+00  0.00000000E+00
  0.00000000E+00  0.00000000E+00  0.00000000E+00
  0.00000000E+00  0.00000000E+00  0.00000000E+00
  0.00000000E+00  0.00000000E+00  0.00000000E+00
  0.00000000E+00  0.00000000E+00  0.00000000E+00
  0.00000000E+00  0.00000000E+00  0.00000000E+00
  0.00000000E+00  0.00000000E+00  0.00000000E+00
  0.00000000E+00  0.00000000E+00  0.00000000E+00
  0.00000000E+00  0.00000000E+00  0.00000000E+00
  0.00000000E+00  0.00000000E+00  0.00000000E+00
  0.00000000E+00  0.00000000E+00  0.00000000E+00
  0.00000000E+00  0.00000000E+00  0.00000000E+00
  0.00000000E+00  0.00000000E+00  0.00000000E+00
  0.00000000E+00  0.00000000E+00  0.00000000E+00
  0.00000000E+00  0.00000000E+00  0.00000000E+00
  0.00000000E+00  0.00000000E+00  0.00000000E+00
  0.00000000E+00  0.00000000E+00  0.00000000E+00
  0.00000000E+00  0.00000000E+00  0.00000000E+00
  0.00000000E+00  0.00000000E+00  0.00000000E+00
  0.00000000E+00  0.00000000E+00  0.00000000E+00
  0.00000000E+00  0.00000000E+00  0.00000000E+00
  0.00000000E+00  0.00000000E+00  0.00000000E+00
  0.00000000E+00  0.00000000E+00  0.00000000E+00
  0.00000000E+00  0.00000000E+00  0.00000000E+00
  0.00000000E+00  0.00000000E+00  0.00000000E+00
  0.00000000E+00  0.00000000E+00  0.00000000E+00
  0.00000000E+00  0.00000000E+00  0.00000000E+00
  0.00000000E+00  0.00000000E+00  0.00000000E+00
  0.00000000E+00  0.00000000E+00  0.00000000E+00
  0.00000000E+00  0.00000000E+00  0.00000000E+00
  0.00000000E+00  0.00000000E+00  0.00000000E+00
  0.00000000E+00  0.00000000E+00  0.00000000E+00
  0.00000000E+00  0.00000000E+00  0.00000000E+00
  0.00000000E+00  0.00000000E+00  0.00000000E+00
  0.00000000E+00  0.00000000E+00  0.00000000E+00
  0.00000000E+00  0.00000000E+00  0.00000000E+00
  0.00000000E+00  0.00000000E+00  0.00000000E+00
  0.00000000E+00  0.00000000E+00  0.00000000E+00
  0.00000000E+00  0.00000000E+00  0.00000000E+00
  0.00000000E+00  0.00000000E+00  0.00000000E+00
  0.00000000E+00  0.00000000E+00  0.00000000E+00
  0.00000000E+00  0.00000000E+00  0.00000000E+00
  0.00000000E+00  0.00000000E+00  0.00000000E+00
  0.00000000E+00  0.00000000E+00  0.00000000E+00
  0.00000000E+00  0.00000000E+00  0.00000000E+00
  0.00000000E+00  0.00000000E+00  0.00000000E+00
  0.00000000E+00  0.00000000E+00  0.00000000E+00
  0.00000000E+00  0.00000000E+00  0.00000000E+00
  0.00000000E+00  0.00000000E+00  0.00000000E+00
  0.00000000E+00  0.00000000E+00  0.00000000E+00
  0.00000000E+00  0.00000000E+00  0.00000000E+00
  0.00000000E+00  0.00000000E+00  0.00000000E+00
  0.00000000E+00  0.00000000E+00  0.00000000E+00
  0.00000000E+00  0.00000000E+00  0.00000000E+00
  0.00000000E+00  0.00000000E+00  0.00000000E+00
  0.00000000E+00  0.00000000E+00  0.00000000E+00
  0.00000000E+00  0.00000000E+00  0.00000000E+00
  0.00000000E+00  0.00000000E+00  0.00000000E+00
  0.00000000E+00  0.00000000E+00  0.00000000E+00
  0.00000000E+00  0.00000000E+00  0.00000000E+00
  0.00000000E+00  0.00000000E+00  0.00000000E+00
  0.00000000E+00  0.00000000E+00  0.00000000E+00
  0.00000000E+00  0.00000000E+00  0.00000000E+00
  0.00000000E+00  0.00000000E+00  0.00000000E+00
  0.00000000E+00  0.00000000E+00  0.00000000E+00
  0.00000000E+00  0.00000000E+00  0.00000000E+00
  0.00000000E+00  0.00000000E+00  0.00000000E+00
  0.00000000E+00  0.00000000E+00  0.00000000E+00
  0.00000000E+00  0.00000000E+00  0.00000000E+00
  0.00000000E+00  0.00000000E+00  0.00000000E+00
  0.00000000E+00  0.00000000E+00  0.00000000E+00
  0.00000000E+00  0.00000000E+00  0.00000000E+00
  0.00000000E+00  0.00000000E+00  0.00000000E+00
  0.00000000E+00  0.00000000E+00  0.00000000E+00
  0.00000000E+00  0.00000000E+00  0.00000000E+00
  0.00000000E+00  0.00000000E+00  0.00000000E+00
  0.00000000E+00  0.00000000E+00  0.00000000E+00
  0.00000000E+00  0.00000000E+00  0.00000000E+00
  0.00000000E+00  0.00000000E+00  0.00000000E+00
  0.00000000E+00  0.00000000E+00  0.00000000E+00
  0.00000000E+00  0.00000000E+00  0.00000000E+00
  0.00000000E+00  0.00000000E+00  0.00000000E+00
  0.00000000E+00  0.00000000E+00  0.00000000E+00
  0.00000000E+00  0.00000000E+00  0.00000000E+00
  0.00000000E+00  0.00000000E+00  0.00000000E+00
  0.00000000E+00  0.00000000E+00  0.00000000E+00
  0.00000000E+00  0.00000000E+00  0.00000000E+00
  0.00000000E+00  0.00000000E+00  0.00000000E+00
  0.00000000E+00  0.00000000E+00  0.00000000E+00
  0.00000000E+00  0.00000000E+00  0.00000000E+00
  0.00000000E+00  0.00000000E+00  0.00000000E+00
  0.00000000E+00  0.00000000E+00  0.00000000E+00
  0.00000000E+00  0.00000000E+00  0.00000000E+00
  0.00000000E+00  0.00000000E+00  0.00000000E+00
  0.00000000E+00  0.00000000E+00  0.00000000E+00
  0.00000000E+00  0.00000000E+00  0.00000000E+00
  0.00000000E+00  0.00000000E+00  0.00000000E+00
  0.00000000E+00  0.00000000E+00  0.00000000E+00
  0.00000000E+00  0.00000000E+00  0.00000000E+00
  0.00000000E+00  0.00000000E+00  0.00000000E+00
  0.00000000E+00  0.00000000E+00  0.00000000E+00
  0.00000000E+00  0.00000000E+00  0.00000000E+00
  0.00000000E+00  0.00000000E+00  0.00000000E+00
  0.00000000E+00  0.00000000E+00  0.00000000E+00
  0.00000000E+00  0.00000000E+00  0.00000000E+00
  0.00000000E+00  0.00000000E+00  0.00000000E+00
  0.00000000E+00  0.00000000E+00  0.00000000E+00
  0.00000000E+00  0.00000000E+00  0.00000000E+00
  0.00000000E+00  0.00000000E+00  0.00000000E+00
  0.00000000E+00  0.00000000E+00  0.00000000E+00
  0.00000000E+00  0.00000000E+00  0.00000000E+00
  0.00000000E+00  0.00000000E+00  0.00000000E+00
  0.00000000E+00  0.00000000E+00  0.00000000E+00
  0.00000000E+00  0.00000000E+00  0.00000000E+00
  0.00000000E+00  0.00000000E+00  0.00000000E+00
  0.00000000E+00  0.00000000E+00  0.00000000E+00
  0.00000000E+00  0.00000000E+00  0.00000000E+00
  0.00000000E+00  0.00000000E+00  0.00000000E+00
  0.00000000E+00  0.00000000E+00  0.00000000E+00
  0.00000000E+00  0.00000000E+00  0.00000000E+00
  0.00000000E+00  0.00000000E+00  0.00000000E+00
  0.00000000E+00  0.00000000E+00  0.00000000E+00
  0.00000000E+00  0.00000000E+00  0.00000000E+00
  0.00000000E+00  0.00000000E+00  0.00000000E+00
  0.00000000E+00  0.00000000E+00  0.00000000E+00
  0.00000000E+00  0.00000000E+00  0.00000000E+00
  0.00000000E+00  0.00000000E+00  0.00000000E+00
  0.00000000E+00  0.00000000E+00  0.00000000E+00
  0.00000000E+00  0.00000000E+00  0.00000000E+00
  0.00000000E+00  0.00000000E+00  0.00000000E+00
  0.00000000E+00  0.00000000E+00  0.00000000E+00
  0.00000000E+00  0.00000000E+00  0.00000000E+00
  0.00000000E+00  0.00000000E+00  0.00000000E+00
  0.00000000E+00  0.00000000E+00  0.00000000E+00
  0.00000000E+00  0.00000000E+00  0.00000000E+00
  0.00000000E+00  0.00000000E+00  0.00000000E+00
  0.00000000E+00  0.00000000E+00  0.00000000E+00
  0.00000000E+00  0.00000000E+00  0.00000000E+00
  0.00000000E+00  0.00000000E+00  0.00000000E+00
  0.00000000E+00  0.00000000E+00  0.00000000E+00
  0.00000000E+00  0.00000000E+00  0.00000000E+00
  0.00000000E+00  0.00000000E+00  0.00000000E+00
  0.00000000E+00  0.00000000E+00  0.00000000E+00
  0.00000000E+00  0.00000000E+00  0.00000000E+00
