Sr   Ti   Fe   O                        
   1.00000000000000     
    11.1989999999999998    0.0000000000000000    0.0000000000000000
     0.0000000000000000   11.1989999999999998    0.0000000000000000
     0.0000000000000000    0.0000000000000000   15.9830000000000005
   Sr   Ti   Fe   O 
    32    31     1    94
Direct
  0.9993341201619828  0.2507733269657422  0.1246784174062512
  0.0055140689267148  0.2481975456047962  0.6250878566513620
  0.9983751222989454  0.7500703992652618  0.1251384350935609
  0.0069297459772599  0.7522888540796089  0.6280341121849418
  0.4999781475834837  0.2512703785222214  0.1246851516316099
  0.4964543128157430  0.2489326998404877  0.6274355766919228
  0.4989562459072019  0.7488091803466048  0.1240984185890568
  0.4961651916019747  0.7505128392608285  0.6278207416242481
  0.0055140689267148  0.2481975456047962  0.3749121433486309
  0.9993341201619828  0.2507733269657422  0.8753215825937559
  0.0069297459772599  0.7522888540796089  0.3719658878150511
  0.9983751222989454  0.7500703992652618  0.8748615649064320
  0.4964543128157430  0.2489326998404877  0.3725644233080629
  0.4999781475834837  0.2512703785222214  0.8753148483683901
  0.4961651916019747  0.7505128392608285  0.3721792583757590
  0.4989562459072019  0.7488091803466048  0.8759015814109361
  0.2492170009659702  0.0002308389608814  0.1249862112676965
  0.2495674172527274  0.0013704337442917  0.6247487011954789
  0.2502969017129928  0.4995212907640791  0.1250824949633653
  0.2581580371678385  0.5008362517778977  0.6227214711434286
  0.7492789506989865  0.9997040186709754  0.1257961408340051
  0.7492303178920920  0.0025191090668244  0.6233555527471211
  0.7487088628081722  0.5005407428834374  0.1227300793979040
  0.7539312479041484  0.4945496397611322  0.6347972190954323
  0.2495674172527274  0.0013704337442917  0.3752512988045282
  0.2492170009659702  0.0002308389608814  0.8750137887323106
  0.2581580371678385  0.5008362517778977  0.3772785288565714
  0.2502969017129928  0.4995212907640791  0.8749175050366418
  0.7492303178920920  0.0025191090668244  0.3766444472528647
  0.7492789506989865  0.9997040186709754  0.8742038591659806
  0.7539312479041484  0.4945496397611322  0.3652027809045748
  0.7487088628081722  0.5005407428834374  0.8772699206020818
  0.9988777553684898  0.0000020642547298  0.0000000000000000
  0.0029319195542783  0.9970591228421029  0.5000000000000000
  0.0006078548053239  0.4993959250062971  0.0000000000000000
  0.0078047907950491  0.4948526741291275  0.5000000000000000
  0.4999513435094727  0.9996986681650668  0.0000000000000000
  0.4993954699129404  0.0001289713378370  0.5000000000000000
  0.4988977033269535  0.5001720419557785  0.0000000000000000
  0.2493644940890789  0.2499182923876333  0.0000000000000000
  0.2558152900483108  0.2502148610080539  0.5000000000000000
  0.2491495490146747  0.7506443206655504  0.0000000000000000
  0.2532052972622623  0.7509252892989053  0.5000000000000000
  0.7504085474683890  0.2492626655528625  0.0000000000000000
  0.7493584341371147  0.7512633780875433  0.0000000000000000
  0.2498347467838187  0.2501758004850743  0.2497024941135280
  0.2498347467838187  0.2501758004850743  0.7502975058864791
  0.2497447614177304  0.7501473838979607  0.2491246207766267
  0.2497447614177304  0.7501473838979607  0.7508753792233875
  0.7489503616484683  0.2502233657497115  0.2494423381786461
  0.7489503616484683  0.2502233657497115  0.7505576618213681
  0.7499376574386716  0.7485596291786791  0.2497936876591282
  0.7499376574386716  0.7485596291786791  0.7502063123408789
  0.9992666790620106  0.0006540612324955  0.2502951153339907
  0.9992666790620106  0.0006540612324955  0.7497048846660164
  0.0007991057481931  0.5007944966786724  0.2499541459601744
  0.0007991057481931  0.5007944966786724  0.7500458540398185
  0.4999644152591642  0.9996151920119090  0.2500460774559201
  0.4999644152591642  0.9996151920119090  0.7499539225440799
  0.4996531503977337  0.5002746283577082  0.2502813810547408
  0.4996531503977337  0.5002746283577082  0.7497186189452734
  0.7599261996184126  0.2531199031493117  0.5000000000000000
  0.7528674652792020  0.7498575276581789  0.5000000000000000
  0.5044662800470405  0.5013516327992491  0.5000000000000000
  0.1081865937429640  0.1407033658342556  0.2483170076421430
  0.1081865937429640  0.1407033658342556  0.7516829923578499
  0.1093219809650563  0.6414108327281056  0.2482204258917307
  0.1093219809650563  0.6414108327281056  0.7517795741082764
  0.6094841841432697  0.1402359253617220  0.2500988259022847
  0.6094841841432697  0.1402359253617220  0.7499011740977153
  0.6098842496797161  0.6407903890802231  0.2467519154108473
  0.6098842496797161  0.6407903890802231  0.7532480845891385
  0.3887904555253598  0.3588341054769586  0.2474834134681245
  0.3887904555253598  0.3588341054769586  0.7525165865318755
  0.3903369205669591  0.8600399372222256  0.2494176899591594
  0.3903369205669591  0.8600399372222256  0.7505823100408406
  0.8900264546565921  0.3601445392768738  0.2532227834332446
  0.8900264546565921  0.3601445392768738  0.7467772165667412
  0.8886036537677029  0.8596899851390418  0.2538981168618335
  0.8886036537677029  0.8596899851390418  0.7461018831381736
  0.3597659735577281  0.1096355457939353  0.2491258590265630
  0.3597659735577281  0.1096355457939353  0.7508741409734370
  0.3582953729022691  0.6113045176160554  0.2479836717339623
  0.3582953729022691  0.6113045176160554  0.7520163282660306
  0.8577957588888125  0.1108364556593742  0.2544262552144687
  0.8577957588888125  0.1108364556593742  0.7455737447855242
  0.8612129954448733  0.6110641515243316  0.2427992328769761
  0.8612129954448733  0.6110641515243316  0.7572007671230239
  0.1397205177727940  0.3913814153169284  0.2542260018352849
  0.1397205177727940  0.3913814153169284  0.7457739981647151
  0.1385612371648008  0.8909848121122650  0.2498625070254690
  0.1385612371648008  0.8909848121122650  0.7501374929745310
  0.6393853979203072  0.3889142027905450  0.2440458023956538
  0.6393853979203072  0.3889142027905450  0.7559541976043391
  0.6409453834512817  0.8893093465620368  0.2551895210125892
  0.6409453834512817  0.8893093465620368  0.7448104789874250
  0.3585871254611703  0.3896242013825031  0.0000000000000000
  0.3588596328052986  0.8916298358238350  0.0000000000000000
  0.3562095003523496  0.8950639148677340  0.5000000000000000
  0.8593353429926651  0.3904223828569755  0.0000000000000000
  0.8583031241325187  0.8913580847964724  0.0000000000000000
  0.8616640695852666  0.8915671200434687  0.5000000000000000
  0.1399925520353165  0.1080766188806521  0.0000000000000000
  0.1364721019545314  0.1117324177479162  0.5000000000000000
  0.1400126803834993  0.6094234600701043  0.0000000000000000
  0.1330056632399348  0.6165497450296371  0.5000000000000000
  0.6409883952513624  0.1093361384747880  0.0000000000000000
  0.6310714293371973  0.1272361137738613  0.5000000000000000
  0.6403440195184871  0.6108536389837909  0.0000000000000000
  0.1089293735612102  0.3584438630880911  0.0000000000000000
  0.1166427998586386  0.3627148712451458  0.5000000000000000
  0.1075719564019906  0.8598480077929267  0.0000000000000000
  0.1082598601897615  0.8608803176199089  0.5000000000000000
  0.6106635315895090  0.3592447624155852  0.0000000000000000
  0.6081972228502721  0.8593191925880959  0.0000000000000000
  0.6057719625690083  0.8606770419142578  0.5000000000000000
  0.3905572614250588  0.1403398809883001  0.0000000000000000
  0.3887529386067996  0.1384103619903883  0.5000000000000000
  0.3889312261071609  0.6415513460577245  0.0000000000000000
  0.8913141686370096  0.1411558643292281  0.0000000000000000
  0.8837874998745363  0.1388226282317788  0.5000000000000000
  0.8897791282963681  0.6400616080628296  0.0000000000000000
  0.9952767299312626  0.9996621223090330  0.1257330669076993
  0.0007431719434976  0.0023767808271771  0.6249713198081963
  0.0022594892462919  0.4962399628866976  0.1249858416029568
  0.9936433126639344  0.5120934362768992  0.6238450716823181
  0.5023082991301280  0.9987437598050377  0.1253736278988669
  0.4990382128822759  0.0016822185270513  0.6250989158368867
  0.4979451178000218  0.5008306643321774  0.1230280681154667
  0.4977762544465492  0.4998999216751230  0.6306345783798761
  0.0007431719434976  0.0023767808271771  0.3750286801918108
  0.9952767299312626  0.9996621223090330  0.8742669330923007
  0.9936433126639344  0.5120934362768992  0.3761549283176961
  0.0022594892462919  0.4962399628866976  0.8750141583970503
  0.4990382128822759  0.0016822185270513  0.3749010841631275
  0.5023082991301280  0.9987437598050377  0.8746263721011331
  0.4979451178000218  0.5008306643321774  0.8769719318845262
  0.2497488687076697  0.2467392841020271  0.3738445771348040
  0.2473511837411877  0.2502029619182480  0.8752170837230366
  0.2485884300660359  0.7521177141589064  0.3737861007362469
  0.2485667515525662  0.7527410384025686  0.8755680994207609
  0.7531301830037407  0.2476724941188948  0.8747203383095936
  0.7492422394087725  0.7549060265596239  0.8749895281056652
  0.2473511837411877  0.2502029619182480  0.1247829162769705
  0.2497488687076697  0.2467392841020271  0.6261554228652031
  0.2485667515525662  0.7527410384025686  0.1244319005792391
  0.2485884300660359  0.7521177141589064  0.6262138992637460
  0.7531301830037407  0.2476724941188948  0.1252796616904135
  0.7389684206547003  0.2593125582118603  0.6228149611304588
  0.7492422394087725  0.7549060265596239  0.1250104718943348
  0.7508347909381925  0.7297556876705897  0.6225393231663006
  0.7389684206547003  0.2593125582118603  0.3771850388695555
  0.8789010955796641  0.3791831649365918  0.5000000000000000
  0.3850212672935598  0.6460553807582627  0.5000000000000000
  0.4977762544465492  0.4998999216751230  0.3693654216201026
  0.3597953227006343  0.3832857589829004  0.5000000000000000
  0.7508347909381925  0.7297556876705897  0.3774606768336994
  0.6697012926297887  0.4771572400147690  0.5000000000000000
 
  0.00000000E+00  0.00000000E+00  0.00000000E+00
  0.00000000E+00  0.00000000E+00  0.00000000E+00
  0.00000000E+00  0.00000000E+00  0.00000000E+00
  0.00000000E+00  0.00000000E+00  0.00000000E+00
  0.00000000E+00  0.00000000E+00  0.00000000E+00
  0.00000000E+00  0.00000000E+00  0.00000000E+00
  0.00000000E+00  0.00000000E+00  0.00000000E+00
  0.00000000E+00  0.00000000E+00  0.00000000E+00
  0.00000000E+00  0.00000000E+00  0.00000000E+00
  0.00000000E+00  0.00000000E+00  0.00000000E+00
  0.00000000E+00  0.00000000E+00  0.00000000E+00
  0.00000000E+00  0.00000000E+00  0.00000000E+00
  0.00000000E+00  0.00000000E+00  0.00000000E+00
  0.00000000E+00  0.00000000E+00  0.00000000E+00
  0.00000000E+00  0.00000000E+00  0.00000000E+00
  0.00000000E+00  0.00000000E+00  0.00000000E+00
  0.00000000E+00  0.00000000E+00  0.00000000E+00
  0.00000000E+00  0.00000000E+00  0.00000000E+00
  0.00000000E+00  0.00000000E+00  0.00000000E+00
  0.00000000E+00  0.00000000E+00  0.00000000E+00
  0.00000000E+00  0.00000000E+00  0.00000000E+00
  0.00000000E+00  0.00000000E+00  0.00000000E+00
  0.00000000E+00  0.00000000E+00  0.00000000E+00
  0.00000000E+00  0.00000000E+00  0.00000000E+00
  0.00000000E+00  0.00000000E+00  0.00000000E+00
  0.00000000E+00  0.00000000E+00  0.00000000E+00
  0.00000000E+00  0.00000000E+00  0.00000000E+00
  0.00000000E+00  0.00000000E+00  0.00000000E+00
  0.00000000E+00  0.00000000E+00  0.00000000E+00
  0.00000000E+00  0.00000000E+00  0.00000000E+00
  0.00000000E+00  0.00000000E+00  0.00000000E+00
  0.00000000E+00  0.00000000E+00  0.00000000E+00
  0.00000000E+00  0.00000000E+00  0.00000000E+00
  0.00000000E+00  0.00000000E+00  0.00000000E+00
  0.00000000E+00  0.00000000E+00  0.00000000E+00
  0.00000000E+00  0.00000000E+00  0.00000000E+00
  0.00000000E+00  0.00000000E+00  0.00000000E+00
  0.00000000E+00  0.00000000E+00  0.00000000E+00
  0.00000000E+00  0.00000000E+00  0.00000000E+00
  0.00000000E+00  0.00000000E+00  0.00000000E+00
  0.00000000E+00  0.00000000E+00  0.00000000E+00
  0.00000000E+00  0.00000000E+00  0.00000000E+00
  0.00000000E+00  0.00000000E+00  0.00000000E+00
  0.00000000E+00  0.00000000E+00  0.00000000E+00
  0.00000000E+00  0.00000000E+00  0.00000000E+00
  0.00000000E+00  0.00000000E+00  0.00000000E+00
  0.00000000E+00  0.00000000E+00  0.00000000E+00
  0.00000000E+00  0.00000000E+00  0.00000000E+00
  0.00000000E+00  0.00000000E+00  0.00000000E+00
  0.00000000E+00  0.00000000E+00  0.00000000E+00
  0.00000000E+00  0.00000000E+00  0.00000000E+00
  0.00000000E+00  0.00000000E+00  0.00000000E+00
  0.00000000E+00  0.00000000E+00  0.00000000E+00
  0.00000000E+00  0.00000000E+00  0.00000000E+00
  0.00000000E+00  0.00000000E+00  0.00000000E+00
  0.00000000E+00  0.00000000E+00  0.00000000E+00
  0.00000000E+00  0.00000000E+00  0.00000000E+00
  0.00000000E+00  0.00000000E+00  0.00000000E+00
  0.00000000E+00  0.00000000E+00  0.00000000E+00
  0.00000000E+00  0.00000000E+00  0.00000000E+00
  0.00000000E+00  0.00000000E+00  0.00000000E+00
  0.00000000E+00  0.00000000E+00  0.00000000E+00
  0.00000000E+00  0.00000000E+00  0.00000000E+00
  0.00000000E+00  0.00000000E+00  0.00000000E+00
  0.00000000E+00  0.00000000E+00  0.00000000E+00
  0.00000000E+00  0.00000000E+00  0.00000000E+00
  0.00000000E+00  0.00000000E+00  0.00000000E+00
  0.00000000E+00  0.00000000E+00  0.00000000E+00
  0.00000000E+00  0.00000000E+00  0.00000000E+00
  0.00000000E+00  0.00000000E+00  0.00000000E+00
  0.00000000E+00  0.00000000E+00  0.00000000E+00
  0.00000000E+00  0.00000000E+00  0.00000000E+00
  0.00000000E+00  0.00000000E+00  0.00000000E+00
  0.00000000E+00  0.00000000E+00  0.00000000E+00
  0.00000000E+00  0.00000000E+00  0.00000000E+00
  0.00000000E+00  0.00000000E+00  0.00000000E+00
  0.00000000E+00  0.00000000E+00  0.00000000E+00
  0.00000000E+00  0.00000000E+00  0.00000000E+00
  0.00000000E+00  0.00000000E+00  0.00000000E+00
  0.00000000E+00  0.00000000E+00  0.00000000E+00
  0.00000000E+00  0.00000000E+00  0.00000000E+00
  0.00000000E+00  0.00000000E+00  0.00000000E+00
  0.00000000E+00  0.00000000E+00  0.00000000E+00
  0.00000000E+00  0.00000000E+00  0.00000000E+00
  0.00000000E+00  0.00000000E+00  0.00000000E+00
  0.00000000E+00  0.00000000E+00  0.00000000E+00
  0.00000000E+00  0.00000000E+00  0.00000000E+00
  0.00000000E+00  0.00000000E+00  0.00000000E+00
  0.00000000E+00  0.00000000E+00  0.00000000E+00
  0.00000000E+00  0.00000000E+00  0.00000000E+00
  0.00000000E+00  0.00000000E+00  0.00000000E+00
  0.00000000E+00  0.00000000E+00  0.00000000E+00
  0.00000000E+00  0.00000000E+00  0.00000000E+00
  0.00000000E+00  0.00000000E+00  0.00000000E+00
  0.00000000E+00  0.00000000E+00  0.00000000E+00
  0.00000000E+00  0.00000000E+00  0.00000000E+00
  0.00000000E+00  0.00000000E+00  0.00000000E+00
  0.00000000E+00  0.00000000E+00  0.00000000E+00
  0.00000000E+00  0.00000000E+00  0.00000000E+00
  0.00000000E+00  0.00000000E+00  0.00000000E+00
  0.00000000E+00  0.00000000E+00  0.00000000E+00
  0.00000000E+00  0.00000000E+00  0.00000000E+00
  0.00000000E+00  0.00000000E+00  0.00000000E+00
  0.00000000E+00  0.00000000E+00  0.00000000E+00
  0.00000000E+00  0.00000000E+00  0.00000000E+00
  0.00000000E+00  0.00000000E+00  0.00000000E+00
  0.00000000E+00  0.00000000E+00  0.00000000E+00
  0.00000000E+00  0.00000000E+00  0.00000000E+00
  0.00000000E+00  0.00000000E+00  0.00000000E+00
  0.00000000E+00  0.00000000E+00  0.00000000E+00
  0.00000000E+00  0.00000000E+00  0.00000000E+00
  0.00000000E+00  0.00000000E+00  0.00000000E+00
  0.00000000E+00  0.00000000E+00  0.00000000E+00
  0.00000000E+00  0.00000000E+00  0.00000000E+00
  0.00000000E+00  0.00000000E+00  0.00000000E+00
  0.00000000E+00  0.00000000E+00  0.00000000E+00
  0.00000000E+00  0.00000000E+00  0.00000000E+00
  0.00000000E+00  0.00000000E+00  0.00000000E+00
  0.00000000E+00  0.00000000E+00  0.00000000E+00
  0.00000000E+00  0.00000000E+00  0.00000000E+00
  0.00000000E+00  0.00000000E+00  0.00000000E+00
  0.00000000E+00  0.00000000E+00  0.00000000E+00
  0.00000000E+00  0.00000000E+00  0.00000000E+00
  0.00000000E+00  0.00000000E+00  0.00000000E+00
  0.00000000E+00  0.00000000E+00  0.00000000E+00
  0.00000000E+00  0.00000000E+00  0.00000000E+00
  0.00000000E+00  0.00000000E+00  0.00000000E+00
  0.00000000E+00  0.00000000E+00  0.00000000E+00
  0.00000000E+00  0.00000000E+00  0.00000000E+00
  0.00000000E+00  0.00000000E+00  0.00000000E+00
  0.00000000E+00  0.00000000E+00  0.00000000E+00
  0.00000000E+00  0.00000000E+00  0.00000000E+00
  0.00000000E+00  0.00000000E+00  0.00000000E+00
  0.00000000E+00  0.00000000E+00  0.00000000E+00
  0.00000000E+00  0.00000000E+00  0.00000000E+00
  0.00000000E+00  0.00000000E+00  0.00000000E+00
  0.00000000E+00  0.00000000E+00  0.00000000E+00
  0.00000000E+00  0.00000000E+00  0.00000000E+00
  0.00000000E+00  0.00000000E+00  0.00000000E+00
  0.00000000E+00  0.00000000E+00  0.00000000E+00
  0.00000000E+00  0.00000000E+00  0.00000000E+00
  0.00000000E+00  0.00000000E+00  0.00000000E+00
  0.00000000E+00  0.00000000E+00  0.00000000E+00
  0.00000000E+00  0.00000000E+00  0.00000000E+00
  0.00000000E+00  0.00000000E+00  0.00000000E+00
  0.00000000E+00  0.00000000E+00  0.00000000E+00
  0.00000000E+00  0.00000000E+00  0.00000000E+00
  0.00000000E+00  0.00000000E+00  0.00000000E+00
  0.00000000E+00  0.00000000E+00  0.00000000E+00
  0.00000000E+00  0.00000000E+00  0.00000000E+00
  0.00000000E+00  0.00000000E+00  0.00000000E+00
  0.00000000E+00  0.00000000E+00  0.00000000E+00
  0.00000000E+00  0.00000000E+00  0.00000000E+00
  0.00000000E+00  0.00000000E+00  0.00000000E+00
  0.00000000E+00  0.00000000E+00  0.00000000E+00
  0.00000000E+00  0.00000000E+00  0.00000000E+00
  0.00000000E+00  0.00000000E+00  0.00000000E+00
  0.00000000E+00  0.00000000E+00  0.00000000E+00
