SrTiFeO                                 
   1.00000000000000     
    11.1989999999999998    0.0000000000000000    0.0000000000000000
     0.0000000000000000   11.1989999999999998    0.0000000000000000
     0.0000000000000000    0.0000000000000000   15.9830000000000005
   Sr   Ti   Fe   O 
    32    31     1    94
Direct
  0.9997017495531060  0.2503677966854068  0.1247039930946702
  0.0012664357588503  0.2460621424502150  0.6261880966878651
  0.9987734516643513  0.7500088889854195  0.1251745276204472
  0.0074802713248055  0.7530166336730063  0.6263599387311143
  0.4997383304455126  0.2516013472451772  0.1257287115066500
  0.5015508627477008  0.2515505873654794  0.6231756980200638
  0.4992642058672297  0.7496515753588301  0.1234213953000073
  0.4951670046094573  0.7502318206163866  0.6291602779734498
  0.0012664357588503  0.2460621424502150  0.3738119033121348
  0.9997017495531060  0.2503677966854068  0.8752960069053228
  0.0074802713248055  0.7530166336730063  0.3736400612688786
  0.9987734516643513  0.7500088889854195  0.8748254723795597
  0.5015508627477008  0.2515505873654794  0.3768243019799432
  0.4997383304455126  0.2516013472451772  0.8742712884933358
  0.4951670046094573  0.7502318206163866  0.3708397220265786
  0.4992642058672297  0.7496515753588301  0.8765786046999715
  0.2499004891731397  0.0003754358712123  0.1250081396065226
  0.2498757717814598  0.0012043827681485  0.6250047236613759
  0.2506671026493330  0.5001356104794371  0.1253005525505339
  0.2534736747336037  0.5020546489698804  0.6238094236846843
  0.7492695130336429  0.9988794628053922  0.1249370021714500
  0.7524778830438927  0.0051309100847587  0.6258773646655559
  0.7483892285282084  0.4999446815647124  0.1234682509020494
  0.7522129752771118  0.4914827660286109  0.6320907688041764
  0.2498757717814598  0.0012043827681485  0.3749952763386097
  0.2499004891731397  0.0003754358712123  0.8749918603934558
  0.2534736747336037  0.5020546489698804  0.3761905763153086
  0.2506671026493330  0.5001356104794371  0.8746994474494805
  0.7524778830438927  0.0051309100847587  0.3741226353344653
  0.7492695130336429  0.9988794628053922  0.8750629978285570
  0.7522129752771118  0.4914827660286109  0.3679092311958309
  0.7483892285282084  0.4999446815647124  0.8765317490979435
  0.9996236584220815  0.9994366776794242  0.0000000000000000
  0.0020786017328443  0.0016001061319171  0.5000000000000000
  0.0004418863412543  0.4993561412874742  0.0000000000000000
  0.0035161887076130  0.4933817684262103  0.5000000000000000
  0.5002171813901342  0.0001877625740463  0.0000000000000000
  0.4993190536424173  0.9994960620692365  0.5000000000000000
  0.4989985421396179  0.4994410570936442  0.0000000000000000
  0.2500680461971916  0.2506599406071680  0.0000000000000000
  0.2523822790562045  0.2489284630858394  0.5000000000000000
  0.2494199812208450  0.7501169883184976  0.0000000000000000
  0.2528199244993631  0.7517499916212087  0.5000000000000000
  0.7501872515486588  0.2495050222903782  0.0000000000000000
  0.7488598554874423  0.2517547236811162  0.5000000000000000
  0.7501456264093788  0.7509419367760508  0.0000000000000000
  0.2504893783495868  0.2504904907978763  0.2507088859463371
  0.2504893783495868  0.2504904907978763  0.7492911140536984
  0.2501265970170947  0.7504208069963264  0.2492795340465521
  0.2501265970170947  0.7504208069963264  0.7507204659534691
  0.7503311155909004  0.2489712164064002  0.2490909802994620
  0.7503311155909004  0.2489712164064002  0.7509090197005381
  0.7496516859831955  0.7480832462897227  0.2500815715387359
  0.7496516859831955  0.7480832462897227  0.7499184284612499
  0.0002460806422707  0.9998727186682314  0.2497701276805746
  0.0002460806422707  0.9998727186682314  0.7502298723194393
  0.0003370782673571  0.5009126853948671  0.2499020147977536
  0.0003370782673571  0.5009126853948671  0.7500979852022462
  0.5003280361611755  0.0004936844012858  0.2502349966788185
  0.5003280361611755  0.0004936844012858  0.7497650033211674
  0.5010270662230836  0.5008983852399845  0.2516195434308944
  0.5010270662230836  0.5008983852399845  0.7483804565691200
  0.7487697089392608  0.7578485369540564  0.5000000000000000
  0.4948937493516368  0.4962367835779794  0.5000000000000000
  0.1094550446923893  0.1403601448123241  0.2472563296701230
  0.1094550446923893  0.1403601448123241  0.7527436703298913
  0.1093335743433973  0.6410312812150601  0.2488705181584845
  0.1093335743433973  0.6410312812150601  0.7511294818415153
  0.6101195759653479  0.1400169677264376  0.2498956328669257
  0.6101195759653479  0.1400169677264376  0.7501043671330958
  0.6097929305044893  0.6410951766626987  0.2433871113237500
  0.3904154596738589  0.3608007577743492  0.2541263315243651
  0.3904154596738589  0.3608007577743492  0.7458736684756491
  0.3900778477593135  0.8603683807113256  0.2487334744823847
  0.3900778477593135  0.8603683807113256  0.7512665255176154
  0.8904292204256776  0.3600985885343342  0.2519384011974855
  0.8904292204256776  0.3600985885343342  0.7480615988025217
  0.8892393043846670  0.8582390962926530  0.2553224625254856
  0.8892393043846670  0.8582390962926530  0.7446775374745075
  0.3601841959123694  0.1102056698561759  0.2483132599034910
  0.3601841959123694  0.1102056698561759  0.7516867400965018
  0.3595056565334199  0.6104316127311700  0.2504660462807216
  0.3595056565334199  0.6104316127311700  0.7495339537192710
  0.8597291704664245  0.1088868211467511  0.2485105728133964
  0.8597291704664245  0.1088868211467511  0.7514894271866108
  0.8592102509715536  0.6087825443422625  0.2450162743092418
  0.8592102509715536  0.6087825443422625  0.7549837256907581
  0.1399703395593923  0.3916145058403565  0.2540087796401251
  0.1399703395593923  0.3916145058403565  0.7459912203598749
  0.1396491964089239  0.8903046728681174  0.2496792901511435
  0.1396491964089239  0.8903046728681174  0.7503207098488639
  0.6406144297381129  0.3888360494477670  0.2475010376437344
  0.6411650475190923  0.8891316773677304  0.2550349823380532
  0.6411650475190923  0.8891316773677304  0.7449650176619399
  0.3584382806639878  0.3906525327852938  0.0000000000000000
  0.3593907774623354  0.8911214803764878  0.0000000000000000
  0.3546184463338172  0.8970211470849585  0.5000000000000000
  0.8595585548945609  0.3906335335585666  0.0000000000000000
  0.8550020772631157  0.3988571877090583  0.5000000000000000
  0.8589666412148790  0.8912958953897513  0.0000000000000000
  0.8656871455955176  0.8892678961674865  0.5000000000000000
  0.1408437509347033  0.1090815878680097  0.0000000000000000
  0.1422139480158062  0.1076342919472134  0.5000000000000000
  0.1405774827882090  0.6090007393388388  0.0000000000000000
  0.1324979681858545  0.6136258716240526  0.5000000000000000
  0.6412465941819822  0.1091815946469941  0.0000000000000000
  0.6437171842253044  0.1039352823150448  0.5000000000000000
  0.6401979101508526  0.6105404236766362  0.0000000000000000
  0.1089702878500150  0.3584031590118806  0.0000000000000000
  0.1032895397996541  0.3553561090328219  0.5000000000000000
  0.1089352169437319  0.8588174234046297  0.0000000000000000
  0.1091301880082213  0.8606237963857122  0.5000000000000000
  0.6099013959321808  0.3592333055489945  0.0000000000000000
  0.6091829105503161  0.8593392749225290  0.0000000000000000
  0.5982503939476810  0.8495783036313428  0.5000000000000000
  0.3908617439245424  0.1406676800631214  0.0000000000000000
  0.3937880721586280  0.1429848096657232  0.5000000000000000
  0.3900281668614515  0.6408458340864484  0.0000000000000000
  0.3879990156879254  0.6492544958350881  0.5000000000000000
  0.8916398493542567  0.1406520914747405  0.0000000000000000
  0.8927922299307638  0.1426746921806544  0.5000000000000000
  0.8902223535872485  0.6401522322237075  0.0000000000000000
  0.9984143662909500  0.9966589997091960  0.1250361972411822
  0.0011645609285580  0.0032679268035083  0.6258847739698350
  0.0020822219918390  0.4974664486169961  0.1250422247678729
  0.9924868531890076  0.5106758357865521  0.6235606150459940
  0.5027914521670498  0.9987311630899390  0.1252146825791129
  0.4985411393617503  0.0013448692225188  0.6250401716963634
  0.4975419713043883  0.4977911289453529  0.1243645381213529
  0.0011645609285580  0.0032679268035083  0.3741152260301580
  0.9984143662909500  0.9966589997091960  0.8749638027588037
  0.9924868531890076  0.5106758357865521  0.3764393849540129
  0.0020822219918390  0.4974664486169961  0.8749577752321132
  0.4985411393617503  0.0013448692225188  0.3749598283036367
  0.5027914521670498  0.9987311630899390  0.8747853174208872
  0.4975419713043883  0.4977911289453529  0.8756354618786470
  0.2476206739854264  0.2455336704342994  0.3745119308617044
  0.2506903257931448  0.2533702423557995  0.8745812829165979
  0.2482970705298039  0.7515944270193216  0.3737827978267534
  0.2499389786089043  0.7504932981776720  0.8753600353379751
  0.7515619156209159  0.2474884265195404  0.3740026268835842
  0.7516124694446426  0.2496164012667587  0.8753508217528496
  0.7457542041535506  0.7264716756482464  0.3783981557140801
  0.7517361100933244  0.7550774780971761  0.8749229983528151
  0.2506903257931448  0.2533702423557995  0.1254187170834164
  0.2476206739854264  0.2455336704342994  0.6254880691382813
  0.2499389786089043  0.7504932981776720  0.1246399646620104
  0.2482970705298039  0.7515944270193216  0.6262172021732465
  0.7516124694446426  0.2496164012667587  0.1246491782471576
  0.7515619156209159  0.2474884265195404  0.6259973731164090
  0.7517361100933244  0.7550774780971761  0.1250770016471921
  0.6406144297381129  0.3888360494477670  0.7524989623562658
  0.6097929305044893  0.6410951766626987  0.7566128886762644
  0.5124505310862773  0.5098067234830838  0.3734268727196563
  0.6142772271930984  0.3549795721659452  0.5000000000000000
  0.3473889556053093  0.3890766183994182  0.5000000000000000
  0.7457542041535506  0.7264716756482464  0.6216018442859127
  0.5124505310862773  0.5098067234830838  0.6265731272803295
 
  0.00000000E+00  0.00000000E+00  0.00000000E+00
  0.00000000E+00  0.00000000E+00  0.00000000E+00
  0.00000000E+00  0.00000000E+00  0.00000000E+00
  0.00000000E+00  0.00000000E+00  0.00000000E+00
  0.00000000E+00  0.00000000E+00  0.00000000E+00
  0.00000000E+00  0.00000000E+00  0.00000000E+00
  0.00000000E+00  0.00000000E+00  0.00000000E+00
  0.00000000E+00  0.00000000E+00  0.00000000E+00
  0.00000000E+00  0.00000000E+00  0.00000000E+00
  0.00000000E+00  0.00000000E+00  0.00000000E+00
  0.00000000E+00  0.00000000E+00  0.00000000E+00
  0.00000000E+00  0.00000000E+00  0.00000000E+00
  0.00000000E+00  0.00000000E+00  0.00000000E+00
  0.00000000E+00  0.00000000E+00  0.00000000E+00
  0.00000000E+00  0.00000000E+00  0.00000000E+00
  0.00000000E+00  0.00000000E+00  0.00000000E+00
  0.00000000E+00  0.00000000E+00  0.00000000E+00
  0.00000000E+00  0.00000000E+00  0.00000000E+00
  0.00000000E+00  0.00000000E+00  0.00000000E+00
  0.00000000E+00  0.00000000E+00  0.00000000E+00
  0.00000000E+00  0.00000000E+00  0.00000000E+00
  0.00000000E+00  0.00000000E+00  0.00000000E+00
  0.00000000E+00  0.00000000E+00  0.00000000E+00
  0.00000000E+00  0.00000000E+00  0.00000000E+00
  0.00000000E+00  0.00000000E+00  0.00000000E+00
  0.00000000E+00  0.00000000E+00  0.00000000E+00
  0.00000000E+00  0.00000000E+00  0.00000000E+00
  0.00000000E+00  0.00000000E+00  0.00000000E+00
  0.00000000E+00  0.00000000E+00  0.00000000E+00
  0.00000000E+00  0.00000000E+00  0.00000000E+00
  0.00000000E+00  0.00000000E+00  0.00000000E+00
  0.00000000E+00  0.00000000E+00  0.00000000E+00
  0.00000000E+00  0.00000000E+00  0.00000000E+00
  0.00000000E+00  0.00000000E+00  0.00000000E+00
  0.00000000E+00  0.00000000E+00  0.00000000E+00
  0.00000000E+00  0.00000000E+00  0.00000000E+00
  0.00000000E+00  0.00000000E+00  0.00000000E+00
  0.00000000E+00  0.00000000E+00  0.00000000E+00
  0.00000000E+00  0.00000000E+00  0.00000000E+00
  0.00000000E+00  0.00000000E+00  0.00000000E+00
  0.00000000E+00  0.00000000E+00  0.00000000E+00
  0.00000000E+00  0.00000000E+00  0.00000000E+00
  0.00000000E+00  0.00000000E+00  0.00000000E+00
  0.00000000E+00  0.00000000E+00  0.00000000E+00
  0.00000000E+00  0.00000000E+00  0.00000000E+00
  0.00000000E+00  0.00000000E+00  0.00000000E+00
  0.00000000E+00  0.00000000E+00  0.00000000E+00
  0.00000000E+00  0.00000000E+00  0.00000000E+00
  0.00000000E+00  0.00000000E+00  0.00000000E+00
  0.00000000E+00  0.00000000E+00  0.00000000E+00
  0.00000000E+00  0.00000000E+00  0.00000000E+00
  0.00000000E+00  0.00000000E+00  0.00000000E+00
  0.00000000E+00  0.00000000E+00  0.00000000E+00
  0.00000000E+00  0.00000000E+00  0.00000000E+00
  0.00000000E+00  0.00000000E+00  0.00000000E+00
  0.00000000E+00  0.00000000E+00  0.00000000E+00
  0.00000000E+00  0.00000000E+00  0.00000000E+00
  0.00000000E+00  0.00000000E+00  0.00000000E+00
  0.00000000E+00  0.00000000E+00  0.00000000E+00
  0.00000000E+00  0.00000000E+00  0.00000000E+00
  0.00000000E+00  0.00000000E+00  0.00000000E+00
  0.00000000E+00  0.00000000E+00  0.00000000E+00
  0.00000000E+00  0.00000000E+00  0.00000000E+00
  0.00000000E+00  0.00000000E+00  0.00000000E+00
  0.00000000E+00  0.00000000E+00  0.00000000E+00
  0.00000000E+00  0.00000000E+00  0.00000000E+00
  0.00000000E+00  0.00000000E+00  0.00000000E+00
  0.00000000E+00  0.00000000E+00  0.00000000E+00
  0.00000000E+00  0.00000000E+00  0.00000000E+00
  0.00000000E+00  0.00000000E+00  0.00000000E+00
  0.00000000E+00  0.00000000E+00  0.00000000E+00
  0.00000000E+00  0.00000000E+00  0.00000000E+00
  0.00000000E+00  0.00000000E+00  0.00000000E+00
  0.00000000E+00  0.00000000E+00  0.00000000E+00
  0.00000000E+00  0.00000000E+00  0.00000000E+00
  0.00000000E+00  0.00000000E+00  0.00000000E+00
  0.00000000E+00  0.00000000E+00  0.00000000E+00
  0.00000000E+00  0.00000000E+00  0.00000000E+00
  0.00000000E+00  0.00000000E+00  0.00000000E+00
  0.00000000E+00  0.00000000E+00  0.00000000E+00
  0.00000000E+00  0.00000000E+00  0.00000000E+00
  0.00000000E+00  0.00000000E+00  0.00000000E+00
  0.00000000E+00  0.00000000E+00  0.00000000E+00
  0.00000000E+00  0.00000000E+00  0.00000000E+00
  0.00000000E+00  0.00000000E+00  0.00000000E+00
  0.00000000E+00  0.00000000E+00  0.00000000E+00
  0.00000000E+00  0.00000000E+00  0.00000000E+00
  0.00000000E+00  0.00000000E+00  0.00000000E+00
  0.00000000E+00  0.00000000E+00  0.00000000E+00
  0.00000000E+00  0.00000000E+00  0.00000000E+00
  0.00000000E+00  0.00000000E+00  0.00000000E+00
  0.00000000E+00  0.00000000E+00  0.00000000E+00
  0.00000000E+00  0.00000000E+00  0.00000000E+00
  0.00000000E+00  0.00000000E+00  0.00000000E+00
  0.00000000E+00  0.00000000E+00  0.00000000E+00
  0.00000000E+00  0.00000000E+00  0.00000000E+00
  0.00000000E+00  0.00000000E+00  0.00000000E+00
  0.00000000E+00  0.00000000E+00  0.00000000E+00
  0.00000000E+00  0.00000000E+00  0.00000000E+00
  0.00000000E+00  0.00000000E+00  0.00000000E+00
  0.00000000E+00  0.00000000E+00  0.00000000E+00
  0.00000000E+00  0.00000000E+00  0.00000000E+00
  0.00000000E+00  0.00000000E+00  0.00000000E+00
  0.00000000E+00  0.00000000E+00  0.00000000E+00
  0.00000000E+00  0.00000000E+00  0.00000000E+00
  0.00000000E+00  0.00000000E+00  0.00000000E+00
  0.00000000E+00  0.00000000E+00  0.00000000E+00
  0.00000000E+00  0.00000000E+00  0.00000000E+00
  0.00000000E+00  0.00000000E+00  0.00000000E+00
  0.00000000E+00  0.00000000E+00  0.00000000E+00
  0.00000000E+00  0.00000000E+00  0.00000000E+00
  0.00000000E+00  0.00000000E+00  0.00000000E+00
  0.00000000E+00  0.00000000E+00  0.00000000E+00
  0.00000000E+00  0.00000000E+00  0.00000000E+00
  0.00000000E+00  0.00000000E+00  0.00000000E+00
  0.00000000E+00  0.00000000E+00  0.00000000E+00
  0.00000000E+00  0.00000000E+00  0.00000000E+00
  0.00000000E+00  0.00000000E+00  0.00000000E+00
  0.00000000E+00  0.00000000E+00  0.00000000E+00
  0.00000000E+00  0.00000000E+00  0.00000000E+00
  0.00000000E+00  0.00000000E+00  0.00000000E+00
  0.00000000E+00  0.00000000E+00  0.00000000E+00
  0.00000000E+00  0.00000000E+00  0.00000000E+00
  0.00000000E+00  0.00000000E+00  0.00000000E+00
  0.00000000E+00  0.00000000E+00  0.00000000E+00
  0.00000000E+00  0.00000000E+00  0.00000000E+00
  0.00000000E+00  0.00000000E+00  0.00000000E+00
  0.00000000E+00  0.00000000E+00  0.00000000E+00
  0.00000000E+00  0.00000000E+00  0.00000000E+00
  0.00000000E+00  0.00000000E+00  0.00000000E+00
  0.00000000E+00  0.00000000E+00  0.00000000E+00
  0.00000000E+00  0.00000000E+00  0.00000000E+00
  0.00000000E+00  0.00000000E+00  0.00000000E+00
  0.00000000E+00  0.00000000E+00  0.00000000E+00
  0.00000000E+00  0.00000000E+00  0.00000000E+00
  0.00000000E+00  0.00000000E+00  0.00000000E+00
  0.00000000E+00  0.00000000E+00  0.00000000E+00
  0.00000000E+00  0.00000000E+00  0.00000000E+00
  0.00000000E+00  0.00000000E+00  0.00000000E+00
  0.00000000E+00  0.00000000E+00  0.00000000E+00
  0.00000000E+00  0.00000000E+00  0.00000000E+00
  0.00000000E+00  0.00000000E+00  0.00000000E+00
  0.00000000E+00  0.00000000E+00  0.00000000E+00
  0.00000000E+00  0.00000000E+00  0.00000000E+00
  0.00000000E+00  0.00000000E+00  0.00000000E+00
  0.00000000E+00  0.00000000E+00  0.00000000E+00
  0.00000000E+00  0.00000000E+00  0.00000000E+00
  0.00000000E+00  0.00000000E+00  0.00000000E+00
  0.00000000E+00  0.00000000E+00  0.00000000E+00
  0.00000000E+00  0.00000000E+00  0.00000000E+00
  0.00000000E+00  0.00000000E+00  0.00000000E+00
  0.00000000E+00  0.00000000E+00  0.00000000E+00
  0.00000000E+00  0.00000000E+00  0.00000000E+00
  0.00000000E+00  0.00000000E+00  0.00000000E+00
  0.00000000E+00  0.00000000E+00  0.00000000E+00
  0.00000000E+00  0.00000000E+00  0.00000000E+00
  0.00000000E+00  0.00000000E+00  0.00000000E+00
  0.00000000E+00  0.00000000E+00  0.00000000E+00
