Sr   Ti   Fe   O                        
   1.00000000000000     
    11.1989999999999998    0.0000000000000000    0.0000000000000000
     0.0000000000000000   11.1989999999999998    0.0000000000000000
     0.0000000000000000    0.0000000000000000   15.9830000000000005
   Sr   Ti   Fe   O 
    32    31     1    94
Direct
  0.9993176102690041  0.2497217070565894  0.1246525896533582
  0.0010448053512614  0.2445288820386642  0.6252681937873174
  0.9987033624260617  0.7508773269248882  0.1252277444727974
  0.0055623813037935  0.7551128968738519  0.6275945275513374
  0.5001219971551299  0.2501639184417574  0.1261852302084266
  0.5030551250107659  0.2436129806565525  0.6217882836862371
  0.4991920256709085  0.7506725321120300  0.1247855111533027
  0.4921324802988729  0.7542086960975968  0.6259064398370635
  0.0008471416380502  0.2459498241804857  0.3744701059819302
  1.0003363311436226  0.2503791700238961  0.8749673536581339
  0.0035641908759357  0.7526082569528263  0.3750646784427751
  0.9997946062718250  0.7496218819897874  0.8751662531760371
  0.5003532968132519  0.2487397717989520  0.3750240608710458
  0.4999507669736232  0.2482218015530076  0.8746686808141295
  0.4941782024053390  0.7479592322370517  0.3734086093317013
  0.5012101627075939  0.7544119937940889  0.8773723345474341
  0.2501181607471947  0.0009084479737656  0.1247925305542348
  0.2491167331096330  0.0012352237967007  0.6235954993244187
  0.2492910784010420  0.5000269063313213  0.1265585864482951
  0.2437521480711854  0.5024021953721699  0.6228722436968320
  0.7490103500565792  0.9983283394315851  0.1251636837147137
  0.7541267518039896  0.0002874770426583  0.6242888542654552
  0.7493065746989225  0.4998970601268293  0.1238728482029600
  0.7614037797328266  0.4928860817595691  0.6321448483313733
  0.2488481532881276  0.0007198777150012  0.3753354804506484
  0.2510135014457452  0.0013387659113079  0.8742101864977143
  0.2535954340202055  0.5023347861181432  0.3783716018069695
  0.2479208430148789  0.5009654327640854  0.8755665986756068
  0.7522297511346057  0.0015998723953664  0.3751007396934342
  0.7511127385352716  0.9990209133959861  0.8750638792987789
  0.7497245020226551  0.4896394194267997  0.3687713269549892
  0.7523342043407231  0.5001471382010924  0.8766546993177143
  1.0002952206317548  1.0000686695982797  0.9997821430078390
 -0.0006740172675813  0.0004117031003125  0.4994262526521543
  0.0007283764682340  0.4994543734212820  0.0003954514014276
  0.0010961476513749  0.4938721144988955  0.4990502823427698
  0.5005547241540331  0.0004139720310763  0.0002493837415144
  0.5007535983734742 -0.0025194423783691  0.4995161730223233
  0.4989906406804655  0.4999234687576399  0.0039224945620218
  0.2506488247656938  0.2513702341071987 -0.0001075445681217
  0.2527437468166931  0.2484688598513437  0.5001448536295412
  0.2503035427631219  0.7499419765017613  0.0000407197631914
  0.2490750098812481  0.7521461551009641  0.4995847374500225
  0.7499938769101546  0.2500034802225145 -0.0001600511413992
  0.7473109904691319  0.2500019581528359  0.4997502860887876
  0.7503848884148903  0.7508234674912292  1.0002581669083597
  0.2500683649683653  0.2508812028027992  0.2505450191851245
  0.2516325205936310  0.2515382230910562  0.7476385684784596
  0.2488302840916811  0.7502503954855885  0.2496212290951457
  0.2508312639227382  0.7511108543825531  0.7498495461679822
  0.7502122157727139  0.2481810046751325  0.2490695916812544
  0.7505347657825828  0.2486627643210511  0.7498809052363129
  0.7487674219839449  0.7466323092228384  0.2513901309856711
  0.7519453829684827  0.7500327777916755  0.7505733551331664
  0.0000642696969050 -0.0000628295905342  0.2497881853956613
  0.0010068768101645  0.0003852965221227  0.7515110959060305
  0.9997268546490713  0.5006863962321064  0.2500126718280439
  1.0011433746486424  0.5003770058382222  0.7506347821450605
  0.4998271770947877 -0.0008587468405606  0.2506006344458996
  0.5011770711650874  0.0002728651553083  0.7496174504372538
  0.5002062777541624  0.5002510282115956  0.2525256551028315
  0.5028661467136631  0.5031254650684328  0.7568607709719528
  0.7463937291971755  0.7488428498223562  0.5043928498806656
  0.4964410031663312  0.4955880698082307  0.4992539272494600
  0.1093986845288785  0.1413335591710105  0.2481420992225713
  0.1117756777849014  0.1406454249041667  0.7537759262928964
  0.1079176461493741  0.6414119573936885  0.2483444734716027
  0.1130934587184839  0.6391467016893991  0.7510187765813633
  0.6100787420502661  0.1388047292575544  0.2487398347182770
  0.6112893092777844  0.1402184731245660  0.7507081707481219
  0.6088560605148924  0.6405652665320490  0.2441608306762880
  0.3901122271168711  0.3601836386892718  0.2502225368277607
  0.3927203687806836  0.3679323390340319  0.7336234192888239
  0.3900654876135472  0.8595505881706536  0.2489404840081701
  0.3891134207661187  0.8629622319584288  0.7526912582338853
  0.8903690712776501  0.3594489391855913  0.2511323886787664
  0.8905979868545701  0.3608230763277697  0.7491276666974181
  0.8883060586374515  0.8578102520404569  0.2553064129302162
  0.8920082614547389  0.8613152687619856  0.7528978196583954
  0.3597966058672781  0.1100089928353010  0.2486187409893215
  0.3632019986570357  0.1138549279580868  0.7513129865075890
  0.3581796022475719  0.6100504906863613  0.2505085613017086
  0.3669416563765098  0.6114858752285813  0.7381886873151164
  0.8596513018541686  0.1083485208829687  0.2467905786043113
  0.8609925455501396  0.1107635392566750  0.7524583769634323
  0.8583338559435185  0.6079286309975034  0.2452098701013517
  0.8628692613294272  0.6106233892254237  0.7570083011891637
  0.1399014568306478  0.3921641220305171  0.2540881067170727
  0.1406598876110783  0.3912311389591996  0.7472621347312483
  0.1392997666586877  0.8910694658090373  0.2470145111793736
  0.1405717592306163  0.8899559409697042  0.7517564386017813
  0.6405319594478561  0.3881614365034988  0.2462310558634983
  0.6406404052673387  0.8878475893756184  0.2551737767445624
  0.6414918555928710  0.8897659641745039  0.7463483339443759
  0.3585308631039014  0.3922720613853815  1.0008993411561178
  0.3597863117770904  0.8910355196853571  0.9988083158019490
  0.3555789905098906  0.8937387398592226  0.4997819663133932
  0.8596013466752112  0.3908000006073741 -0.0001978263397509
  0.8540373404831958  0.3973174392005158  0.4991161397502186
  0.8601069621776593  0.8910158724804462  1.0003747425598237
  0.8627156501742751  0.8888962144695419  0.4959251950485590
  0.1418457087357278  0.1105069220179892  0.9986531729789774
  0.1402266654840627  0.1091607433708568  0.4988717190408070
  0.1409775642776551  0.6090069026894498 -0.0000137679015854
  0.1237143423194740  0.6184673695415289  0.4988386212119692
  0.6410950850940141  0.1096531579711616  0.9993749376880154
  0.6446323718152750  0.1009597734460724  0.5004072601018367
  0.6399645986840024  0.6094613360589782  0.9979625132467560
  0.1094785529015747  0.3586301846237027  0.9991417203597875
  0.1054295364079456  0.3582334194037722  0.4994586608959727
  0.1104546702249696  0.8590139371413990  0.9984686488565653
  0.1076651268788019  0.8633183612592409  0.4996424162914169
  0.6086601373759801  0.3599280202820238  0.9991225301410911
  0.6095201807477735  0.8597211083995407  0.0007812598021595
  0.5986512952789540  0.8520802261983247  0.5002203622957567
  0.3912493398881589  0.1411558879446750  0.0000276901486625
  0.3919181019430498  0.1405804942104781  0.4996337700182987
  0.3917867756667611  0.6410280377282286 -0.0006510977163880
  0.3732711820859884  0.6415080338587332  0.4959062513798795
  0.8908596527620244  0.1411088591435943  0.9985257328659337
  0.8927868524021362  0.1417061833329728  0.4996664075517516
  0.8904125719398535  0.6397965385915825  1.0000529439815549
  0.9994811713710962  0.9983808724967135  0.1240943300501837
 -0.0005229154421654  0.0014494428218980  0.6266089083422522
  0.0021428207905845  0.4971455636719999  0.1248828328551425
  0.9963339216089570  0.5084115613569156  0.6241426016073832
  0.5019802417411272  0.9982501413448029  0.1250902504900961
  0.4982229119450119  0.0023422188376737  0.6254305431691173
  0.4988717562240671  0.4997404452696528  0.1236470179126066
  0.0015347362330030  0.0035886260618576  0.3729766904480007
  1.0007828524843161  1.0000325951872062  0.8759571750242184
  0.9906948384988737  0.5096803522820118  0.3759037671236485
  0.0029740018641854  0.4975736319209166  0.8753989501756456
  0.4983943432054793  0.0010829037498619  0.3746434286402105
  0.5031394518787631  0.9995104122733659  0.8750602189832417
  0.4927993030506071  0.4952400025297442  0.8731821374429357
  0.2509030397470981  0.2496280406841326  0.3747256053062384
  0.2572581585484127  0.2579781463737489  0.8731732579428724
  0.2444149604689247  0.7547818969619450  0.3725052922438905
  0.2542503515236501  0.7447092801283430  0.8739514226209562
  0.7521935760515949  0.2456938953931250  0.3729707210725342
  0.7484145061504813  0.2541770075427964  0.8742085248771930
  0.7438510769763931  0.7222406513539003  0.3803618852244155
  0.7510827119789270  0.7551139840202143  0.8763324142759605
  0.2493796400339880  0.2527573291421370  0.1248326922705495
  0.2431990501011655  0.2420633672868957  0.6252577454410291
  0.2507025307808947  0.7499983009256836  0.1237625717234204
  0.2454831111308747  0.7547116941532611  0.6257870822445394
  0.7510314019548390  0.2496859934651490  0.1235718676143408
  0.7532948223201417  0.2458987697113740  0.6259049248842551
  0.7507430729077090  0.7532601586049277  0.1253111482476661
  0.6376605203027188  0.3917472715246901  0.7450356572571813
  0.6122321984991332  0.6407102866719461  0.7568246712193544
  0.5087335195850700  0.5044958783859532  0.3709773145110360
  0.6092621948819843  0.3441914734001230  0.4981600784006425
  0.3509464234956241  0.3878314076937279  0.5063400505340948
  0.7685539655202971  0.7453946351879370  0.6272239737928511
  0.5869024110723777  0.5774041159290865  0.5804163855903046
 
  0.00000000E+00  0.00000000E+00  0.00000000E+00
  0.00000000E+00  0.00000000E+00  0.00000000E+00
  0.00000000E+00  0.00000000E+00  0.00000000E+00
  0.00000000E+00  0.00000000E+00  0.00000000E+00
  0.00000000E+00  0.00000000E+00  0.00000000E+00
  0.00000000E+00  0.00000000E+00  0.00000000E+00
  0.00000000E+00  0.00000000E+00  0.00000000E+00
  0.00000000E+00  0.00000000E+00  0.00000000E+00
  0.00000000E+00  0.00000000E+00  0.00000000E+00
  0.00000000E+00  0.00000000E+00  0.00000000E+00
  0.00000000E+00  0.00000000E+00  0.00000000E+00
  0.00000000E+00  0.00000000E+00  0.00000000E+00
  0.00000000E+00  0.00000000E+00  0.00000000E+00
  0.00000000E+00  0.00000000E+00  0.00000000E+00
  0.00000000E+00  0.00000000E+00  0.00000000E+00
  0.00000000E+00  0.00000000E+00  0.00000000E+00
  0.00000000E+00  0.00000000E+00  0.00000000E+00
  0.00000000E+00  0.00000000E+00  0.00000000E+00
  0.00000000E+00  0.00000000E+00  0.00000000E+00
  0.00000000E+00  0.00000000E+00  0.00000000E+00
  0.00000000E+00  0.00000000E+00  0.00000000E+00
  0.00000000E+00  0.00000000E+00  0.00000000E+00
  0.00000000E+00  0.00000000E+00  0.00000000E+00
  0.00000000E+00  0.00000000E+00  0.00000000E+00
  0.00000000E+00  0.00000000E+00  0.00000000E+00
  0.00000000E+00  0.00000000E+00  0.00000000E+00
  0.00000000E+00  0.00000000E+00  0.00000000E+00
  0.00000000E+00  0.00000000E+00  0.00000000E+00
  0.00000000E+00  0.00000000E+00  0.00000000E+00
  0.00000000E+00  0.00000000E+00  0.00000000E+00
  0.00000000E+00  0.00000000E+00  0.00000000E+00
  0.00000000E+00  0.00000000E+00  0.00000000E+00
  0.00000000E+00  0.00000000E+00  0.00000000E+00
  0.00000000E+00  0.00000000E+00  0.00000000E+00
  0.00000000E+00  0.00000000E+00  0.00000000E+00
  0.00000000E+00  0.00000000E+00  0.00000000E+00
  0.00000000E+00  0.00000000E+00  0.00000000E+00
  0.00000000E+00  0.00000000E+00  0.00000000E+00
  0.00000000E+00  0.00000000E+00  0.00000000E+00
  0.00000000E+00  0.00000000E+00  0.00000000E+00
  0.00000000E+00  0.00000000E+00  0.00000000E+00
  0.00000000E+00  0.00000000E+00  0.00000000E+00
  0.00000000E+00  0.00000000E+00  0.00000000E+00
  0.00000000E+00  0.00000000E+00  0.00000000E+00
  0.00000000E+00  0.00000000E+00  0.00000000E+00
  0.00000000E+00  0.00000000E+00  0.00000000E+00
  0.00000000E+00  0.00000000E+00  0.00000000E+00
  0.00000000E+00  0.00000000E+00  0.00000000E+00
  0.00000000E+00  0.00000000E+00  0.00000000E+00
  0.00000000E+00  0.00000000E+00  0.00000000E+00
  0.00000000E+00  0.00000000E+00  0.00000000E+00
  0.00000000E+00  0.00000000E+00  0.00000000E+00
  0.00000000E+00  0.00000000E+00  0.00000000E+00
  0.00000000E+00  0.00000000E+00  0.00000000E+00
  0.00000000E+00  0.00000000E+00  0.00000000E+00
  0.00000000E+00  0.00000000E+00  0.00000000E+00
  0.00000000E+00  0.00000000E+00  0.00000000E+00
  0.00000000E+00  0.00000000E+00  0.00000000E+00
  0.00000000E+00  0.00000000E+00  0.00000000E+00
  0.00000000E+00  0.00000000E+00  0.00000000E+00
  0.00000000E+00  0.00000000E+00  0.00000000E+00
  0.00000000E+00  0.00000000E+00  0.00000000E+00
  0.00000000E+00  0.00000000E+00  0.00000000E+00
  0.00000000E+00  0.00000000E+00  0.00000000E+00
  0.00000000E+00  0.00000000E+00  0.00000000E+00
  0.00000000E+00  0.00000000E+00  0.00000000E+00
  0.00000000E+00  0.00000000E+00  0.00000000E+00
  0.00000000E+00  0.00000000E+00  0.00000000E+00
  0.00000000E+00  0.00000000E+00  0.00000000E+00
  0.00000000E+00  0.00000000E+00  0.00000000E+00
  0.00000000E+00  0.00000000E+00  0.00000000E+00
  0.00000000E+00  0.00000000E+00  0.00000000E+00
  0.00000000E+00  0.00000000E+00  0.00000000E+00
  0.00000000E+00  0.00000000E+00  0.00000000E+00
  0.00000000E+00  0.00000000E+00  0.00000000E+00
  0.00000000E+00  0.00000000E+00  0.00000000E+00
  0.00000000E+00  0.00000000E+00  0.00000000E+00
  0.00000000E+00  0.00000000E+00  0.00000000E+00
  0.00000000E+00  0.00000000E+00  0.00000000E+00
  0.00000000E+00  0.00000000E+00  0.00000000E+00
  0.00000000E+00  0.00000000E+00  0.00000000E+00
  0.00000000E+00  0.00000000E+00  0.00000000E+00
  0.00000000E+00  0.00000000E+00  0.00000000E+00
  0.00000000E+00  0.00000000E+00  0.00000000E+00
  0.00000000E+00  0.00000000E+00  0.00000000E+00
  0.00000000E+00  0.00000000E+00  0.00000000E+00
  0.00000000E+00  0.00000000E+00  0.00000000E+00
  0.00000000E+00  0.00000000E+00  0.00000000E+00
  0.00000000E+00  0.00000000E+00  0.00000000E+00
  0.00000000E+00  0.00000000E+00  0.00000000E+00
  0.00000000E+00  0.00000000E+00  0.00000000E+00
  0.00000000E+00  0.00000000E+00  0.00000000E+00
  0.00000000E+00  0.00000000E+00  0.00000000E+00
  0.00000000E+00  0.00000000E+00  0.00000000E+00
  0.00000000E+00  0.00000000E+00  0.00000000E+00
  0.00000000E+00  0.00000000E+00  0.00000000E+00
  0.00000000E+00  0.00000000E+00  0.00000000E+00
  0.00000000E+00  0.00000000E+00  0.00000000E+00
  0.00000000E+00  0.00000000E+00  0.00000000E+00
  0.00000000E+00  0.00000000E+00  0.00000000E+00
  0.00000000E+00  0.00000000E+00  0.00000000E+00
  0.00000000E+00  0.00000000E+00  0.00000000E+00
  0.00000000E+00  0.00000000E+00  0.00000000E+00
  0.00000000E+00  0.00000000E+00  0.00000000E+00
  0.00000000E+00  0.00000000E+00  0.00000000E+00
  0.00000000E+00  0.00000000E+00  0.00000000E+00
  0.00000000E+00  0.00000000E+00  0.00000000E+00
  0.00000000E+00  0.00000000E+00  0.00000000E+00
  0.00000000E+00  0.00000000E+00  0.00000000E+00
  0.00000000E+00  0.00000000E+00  0.00000000E+00
  0.00000000E+00  0.00000000E+00  0.00000000E+00
  0.00000000E+00  0.00000000E+00  0.00000000E+00
  0.00000000E+00  0.00000000E+00  0.00000000E+00
  0.00000000E+00  0.00000000E+00  0.00000000E+00
  0.00000000E+00  0.00000000E+00  0.00000000E+00
  0.00000000E+00  0.00000000E+00  0.00000000E+00
  0.00000000E+00  0.00000000E+00  0.00000000E+00
  0.00000000E+00  0.00000000E+00  0.00000000E+00
  0.00000000E+00  0.00000000E+00  0.00000000E+00
  0.00000000E+00  0.00000000E+00  0.00000000E+00
  0.00000000E+00  0.00000000E+00  0.00000000E+00
  0.00000000E+00  0.00000000E+00  0.00000000E+00
  0.00000000E+00  0.00000000E+00  0.00000000E+00
  0.00000000E+00  0.00000000E+00  0.00000000E+00
  0.00000000E+00  0.00000000E+00  0.00000000E+00
  0.00000000E+00  0.00000000E+00  0.00000000E+00
  0.00000000E+00  0.00000000E+00  0.00000000E+00
  0.00000000E+00  0.00000000E+00  0.00000000E+00
  0.00000000E+00  0.00000000E+00  0.00000000E+00
  0.00000000E+00  0.00000000E+00  0.00000000E+00
  0.00000000E+00  0.00000000E+00  0.00000000E+00
  0.00000000E+00  0.00000000E+00  0.00000000E+00
  0.00000000E+00  0.00000000E+00  0.00000000E+00
  0.00000000E+00  0.00000000E+00  0.00000000E+00
  0.00000000E+00  0.00000000E+00  0.00000000E+00
  0.00000000E+00  0.00000000E+00  0.00000000E+00
  0.00000000E+00  0.00000000E+00  0.00000000E+00
  0.00000000E+00  0.00000000E+00  0.00000000E+00
  0.00000000E+00  0.00000000E+00  0.00000000E+00
  0.00000000E+00  0.00000000E+00  0.00000000E+00
  0.00000000E+00  0.00000000E+00  0.00000000E+00
  0.00000000E+00  0.00000000E+00  0.00000000E+00
  0.00000000E+00  0.00000000E+00  0.00000000E+00
  0.00000000E+00  0.00000000E+00  0.00000000E+00
  0.00000000E+00  0.00000000E+00  0.00000000E+00
  0.00000000E+00  0.00000000E+00  0.00000000E+00
  0.00000000E+00  0.00000000E+00  0.00000000E+00
  0.00000000E+00  0.00000000E+00  0.00000000E+00
  0.00000000E+00  0.00000000E+00  0.00000000E+00
  0.00000000E+00  0.00000000E+00  0.00000000E+00
  0.00000000E+00  0.00000000E+00  0.00000000E+00
  0.00000000E+00  0.00000000E+00  0.00000000E+00
  0.00000000E+00  0.00000000E+00  0.00000000E+00
  0.00000000E+00  0.00000000E+00  0.00000000E+00
  0.00000000E+00  0.00000000E+00  0.00000000E+00
  0.00000000E+00  0.00000000E+00  0.00000000E+00
  0.00000000E+00  0.00000000E+00  0.00000000E+00
  0.00000000E+00  0.00000000E+00  0.00000000E+00
