SrTiFeO                                 
   1.00000000000000     
    11.1989999999999998    0.0000000000000000    0.0000000000000000
     0.0000000000000000   11.1989999999999998    0.0000000000000000
     0.0000000000000000    0.0000000000000000   15.9830000000000005
   Sr   Ti   Fe   O 
    32    30     2    94
Direct
  0.9992561103089077  0.2500356870342013  0.1234032627756689
  0.0030580927865061  0.2474756598562466  0.6287635638996437
  0.9995378536766266  0.7491699375906535  0.1254149567376024
  0.9938455203647697  0.7546388047436854  0.6253312839279032
  0.5019043408982981  0.2501049102637443  0.1249143869596516
  0.4939205128472839  0.2446985185126602  0.6278981793779558
  0.5010472219001895  0.7497532738807532  0.1245550217661796
  0.5021547034173556  0.7567491759024099  0.6278462167881329
  0.0030580927865061  0.2474756598562466  0.3712364361003563
  0.9992561103089077  0.2500356870342013  0.8765967372243311
  0.9938455203647697  0.7546388047436854  0.3746687160720969
  0.9995378536766266  0.7491699375906535  0.8745850432623976
  0.4939205128472839  0.2446985185126602  0.3721018206220438
  0.5019043408982981  0.2501049102637443  0.8750856130403484
  0.5021547034173556  0.7567491759024099  0.3721537832118597
  0.5010472219001895  0.7497532738807532  0.8754449782338204
  0.2496891507752559  1.0000903220743669  0.1248809171338637
  0.2494308443747175  0.0012119161232697  0.6264262712198200
  0.2507416019265418  0.4997764604924034  0.1246545545244577
  0.2525508897994392  0.4960269712689507  0.6288377501687855
  0.7506856218706741  0.0015159289996164  0.1254277500227573
  0.7475419295348343  0.9946467525286848  0.6230911318419106
  0.7511792600733130  0.5004262155814938  0.1231635982493770
  0.7476460967498507  0.5097912071052098  0.6324472879140242
  0.2494308443747175  0.0012119161232697  0.3735737287801800
  0.2496891507752559  1.0000903220743669  0.8751190828661362
  0.2525508897994392  0.4960269712689507  0.3711622498312145
  0.2507416019265418  0.4997764604924034  0.8753454454755424
  0.7475419295348343  0.9946467525286848  0.3769088681580894
  0.7506856218706741  0.0015159289996164  0.8745722499772426
  0.7476460967498507  0.5097912071052098  0.3675527120859760
  0.7511792600733130  0.5004262155814938  0.8768364017506232
  0.9996432644125319  0.0000685365795855 -0.0000000000000000
  0.9978974113276903  0.0018640939752713  0.5000000000000000
  0.0010643991162538  0.5004790795127252 -0.0000000000000000
  0.0150862745304544  0.5089691562636298  0.5000000000000000
  0.5001039601637768  0.0004283876567992 -0.0000000000000000
  0.5012965091529398  0.9993439882188192  0.5000000000000000
  0.4996508856565410  0.5006824315518407 -0.0000000000000000
  0.2504648409053802  0.2499609138996090 -0.0000000000000000
  0.2491605679606097  0.2462596227734973  0.5000000000000000
  0.2498009026629561  0.7493333194886618 -0.0000000000000000
  0.2486020370128547  0.7600934361388486  0.5000000000000000
  0.7500417314701727  0.2490936383347175 -0.0000000000000000
  0.7497491620569298  0.7507167467841390 -0.0000000000000000
  0.2495198360423277  0.2499176303004112  0.2486049647824728
  0.2495198360423277  0.2499176303004112  0.7513950352175273
  0.2491821247631782  0.7498928051780087  0.2507423915948200
  0.2491821247631782  0.7498928051780087  0.7492576084051799
  0.7497740395170762  0.2526023859629156  0.2529862359318906
  0.7497740395170762  0.2526023859629156  0.7470137640681095
  0.7499345822008273  0.7512099072821620  0.2500741476372770
  0.7499345822008273  0.7512099072821620  0.7499258523627231
  0.9992054939387705  0.0004375548832014  0.2500854092402126
  0.9992054939387705  0.0004375548832014  0.7499145907597872
  0.9995433938565251  0.4991361548027853  0.2497918151306562
  0.9995433938565251  0.4991361548027853  0.7502081848693437
  0.4998313204468822  0.0001964853273265  0.2495519926728347
  0.4998313204468822  0.0001964853273265  0.7504480073271652
  0.5005466525369803  0.4991628538954050  0.2493136082346596
  0.5005466525369803  0.4991628538954050  0.7506863917653404
  0.4920386658497335  0.5138703583017827  0.5000000000000000
  0.7540034060264093  0.2379444794064719  0.5000000000000000
  0.7497931584438450  0.7475384500483860  0.5000000000000000
  0.1100223876610451  0.1400837231883132  0.2487228565083211
  0.1100223876610451  0.1400837231883132  0.7512771434916790
  0.1092908966915923  0.6386912532338226  0.2558458976194213
  0.1092908966915923  0.6386912532338226  0.7441541023805784
  0.6104390156927678  0.1415889409151228  0.2545191169736002
  0.6104390156927678  0.1415889409151228  0.7454808830263997
  0.6096347221921435  0.6392183170162069  0.2521835070093156
  0.6096347221921435  0.6392183170162069  0.7478164929906844
  0.3901941177880712  0.3597931447055516  0.2497144800267184
  0.3901941177880712  0.3597931447055516  0.7502855199732815
  0.3897370841168130  0.8594660042074288  0.2480046755792163
  0.3897370841168130  0.8594660042074288  0.7519953244207840
  0.8909800437361304  0.3596380067893390  0.2460480937491772
  0.8909800437361304  0.3596380067893390  0.7539519062508230
  0.8898813810393416  0.8610273271544434  0.2488119934939695
  0.8898813810393416  0.8610273271544434  0.7511880065060306
  0.3603653239092976  0.1108303505830212  0.2504965922977083
  0.3603653239092976  0.1108303505830212  0.7495034077022915
  0.3608088468725328  0.6088447987338954  0.2542780932513434
  0.3608088468725328  0.6088447987338954  0.7457219067486567
  0.8587994329618416  0.1117183443399876  0.2569152637166881
  0.8587994329618416  0.1117183443399876  0.7430847362833122
  0.8613407806255019  0.6106296952041773  0.2484967942540420
  0.8613407806255019  0.6106296952041773  0.7515032057459580
  0.1406119347618320  0.3908367002938106  0.2505048593134471
  0.1406119347618320  0.3908367002938106  0.7494951406865534
  0.1399808699563513  0.8894575695027558  0.2485134124125438
  0.1399808699563513  0.8894575695027558  0.7514865875874560
  0.6404331127466799  0.3916785281668742  0.2442579895336761
  0.6404331127466799  0.3916785281668742  0.7557420104663241
  0.6396003433888916  0.8909524531953447  0.2497539402147506
  0.6396003433888916  0.8909524531953447  0.7502460597852491
  0.3597307323508731  0.3910416007273085 -0.0000000000000000
  0.3587676285728970  0.8903929822429291 -0.0000000000000000
  0.3542235600107491  0.8938249395329690  0.5000000000000000
  0.8604054437135534  0.3899563790520683 -0.0000000000000000
  0.8592082794573184  0.8908210020848035 -0.0000000000000000
  0.8610721173992373  0.8914902452271974  0.5000000000000000
  0.1406416474846326  0.1091086200571031 -0.0000000000000000
  0.1466079801680206  0.1041513058987129  0.5000000000000000
  0.1413284247539202  0.6089897235128727 -0.0000000000000000
  0.1502062637195891  0.6038716434142848  0.5000000000000000
  0.6406339536522365  0.1092037339834056 -0.0000000000000000
  0.6294237612368540  0.1121462019145291  0.5000000000000000
  0.6400724832367050  0.6093924581849574 -0.0000000000000000
  0.1095942398948001  0.3595078508161810 -0.0000000000000000
  0.1026474779062683  0.3546613586222023  0.5000000000000000
  0.1092600555864967  0.8592692231231120 -0.0000000000000000
  0.1060801321092591  0.8530143962711757  0.5000000000000000
  0.6100199238045423  0.3601541404124767 -0.0000000000000000
  0.6084576778021051  0.8597510923540883 -0.0000000000000000
  0.6059654339948014  0.8576439722316620  0.5000000000000000
  0.3907924792920284  0.1409046744648965 -0.0000000000000000
  0.3883989008686569  0.1404850450438505  0.5000000000000000
  0.3906432460995882  0.6416403207426827 -0.0000000000000000
  0.8907469054938030  0.1406199969092570 -0.0000000000000000
  0.9049884935198005  0.1455878475936733  0.5000000000000000
  0.8905664046265074  0.6401748265570347 -0.0000000000000000
  0.9974887382619313  0.0023128935564434  0.1253349809514977
  0.0038027514022605  0.9972428354392625  0.6255076611799275
  0.0027145340860464  0.5021080875500321  0.1253316873267485
  0.9901303582676829  0.4875216302305163  0.6216965671755728
  0.5007257742125201  0.0026053601165536  0.1252378156715029
  0.4967109303682670  0.9967961823170550  0.6257447351786054
  0.4974472152180477  0.5027610234500799  0.1251729298321901
  0.5074039924295556  0.4865104718944089  0.6220511311529330
  0.0038027514022605  0.9972428354392625  0.3744923388200723
  0.9974887382619313  0.0023128935564434  0.8746650190485019
  0.9901303582676829  0.4875216302305163  0.3783034328244272
  0.0027145340860464  0.5021080875500321  0.8746683126732513
  0.4967109303682670  0.9967961823170550  0.3742552648213945
  0.5007257742125201  0.0026053601165536  0.8747621843285043
  0.4974472152180477  0.5027610234500799  0.8748270701678096
  0.2492525422285880  0.2510669744368704  0.3747265270401657
  0.2501709271830738  0.2504092845324229  0.8751924630851073
  0.2514000106202439  0.7519151674226732  0.3759264078076919
  0.2485195291039072  0.7456606947442874  0.8741272988064087
  0.7500828375965787  0.2460397570242482  0.8743682875698084
  0.7484930056015532  0.7496395339970970  0.8752282321463157
  0.2501709271830738  0.2504092845324229  0.1248075369148925
  0.2492525422285880  0.2510669744368704  0.6252734729598343
  0.2485195291039072  0.7456606947442874  0.1258727011935914
  0.2514000106202439  0.7519151674226732  0.6240735921923081
  0.7500828375965787  0.2460397570242482  0.1256317124301917
  0.7472185179623380  0.2759368986960635  0.6206401214924306
  0.7484930056015532  0.7496395339970970  0.1247717678536846
  0.7505037652188294  0.7502849154816450  0.6265869238851777
  0.7472185179623380  0.2759368986960635  0.3793598785075694
  0.3962266414996742  0.6475932728160823  0.5000000000000000
  0.5074039924295556  0.4865104718944089  0.3779488688470670
  0.3678843045103240  0.3865960899331278  0.5000000000000000
  0.8908204675716985  0.6279256984407717  0.5000000000000000
  0.7505037652188294  0.7502849154816450  0.3734130761148225
  0.6463619258951847  0.5895639434791429  0.5000000000000000
 
  0.00000000E+00  0.00000000E+00  0.00000000E+00
  0.00000000E+00  0.00000000E+00  0.00000000E+00
  0.00000000E+00  0.00000000E+00  0.00000000E+00
  0.00000000E+00  0.00000000E+00  0.00000000E+00
  0.00000000E+00  0.00000000E+00  0.00000000E+00
  0.00000000E+00  0.00000000E+00  0.00000000E+00
  0.00000000E+00  0.00000000E+00  0.00000000E+00
  0.00000000E+00  0.00000000E+00  0.00000000E+00
  0.00000000E+00  0.00000000E+00  0.00000000E+00
  0.00000000E+00  0.00000000E+00  0.00000000E+00
  0.00000000E+00  0.00000000E+00  0.00000000E+00
  0.00000000E+00  0.00000000E+00  0.00000000E+00
  0.00000000E+00  0.00000000E+00  0.00000000E+00
  0.00000000E+00  0.00000000E+00  0.00000000E+00
  0.00000000E+00  0.00000000E+00  0.00000000E+00
  0.00000000E+00  0.00000000E+00  0.00000000E+00
  0.00000000E+00  0.00000000E+00  0.00000000E+00
  0.00000000E+00  0.00000000E+00  0.00000000E+00
  0.00000000E+00  0.00000000E+00  0.00000000E+00
  0.00000000E+00  0.00000000E+00  0.00000000E+00
  0.00000000E+00  0.00000000E+00  0.00000000E+00
  0.00000000E+00  0.00000000E+00  0.00000000E+00
  0.00000000E+00  0.00000000E+00  0.00000000E+00
  0.00000000E+00  0.00000000E+00  0.00000000E+00
  0.00000000E+00  0.00000000E+00  0.00000000E+00
  0.00000000E+00  0.00000000E+00  0.00000000E+00
  0.00000000E+00  0.00000000E+00  0.00000000E+00
  0.00000000E+00  0.00000000E+00  0.00000000E+00
  0.00000000E+00  0.00000000E+00  0.00000000E+00
  0.00000000E+00  0.00000000E+00  0.00000000E+00
  0.00000000E+00  0.00000000E+00  0.00000000E+00
  0.00000000E+00  0.00000000E+00  0.00000000E+00
  0.00000000E+00  0.00000000E+00  0.00000000E+00
  0.00000000E+00  0.00000000E+00  0.00000000E+00
  0.00000000E+00  0.00000000E+00  0.00000000E+00
  0.00000000E+00  0.00000000E+00  0.00000000E+00
  0.00000000E+00  0.00000000E+00  0.00000000E+00
  0.00000000E+00  0.00000000E+00  0.00000000E+00
  0.00000000E+00  0.00000000E+00  0.00000000E+00
  0.00000000E+00  0.00000000E+00  0.00000000E+00
  0.00000000E+00  0.00000000E+00  0.00000000E+00
  0.00000000E+00  0.00000000E+00  0.00000000E+00
  0.00000000E+00  0.00000000E+00  0.00000000E+00
  0.00000000E+00  0.00000000E+00  0.00000000E+00
  0.00000000E+00  0.00000000E+00  0.00000000E+00
  0.00000000E+00  0.00000000E+00  0.00000000E+00
  0.00000000E+00  0.00000000E+00  0.00000000E+00
  0.00000000E+00  0.00000000E+00  0.00000000E+00
  0.00000000E+00  0.00000000E+00  0.00000000E+00
  0.00000000E+00  0.00000000E+00  0.00000000E+00
  0.00000000E+00  0.00000000E+00  0.00000000E+00
  0.00000000E+00  0.00000000E+00  0.00000000E+00
  0.00000000E+00  0.00000000E+00  0.00000000E+00
  0.00000000E+00  0.00000000E+00  0.00000000E+00
  0.00000000E+00  0.00000000E+00  0.00000000E+00
  0.00000000E+00  0.00000000E+00  0.00000000E+00
  0.00000000E+00  0.00000000E+00  0.00000000E+00
  0.00000000E+00  0.00000000E+00  0.00000000E+00
  0.00000000E+00  0.00000000E+00  0.00000000E+00
  0.00000000E+00  0.00000000E+00  0.00000000E+00
  0.00000000E+00  0.00000000E+00  0.00000000E+00
  0.00000000E+00  0.00000000E+00  0.00000000E+00
  0.00000000E+00  0.00000000E+00  0.00000000E+00
  0.00000000E+00  0.00000000E+00  0.00000000E+00
  0.00000000E+00  0.00000000E+00  0.00000000E+00
  0.00000000E+00  0.00000000E+00  0.00000000E+00
  0.00000000E+00  0.00000000E+00  0.00000000E+00
  0.00000000E+00  0.00000000E+00  0.00000000E+00
  0.00000000E+00  0.00000000E+00  0.00000000E+00
  0.00000000E+00  0.00000000E+00  0.00000000E+00
  0.00000000E+00  0.00000000E+00  0.00000000E+00
  0.00000000E+00  0.00000000E+00  0.00000000E+00
  0.00000000E+00  0.00000000E+00  0.00000000E+00
  0.00000000E+00  0.00000000E+00  0.00000000E+00
  0.00000000E+00  0.00000000E+00  0.00000000E+00
  0.00000000E+00  0.00000000E+00  0.00000000E+00
  0.00000000E+00  0.00000000E+00  0.00000000E+00
  0.00000000E+00  0.00000000E+00  0.00000000E+00
  0.00000000E+00  0.00000000E+00  0.00000000E+00
  0.00000000E+00  0.00000000E+00  0.00000000E+00
  0.00000000E+00  0.00000000E+00  0.00000000E+00
  0.00000000E+00  0.00000000E+00  0.00000000E+00
  0.00000000E+00  0.00000000E+00  0.00000000E+00
  0.00000000E+00  0.00000000E+00  0.00000000E+00
  0.00000000E+00  0.00000000E+00  0.00000000E+00
  0.00000000E+00  0.00000000E+00  0.00000000E+00
  0.00000000E+00  0.00000000E+00  0.00000000E+00
  0.00000000E+00  0.00000000E+00  0.00000000E+00
  0.00000000E+00  0.00000000E+00  0.00000000E+00
  0.00000000E+00  0.00000000E+00  0.00000000E+00
  0.00000000E+00  0.00000000E+00  0.00000000E+00
  0.00000000E+00  0.00000000E+00  0.00000000E+00
  0.00000000E+00  0.00000000E+00  0.00000000E+00
  0.00000000E+00  0.00000000E+00  0.00000000E+00
  0.00000000E+00  0.00000000E+00  0.00000000E+00
  0.00000000E+00  0.00000000E+00  0.00000000E+00
  0.00000000E+00  0.00000000E+00  0.00000000E+00
  0.00000000E+00  0.00000000E+00  0.00000000E+00
  0.00000000E+00  0.00000000E+00  0.00000000E+00
  0.00000000E+00  0.00000000E+00  0.00000000E+00
  0.00000000E+00  0.00000000E+00  0.00000000E+00
  0.00000000E+00  0.00000000E+00  0.00000000E+00
  0.00000000E+00  0.00000000E+00  0.00000000E+00
  0.00000000E+00  0.00000000E+00  0.00000000E+00
  0.00000000E+00  0.00000000E+00  0.00000000E+00
  0.00000000E+00  0.00000000E+00  0.00000000E+00
  0.00000000E+00  0.00000000E+00  0.00000000E+00
  0.00000000E+00  0.00000000E+00  0.00000000E+00
  0.00000000E+00  0.00000000E+00  0.00000000E+00
  0.00000000E+00  0.00000000E+00  0.00000000E+00
  0.00000000E+00  0.00000000E+00  0.00000000E+00
  0.00000000E+00  0.00000000E+00  0.00000000E+00
  0.00000000E+00  0.00000000E+00  0.00000000E+00
  0.00000000E+00  0.00000000E+00  0.00000000E+00
  0.00000000E+00  0.00000000E+00  0.00000000E+00
  0.00000000E+00  0.00000000E+00  0.00000000E+00
  0.00000000E+00  0.00000000E+00  0.00000000E+00
  0.00000000E+00  0.00000000E+00  0.00000000E+00
  0.00000000E+00  0.00000000E+00  0.00000000E+00
  0.00000000E+00  0.00000000E+00  0.00000000E+00
  0.00000000E+00  0.00000000E+00  0.00000000E+00
  0.00000000E+00  0.00000000E+00  0.00000000E+00
  0.00000000E+00  0.00000000E+00  0.00000000E+00
  0.00000000E+00  0.00000000E+00  0.00000000E+00
  0.00000000E+00  0.00000000E+00  0.00000000E+00
  0.00000000E+00  0.00000000E+00  0.00000000E+00
  0.00000000E+00  0.00000000E+00  0.00000000E+00
  0.00000000E+00  0.00000000E+00  0.00000000E+00
  0.00000000E+00  0.00000000E+00  0.00000000E+00
  0.00000000E+00  0.00000000E+00  0.00000000E+00
  0.00000000E+00  0.00000000E+00  0.00000000E+00
  0.00000000E+00  0.00000000E+00  0.00000000E+00
  0.00000000E+00  0.00000000E+00  0.00000000E+00
  0.00000000E+00  0.00000000E+00  0.00000000E+00
  0.00000000E+00  0.00000000E+00  0.00000000E+00
  0.00000000E+00  0.00000000E+00  0.00000000E+00
  0.00000000E+00  0.00000000E+00  0.00000000E+00
  0.00000000E+00  0.00000000E+00  0.00000000E+00
  0.00000000E+00  0.00000000E+00  0.00000000E+00
  0.00000000E+00  0.00000000E+00  0.00000000E+00
  0.00000000E+00  0.00000000E+00  0.00000000E+00
  0.00000000E+00  0.00000000E+00  0.00000000E+00
  0.00000000E+00  0.00000000E+00  0.00000000E+00
  0.00000000E+00  0.00000000E+00  0.00000000E+00
  0.00000000E+00  0.00000000E+00  0.00000000E+00
  0.00000000E+00  0.00000000E+00  0.00000000E+00
  0.00000000E+00  0.00000000E+00  0.00000000E+00
  0.00000000E+00  0.00000000E+00  0.00000000E+00
  0.00000000E+00  0.00000000E+00  0.00000000E+00
  0.00000000E+00  0.00000000E+00  0.00000000E+00
  0.00000000E+00  0.00000000E+00  0.00000000E+00
  0.00000000E+00  0.00000000E+00  0.00000000E+00
  0.00000000E+00  0.00000000E+00  0.00000000E+00
  0.00000000E+00  0.00000000E+00  0.00000000E+00
  0.00000000E+00  0.00000000E+00  0.00000000E+00
  0.00000000E+00  0.00000000E+00  0.00000000E+00
  0.00000000E+00  0.00000000E+00  0.00000000E+00
  0.00000000E+00  0.00000000E+00  0.00000000E+00
