Sr   Ti   O                             
   1.00000000000000     
    11.1989999999999998    0.0000000000000000    0.0000000000000000
     0.0000000000000000   11.1989999999999998    0.0000000000000000
     0.0000000000000000    0.0000000000000000   15.9830000000000005
   Sr   Ti   O 
    32    32    94
Direct
  0.0001498778587916  0.2491112748648306  0.1250690513114154
  0.9991642152304102  0.2486865556382568  0.6262713866975050
  0.9986039810540648  0.7503726744789412  0.1253174053635597
  0.0008494443738453  0.7503564188900399  0.6282702329531820
  0.4994643013861790  0.2501315530673502  0.1241041900157763
  0.5013045295794700  0.2396977826730702  0.6279620534416810
  0.4994819487270356  0.7496831157141265  0.1242855605787641
  0.4959678655671537  0.7578817572499981  0.6288567645639227
  0.9982148355673020  0.2500826256070964  0.3751997580710127
  0.0012536365983804  0.2494979060523715  0.8744728179498791
  1.0000105538256434  0.7485404585859499  0.3756571994775947
  0.9997900167061116  0.7491304495749012  0.8754695304383815
  0.5012194734366275  0.2455088639195504  0.3712972428374049
  0.4986295506189151  0.2509790585558222  0.8756937252144839
  0.4955247250445932  0.7529733744978632  0.3708225119901161
  0.5016117672903530  0.7511552372960477  0.8772064481096893
  0.2503744421471169  0.9999392125880584  0.1249513675105407
  0.2488734337358787  0.9984909617045522  0.6273542082301565
  0.2497487887734432  0.4994203362880056  0.1245500980574404
  0.2365637805035416  0.5021511269148858  0.6271312875408908
  0.7487422592360712  0.9990864722785403  0.1249121650257552
  0.7512358896720628  0.0017164188258012  0.6282571455545950
  0.7488352439482076  0.4996833011698126  0.1241637046994506
  0.7660948923791306  0.4933284159672198  0.6294031381469924
  0.2488473600469526  0.9971245969610590  0.3738541371557250
  0.2503157351526228  0.0008537875586113  0.8754747206346700
  0.2428287718527039  0.5046063976493947  0.3728268854536496
  0.2510080596771568  0.4993628739442353  0.8752609609469443
  0.7490730377534743  0.0025570739265497  0.3719391669731116
  0.7510597513089216  0.9995613072428162  0.8763362773022485
  0.7562129237962417  0.4946821065015471  0.3705679361995092
  0.7504744576617538  0.5012929289309676  0.8755446591208135
  0.0002462519871843  0.0000193289576385  0.0003191276808153
  0.0011951348840878  0.0012710708372700  0.4997269288570679
  0.9999398230012415  0.4995459227255495  0.0005345932949844
  0.9980435177103736  0.4991043765198099  0.4999905730699275
  0.4998097321194609  0.0002600956303043  0.0004008648498442
  0.4996604345850307  0.9985208448561983  0.5000175426036865
  0.4995710300008858  0.4998288063229884  0.9996507960988513
  0.2497012816946216  0.2499405192421018  0.0002652080078569
  0.2489870055847346  0.2460220403144820  0.5004371394118593
  0.2499238105774610  0.7491502839240396  1.0000081157462259
  0.2476648275240557  0.7502005529820891  0.5002961927086857
  0.7499152492276184  0.2503129337840160  0.0000191034044702
  0.7478596129705276  0.2472855158943605  0.5001942634495646
  0.7503235727174653  0.7499276396081438  0.0003004164714129
  0.2503144890934855  0.2509971744848040  0.2502684275637172
  0.2528956437724021  0.2513566423775921  0.7495765983765205
  0.2485281385080244  0.7498071581964754  0.2493282510789925
  0.2511086512232554  0.7498682301685505  0.7501649111814063
  0.7495385737340620  0.2493564605831995  0.2491984135594860
  0.7493064781176968  0.2496659258235555  0.7506231354171741
  0.7476390990989722  0.7480115873063325  0.2507200754303673
  0.7496208511853004  0.7510997132110480  0.7510174748320266
  0.9996116690324170  0.9999044148981949  0.2507161836688132
  0.0005200335293191  0.9999700114741795  0.7514599358166009
  0.9993100435831320  0.4995877450022215  0.2492828763792274
  0.0006430278154091  0.4995942737606440  0.7523246082791026
  0.4988447695833390  0.9996563455052255  0.2495571315399453
  0.5003565380207442 -0.0000083740403939  0.7520614438749719
  0.4987950942385861  0.4993683234329717  0.2489286477751265
  0.5035586546872995  0.5034391769175809  0.7508280322237341
  0.4985351609227280  0.4974809914840209  0.4976266422483329
  0.7542030312129974  0.7593026769051813  0.5020413325585309
  0.1099568421739984  0.1407246796788847  0.2536190304490714
  0.1101535082590251  0.1387489847883819  0.7470484314958536
  0.1080564938382146  0.6402288646345790  0.2514331970887501
  0.1127489803194423  0.6378893998477976  0.7495134137205673
  0.6099783930398491  0.1386207507067295  0.2491916205839096
  0.6094860652399290  0.1407175455438328  0.7512673014856600
  0.6068787065852693  0.6393751504641723  0.2484396220490822
  0.3907211015525993  0.3589463173423648  0.2482886996305967
  0.3883096584379495  0.3579465843547459  0.7450533926319913
  0.3883703468710546  0.8596719211992431  0.2495389867663491
  0.3895894024455575  0.8608239707249551  0.7526177434179514
  0.8893654701759106  0.3592976916019872  0.2519081780434890
  0.8889492509672331  0.3606856137534871  0.7495731457926346
  0.8874562866274552  0.8586480639283486  0.2561329784181191
  0.8922366441415328  0.8617718368191916  0.7536724621750313
  0.3591338768386887  0.1096148935418150  0.2524610033572616
  0.3598868290817229  0.1091616462304670  0.7490645406532915
  0.3577875082777546  0.6091366565732302  0.2509827022712480
  0.3630678775939248  0.6110492013628248  0.7379299179855295
  0.8595564638429241  0.1092439517532165  0.2499081302407371
  0.8602185541685718  0.1106656609654159  0.7516491357796385
  0.8580207767143302  0.6085570608746432  0.2500984790787544
  0.8631948092504874  0.6122030403276577  0.7507090539212167
  0.1397038424001309  0.3904563086599283  0.2508743625000871
  0.1387999644865245  0.3886165591043453  0.7516053512737377
  0.1387407447833123  0.8899563412754800  0.2495958341532849
  0.1403177511529674  0.8891751453621657  0.7515348804727995
  0.6401511057813014  0.3895671520950758  0.2500313008033213
  0.6385623380051303  0.8883134893211213  0.2518627103988400
  0.6414603148863636  0.8933556203550705  0.7514614101679595
  0.3579776134071772  0.3899395332697696  0.0014078119683019
  0.3590198065378183  0.8899598381436142  0.9997613916389110
  0.3592878147334688  0.8879012357381778  0.5000032666674817
  0.8587887810257883  0.3909057757388700  0.0000573964552532
  0.8646407627646533  0.3815047770621351  0.4994050825071384
  0.8602271714580392  0.8911710057468474  0.0013474377034157
  0.8586546867884338  0.8880179720631822  0.4924784397172176
  0.1404841424194892  0.1086498009639705  0.0019049249493069
  0.1399790491087901  0.1097365532264305  0.4995962287902450
  0.1407626073215976  0.6084305544151815  0.0000832225471951
  0.1251773851248057  0.6194313014825747  0.5000013162193532
  0.6407146365173848  0.1095238321722475  0.0006506351261828
  0.6425662281889695  0.1027063704731198  0.5003208372036809
  0.6408930154095424  0.6096323791350017  0.0009558850900918
  0.1087740233893003  0.3585217083825202  0.0002311816644962
  0.1217996714337317  0.3690629876160219  0.4996820365413331
  0.1095686089815169  0.8587512484926233  0.9991310793510905
  0.1079654987151282  0.8620776819392373  0.4990780202317478
  0.6089753659750236  0.3592915892206948  0.0011168939426610
  0.6095852739790183  0.8597022701438823  0.0010196544876341
  0.6039789879082080  0.8484368811324026  0.5004726726873319
  0.3904124625051295  0.1406015030650929  0.0008176298005917
  0.3928354473858452  0.1424107872135073  0.4998843420205524
  0.3907317291492648  0.6405721083707371  0.0013563902071676
  0.3730306741891242  0.6241494731636396  0.4991458267889132
  0.8904693287754428  0.1408233331697581  0.9992405762688420
  0.8898568476277389  0.1368550704512079  0.4995002876484440
  0.8907720168860469  0.6404994910493761  0.0010154144167535
  0.9990075529531166  0.9991238209350266  0.1263149589611273
  0.9965228455614207  0.9965189308726669  0.6241315894682726
  0.9997016118760360  0.4989351221325288  0.1255650063780882
  0.0017898011826256  0.4978749181456237  0.6253183167895281
  0.4986143335907490  0.9995994305397681  0.1255596662164765
  0.4998919835158216  0.9996437992861921  0.6252126978927099
  0.4988302169642642  0.4994335803302172  0.1253492536556814
  0.0014832417928973  0.0016948566701854  0.3752414078679255
  0.0023521984828258  0.0025778726804565  0.8759496707332445
  0.9976094026357740  0.5003460198934372  0.3755206011573563
  0.9996186882560636  0.4998785675522763  0.8756661819534260
  0.4999715770386349  0.9981127596930860  0.3755737641119228
  0.4996401495959635  0.0010617711535642  0.8759690156739817
  0.4970517027332209  0.4985184442191252  0.8771165772773610
  0.2578827587540533  0.2595258764357342  0.3775391469349180
  0.2502120119262474  0.2483944733272967  0.8753154117759073
  0.2481587343683239  0.7514040459214719  0.3748706156361140
  0.2533779043224530  0.7436592473229934  0.8742320605793448
  0.7482346924528509  0.2474383291655836  0.3750461698415763
  0.7470692358522429  0.2537466933246176  0.8746188375577517
  0.7363190935570286  0.7340680620654758  0.3792086639182800
  0.7523562353303548  0.7519521942476670  0.8771252606727278
  0.2486638911477072  0.2486345441260590  0.1262721854667007
  0.2510259526886510  0.2524075906262648  0.6227828234320425
  0.2483894821143451  0.7490868818371917  0.1250728001946867
  0.2459899977726956  0.7550910435870813  0.6245122626158890
  0.7510961717615310  0.2500946075602182  0.1251152401467101
  0.7514247782303551  0.2452944322895344  0.6246401349935724
  0.7506144375320474  0.7510219162006991  0.1267338549397194
  0.6398811077223602  0.3904846954394530  0.7426827852326772
  0.6143979344399645  0.6475592968193217  0.7538957618651531
  0.4978621386990569  0.4968938593876364  0.3747992859013318
  0.6050929283511041  0.3543278412765765  0.4997882935487536
  0.7570994453782072  0.7604934289858508  0.6248104908041192
  0.8693182931897783  0.6270297063030853  0.5023788475249366
  0.5779491747711608  0.5689062312331425  0.5860892704710786
 
  0.00000000E+00  0.00000000E+00  0.00000000E+00
  0.00000000E+00  0.00000000E+00  0.00000000E+00
  0.00000000E+00  0.00000000E+00  0.00000000E+00
  0.00000000E+00  0.00000000E+00  0.00000000E+00
  0.00000000E+00  0.00000000E+00  0.00000000E+00
  0.00000000E+00  0.00000000E+00  0.00000000E+00
  0.00000000E+00  0.00000000E+00  0.00000000E+00
  0.00000000E+00  0.00000000E+00  0.00000000E+00
  0.00000000E+00  0.00000000E+00  0.00000000E+00
  0.00000000E+00  0.00000000E+00  0.00000000E+00
  0.00000000E+00  0.00000000E+00  0.00000000E+00
  0.00000000E+00  0.00000000E+00  0.00000000E+00
  0.00000000E+00  0.00000000E+00  0.00000000E+00
  0.00000000E+00  0.00000000E+00  0.00000000E+00
  0.00000000E+00  0.00000000E+00  0.00000000E+00
  0.00000000E+00  0.00000000E+00  0.00000000E+00
  0.00000000E+00  0.00000000E+00  0.00000000E+00
  0.00000000E+00  0.00000000E+00  0.00000000E+00
  0.00000000E+00  0.00000000E+00  0.00000000E+00
  0.00000000E+00  0.00000000E+00  0.00000000E+00
  0.00000000E+00  0.00000000E+00  0.00000000E+00
  0.00000000E+00  0.00000000E+00  0.00000000E+00
  0.00000000E+00  0.00000000E+00  0.00000000E+00
  0.00000000E+00  0.00000000E+00  0.00000000E+00
  0.00000000E+00  0.00000000E+00  0.00000000E+00
  0.00000000E+00  0.00000000E+00  0.00000000E+00
  0.00000000E+00  0.00000000E+00  0.00000000E+00
  0.00000000E+00  0.00000000E+00  0.00000000E+00
  0.00000000E+00  0.00000000E+00  0.00000000E+00
  0.00000000E+00  0.00000000E+00  0.00000000E+00
  0.00000000E+00  0.00000000E+00  0.00000000E+00
  0.00000000E+00  0.00000000E+00  0.00000000E+00
  0.00000000E+00  0.00000000E+00  0.00000000E+00
  0.00000000E+00  0.00000000E+00  0.00000000E+00
  0.00000000E+00  0.00000000E+00  0.00000000E+00
  0.00000000E+00  0.00000000E+00  0.00000000E+00
  0.00000000E+00  0.00000000E+00  0.00000000E+00
  0.00000000E+00  0.00000000E+00  0.00000000E+00
  0.00000000E+00  0.00000000E+00  0.00000000E+00
  0.00000000E+00  0.00000000E+00  0.00000000E+00
  0.00000000E+00  0.00000000E+00  0.00000000E+00
  0.00000000E+00  0.00000000E+00  0.00000000E+00
  0.00000000E+00  0.00000000E+00  0.00000000E+00
  0.00000000E+00  0.00000000E+00  0.00000000E+00
  0.00000000E+00  0.00000000E+00  0.00000000E+00
  0.00000000E+00  0.00000000E+00  0.00000000E+00
  0.00000000E+00  0.00000000E+00  0.00000000E+00
  0.00000000E+00  0.00000000E+00  0.00000000E+00
  0.00000000E+00  0.00000000E+00  0.00000000E+00
  0.00000000E+00  0.00000000E+00  0.00000000E+00
  0.00000000E+00  0.00000000E+00  0.00000000E+00
  0.00000000E+00  0.00000000E+00  0.00000000E+00
  0.00000000E+00  0.00000000E+00  0.00000000E+00
  0.00000000E+00  0.00000000E+00  0.00000000E+00
  0.00000000E+00  0.00000000E+00  0.00000000E+00
  0.00000000E+00  0.00000000E+00  0.00000000E+00
  0.00000000E+00  0.00000000E+00  0.00000000E+00
  0.00000000E+00  0.00000000E+00  0.00000000E+00
  0.00000000E+00  0.00000000E+00  0.00000000E+00
  0.00000000E+00  0.00000000E+00  0.00000000E+00
  0.00000000E+00  0.00000000E+00  0.00000000E+00
  0.00000000E+00  0.00000000E+00  0.00000000E+00
  0.00000000E+00  0.00000000E+00  0.00000000E+00
  0.00000000E+00  0.00000000E+00  0.00000000E+00
  0.00000000E+00  0.00000000E+00  0.00000000E+00
  0.00000000E+00  0.00000000E+00  0.00000000E+00
  0.00000000E+00  0.00000000E+00  0.00000000E+00
  0.00000000E+00  0.00000000E+00  0.00000000E+00
  0.00000000E+00  0.00000000E+00  0.00000000E+00
  0.00000000E+00  0.00000000E+00  0.00000000E+00
  0.00000000E+00  0.00000000E+00  0.00000000E+00
  0.00000000E+00  0.00000000E+00  0.00000000E+00
  0.00000000E+00  0.00000000E+00  0.00000000E+00
  0.00000000E+00  0.00000000E+00  0.00000000E+00
  0.00000000E+00  0.00000000E+00  0.00000000E+00
  0.00000000E+00  0.00000000E+00  0.00000000E+00
  0.00000000E+00  0.00000000E+00  0.00000000E+00
  0.00000000E+00  0.00000000E+00  0.00000000E+00
  0.00000000E+00  0.00000000E+00  0.00000000E+00
  0.00000000E+00  0.00000000E+00  0.00000000E+00
  0.00000000E+00  0.00000000E+00  0.00000000E+00
  0.00000000E+00  0.00000000E+00  0.00000000E+00
  0.00000000E+00  0.00000000E+00  0.00000000E+00
  0.00000000E+00  0.00000000E+00  0.00000000E+00
  0.00000000E+00  0.00000000E+00  0.00000000E+00
  0.00000000E+00  0.00000000E+00  0.00000000E+00
  0.00000000E+00  0.00000000E+00  0.00000000E+00
  0.00000000E+00  0.00000000E+00  0.00000000E+00
  0.00000000E+00  0.00000000E+00  0.00000000E+00
  0.00000000E+00  0.00000000E+00  0.00000000E+00
  0.00000000E+00  0.00000000E+00  0.00000000E+00
  0.00000000E+00  0.00000000E+00  0.00000000E+00
  0.00000000E+00  0.00000000E+00  0.00000000E+00
  0.00000000E+00  0.00000000E+00  0.00000000E+00
  0.00000000E+00  0.00000000E+00  0.00000000E+00
  0.00000000E+00  0.00000000E+00  0.00000000E+00
  0.00000000E+00  0.00000000E+00  0.00000000E+00
  0.00000000E+00  0.00000000E+00  0.00000000E+00
  0.00000000E+00  0.00000000E+00  0.00000000E+00
  0.00000000E+00  0.00000000E+00  0.00000000E+00
  0.00000000E+00  0.00000000E+00  0.00000000E+00
  0.00000000E+00  0.00000000E+00  0.00000000E+00
  0.00000000E+00  0.00000000E+00  0.00000000E+00
  0.00000000E+00  0.00000000E+00  0.00000000E+00
  0.00000000E+00  0.00000000E+00  0.00000000E+00
  0.00000000E+00  0.00000000E+00  0.00000000E+00
  0.00000000E+00  0.00000000E+00  0.00000000E+00
  0.00000000E+00  0.00000000E+00  0.00000000E+00
  0.00000000E+00  0.00000000E+00  0.00000000E+00
  0.00000000E+00  0.00000000E+00  0.00000000E+00
  0.00000000E+00  0.00000000E+00  0.00000000E+00
  0.00000000E+00  0.00000000E+00  0.00000000E+00
  0.00000000E+00  0.00000000E+00  0.00000000E+00
  0.00000000E+00  0.00000000E+00  0.00000000E+00
  0.00000000E+00  0.00000000E+00  0.00000000E+00
  0.00000000E+00  0.00000000E+00  0.00000000E+00
  0.00000000E+00  0.00000000E+00  0.00000000E+00
  0.00000000E+00  0.00000000E+00  0.00000000E+00
  0.00000000E+00  0.00000000E+00  0.00000000E+00
  0.00000000E+00  0.00000000E+00  0.00000000E+00
  0.00000000E+00  0.00000000E+00  0.00000000E+00
  0.00000000E+00  0.00000000E+00  0.00000000E+00
  0.00000000E+00  0.00000000E+00  0.00000000E+00
  0.00000000E+00  0.00000000E+00  0.00000000E+00
  0.00000000E+00  0.00000000E+00  0.00000000E+00
  0.00000000E+00  0.00000000E+00  0.00000000E+00
  0.00000000E+00  0.00000000E+00  0.00000000E+00
  0.00000000E+00  0.00000000E+00  0.00000000E+00
  0.00000000E+00  0.00000000E+00  0.00000000E+00
  0.00000000E+00  0.00000000E+00  0.00000000E+00
  0.00000000E+00  0.00000000E+00  0.00000000E+00
  0.00000000E+00  0.00000000E+00  0.00000000E+00
  0.00000000E+00  0.00000000E+00  0.00000000E+00
  0.00000000E+00  0.00000000E+00  0.00000000E+00
  0.00000000E+00  0.00000000E+00  0.00000000E+00
  0.00000000E+00  0.00000000E+00  0.00000000E+00
  0.00000000E+00  0.00000000E+00  0.00000000E+00
  0.00000000E+00  0.00000000E+00  0.00000000E+00
  0.00000000E+00  0.00000000E+00  0.00000000E+00
  0.00000000E+00  0.00000000E+00  0.00000000E+00
  0.00000000E+00  0.00000000E+00  0.00000000E+00
  0.00000000E+00  0.00000000E+00  0.00000000E+00
  0.00000000E+00  0.00000000E+00  0.00000000E+00
  0.00000000E+00  0.00000000E+00  0.00000000E+00
  0.00000000E+00  0.00000000E+00  0.00000000E+00
  0.00000000E+00  0.00000000E+00  0.00000000E+00
  0.00000000E+00  0.00000000E+00  0.00000000E+00
  0.00000000E+00  0.00000000E+00  0.00000000E+00
  0.00000000E+00  0.00000000E+00  0.00000000E+00
  0.00000000E+00  0.00000000E+00  0.00000000E+00
  0.00000000E+00  0.00000000E+00  0.00000000E+00
  0.00000000E+00  0.00000000E+00  0.00000000E+00
  0.00000000E+00  0.00000000E+00  0.00000000E+00
  0.00000000E+00  0.00000000E+00  0.00000000E+00
  0.00000000E+00  0.00000000E+00  0.00000000E+00
  0.00000000E+00  0.00000000E+00  0.00000000E+00
  0.00000000E+00  0.00000000E+00  0.00000000E+00
  0.00000000E+00  0.00000000E+00  0.00000000E+00
