SrTiFeO                                 
   1.00000000000000     
    11.1989999999999998    0.0000000000000000    0.0000000000000000
     0.0000000000000000   11.1989999999999998    0.0000000000000000
     0.0000000000000000    0.0000000000000000   15.9830000000000005
   Sr   Ti   O 
    32    32    94
Direct
  0.0007942798583746  0.2491308689150555  0.1248389831054800
 -0.0008039095018580  0.2513491536628296  0.6258077985534125
 -0.0007942798583746  0.7508691310849444  0.1248389831054800
  0.0008039095018580  0.7486508463371705  0.6258077985534125
  0.5002734991874218  0.2499035398987959  0.1239335282173544
  0.5033528233867828  0.2480523086807077  0.6288275552101159
  0.4997265008125784  0.7500964601012040  0.1239335282173544
  0.4966471766132173  0.7519476913192921  0.6288275552101159
 -0.0008039095018580  0.2513491536628296  0.3741922014465874
  0.0007942798583746  0.2491308689150555  0.8751610168945202
  0.0008039095018580  0.7486508463371705  0.3741922014465874
 -0.0007942798583746  0.7508691310849444  0.8751610168945202
  0.5033528233867828  0.2480523086807077  0.3711724447898840
  0.5002734991874218  0.2499035398987959  0.8760664717826459
  0.4966471766132173  0.7519476913192921  0.3711724447898840
  0.4997265008125784  0.7500964601012040  0.8760664717826459
  0.2501710941116578  0.0006147993132747  0.1245733053416746
  0.2497644081239242 -0.0035224489587812  0.6281193059072459
  0.2505054833166145  0.4997181404104744  0.1239626020520392
  0.2444810940079276  0.5044954915490394  0.6287419379101936
  0.7498289058883423 -0.0006147993132747  0.1245733053416746
  0.7502355918760759  0.0035224489587812  0.6281193059072459
  0.7494945166833852  0.5002818595895254  0.1239626020520392
  0.7555189059920724  0.4955045084509608  0.6287419379101936
  0.2497644081239242 -0.0035224489587812  0.3718806940927543
  0.2501710941116578  0.0006147993132747  0.8754266946583256
  0.2444810940079276  0.5044954915490394  0.3712580620898067
  0.2505054833166146  0.4997181404104744  0.8760373979479608
  0.7502355918760759  0.0035224489587812  0.3718806940927543
  0.7498289058883423 -0.0006147993132747  0.8754266946583256
  0.7555189059920724  0.4955045084509608  0.3712580620898067
  0.7494945166833852  0.5002818595895254  0.8760373979479608
 -0.0000000000000000 -0.0000000000000000  0.0000000000000000
 -0.0000000000000000 -0.0000000000000000  0.5000000000000000
 -0.0000000000000000  0.5000000000000000  0.0000000000000000
 -0.0000000000000000  0.5000000000000000  0.5000000000000000
  0.5000000000000000 -0.0000000000000000  0.0000000000000000
  0.5000000000000000 -0.0000000000000000  0.5000000000000000
  0.5000000000000000  0.5000000000000000  0.0000000000000000
  0.2500345256880249  0.2498682707847397  0.0000000000000000
  0.2475027591810951  0.2413796494694600  0.5000000000000000
  0.2495426266714685  0.7499898970838956  0.0000000000000000
  0.2491388065530670  0.7515868130443224  0.5000000000000000
  0.7504573733285316  0.2500101029161041  0.0000000000000000
  0.7508611934469333  0.2484131869556780  0.5000000000000000
  0.7499654743119750  0.7501317292152604  0.0000000000000000
  0.2511287795851710  0.2511519775580091  0.2500210225559094
  0.2511287795851710  0.2511519775580091  0.7499789774440905
  0.2493956244656930  0.7501781329943759  0.2487065345929912
  0.2493956244656930  0.7501781329943759  0.7512934654070090
  0.7506043755343071  0.2498218670056240  0.2487065345929912
  0.7506043755343071  0.2498218670056240  0.7512934654070090
  0.7488712204148289  0.7488480224419907  0.2500210225559094
  0.7488712204148289  0.7488480224419907  0.7499789774440905
 -0.0000000000000000 -0.0000000000000000  0.2509315855793923
 -0.0000000000000000 -0.0000000000000000  0.7490684144206076
 -0.0000000000000000  0.5000000000000000  0.2488027252169056
 -0.0000000000000000  0.5000000000000000  0.7511972747830946
  0.5000000000000000 -0.0000000000000000  0.2494948390086645
  0.5000000000000000 -0.0000000000000000  0.7505051609913354
  0.5000000000000000  0.5000000000000000  0.2494555210410828
  0.5000000000000000  0.5000000000000000  0.7505444789589168
  0.5000000000000000  0.5000000000000000  0.5000000000000000
  0.7524972408189048  0.7586203505305397  0.5000000000000000
  0.1119154717763524  0.1419925091221221  0.2525044994801837
  0.1119154717763524  0.1419925091221221  0.7474955005198163
  0.1092923976431590  0.6405081727614799  0.2510832177988697
  0.1092923976431590  0.6405081727614799  0.7489167822011306
  0.6107880814595688  0.1396555825079462  0.2494099959182972
  0.6107880814595688  0.1396555825079462  0.7505900040817027
  0.6077216472075789  0.6396892774135607  0.2481281662385476
  0.3922783527924211  0.3603107225864394  0.2481281662385476
  0.3922783527924211  0.3603107225864394  0.7518718337614525
  0.3892119185404316  0.8603444174920539  0.2494099959182972
  0.3892119185404316  0.8603444174920539  0.7505900040817027
  0.8907076023568412  0.3594918272385201  0.2510832177988697
  0.8907076023568412  0.3594918272385201  0.7489167822011306
  0.8880845282236478  0.8580074908778782  0.2525044994801837
  0.8880845282236478  0.8580074908778782  0.7474955005198163
  0.3602374324041907  0.1104656621469361  0.2514742816018700
  0.3602374324041907  0.1104656621469361  0.7485257183981298
  0.3590411666179583  0.6094216176969940  0.2502510214445058
  0.3590411666179583  0.6094216176969940  0.7497489785554941
  0.8599789417116750  0.1102611774178317  0.2484369951646681
  0.8599789417116750  0.1102611774178317  0.7515630048353319
  0.8588984797393949  0.6088264902970397  0.2498644020462118
  0.8588984797393949  0.6088264902970397  0.7501355979537885
  0.1411015202606050  0.3911735097029604  0.2498644020462118
  0.1411015202606050  0.3911735097029604  0.7501355979537885
  0.1400210582883249  0.8897388225821681  0.2484369951646681
  0.1400210582883249  0.8897388225821681  0.7515630048353319
  0.6409588333820416  0.3905783823030060  0.2502510214445058
  0.6397625675958091  0.8895343378530640  0.2514742816018700
  0.6397625675958091  0.8895343378530640  0.7485257183981298
  0.3595530692087741  0.3904809795048240  0.0000000000000000
  0.3591081188422577  0.8905188459363602  0.0000000000000000
  0.3563542750748514  0.8940418047379403  0.5000000000000000
  0.8594057057012561  0.3908023064135795  0.0000000000000000
  0.8639331674685470  0.3865033228285207  0.5000000000000000
  0.8592890299739041  0.8905339693938669  0.0000000000000000
  0.8522116057088767  0.8904505400395356  0.5000000000000000
  0.1407109700260958  0.1094660306061331  0.0000000000000000
  0.1477883942911234  0.1095494599604643  0.5000000000000000
  0.1405942942987436  0.6091976935864203  0.0000000000000000
  0.1360668325314530  0.6134966771714795  0.5000000000000000
  0.6408918811577422  0.1094811540636396  0.0000000000000000
  0.6436457249251485  0.1059581952620598  0.5000000000000000
  0.6404469307912257  0.6095190204951763  0.0000000000000000
  0.1095956096011749  0.3591901113429444  0.0000000000000000
  0.1215253240280999  0.3663377532798026  0.5000000000000000
  0.1092890411241717  0.8590672839651602  0.0000000000000000
  0.1075723101330593  0.8574221560980010  0.5000000000000000
  0.6094069274071983  0.3596272975591267  0.0000000000000000
  0.6093539179279135  0.8594505001541598  0.0000000000000000
  0.6022935609662528  0.8500693219738812  0.5000000000000000
  0.3906460820720867  0.1405494998458399  0.0000000000000000
  0.3977064390337470  0.1499306780261191  0.5000000000000000
  0.3905930725928015  0.6403727024408731  0.0000000000000000
  0.3887671603736186  0.6367904868694949  0.5000000000000000
  0.8907109588758283  0.1409327160348400  0.0000000000000000
  0.8924276898669410  0.1425778439019990  0.5000000000000000
  0.8904043903988252  0.6408098886570553  0.0000000000000000
 -0.0000000000000000 -0.0000000000000000  0.1247762041257670
 -0.0000000000000000 -0.0000000000000000  0.6280639315402264
 -0.0000000000000000  0.5000000000000000  0.1250843029269002
 -0.0000000000000000  0.5000000000000000  0.6248628936278153
  0.5000000000000000 -0.0000000000000000  0.1251660117523092
  0.5000000000000000 -0.0000000000000000  0.6245047005096070
  0.5000000000000000  0.5000000000000000  0.1245905262425440
 -0.0000000000000000 -0.0000000000000000  0.3719360684597735
 -0.0000000000000000 -0.0000000000000000  0.8752237958742333
 -0.0000000000000000  0.5000000000000000  0.3751371063721845
 -0.0000000000000000  0.5000000000000000  0.8749156970730999
  0.5000000000000000 -0.0000000000000000  0.3754952994903930
  0.5000000000000000 -0.0000000000000000  0.8748339882476908
  0.5000000000000000  0.5000000000000000  0.8754094737574558
  0.2598767074579412  0.2615182411485787  0.3772553849289917
  0.2504947546643826  0.2496381260993157  0.8747317324464401
  0.2498150005327823  0.7512494650820970  0.3747950225689721
  0.2498142605839430  0.7487951396737699  0.8751925003686782
  0.7501849994672173  0.2487505349179029  0.3747950225689721
  0.7501857394160574  0.2512048603262301  0.8751925003686782
  0.7401232925420592  0.7384817588514216  0.3772553849289917
  0.7495052453356176  0.7503618739006844  0.8747317324464401
  0.2504947546643826  0.2496381260993157  0.1252682675535602
  0.2598767074579412  0.2615182411485787  0.6227446150710082
  0.2498142605839430  0.7487951396737699  0.1248074996313219
  0.2498150005327823  0.7512494650820970  0.6252049774310279
  0.7501857394160574  0.2512048603262301  0.1248074996313219
  0.7501849994672173  0.2487505349179029  0.6252049774310279
  0.7495052453356176  0.7503618739006844  0.1252682675535602
  0.6409588333820416  0.3905783823030060  0.7497489785554941
  0.6077216472075789  0.6396892774135607  0.7518718337614525
  0.5000000000000000  0.5000000000000000  0.3766788459761393
  0.6112328396263812  0.3632095131305047  0.5000000000000000
  0.7401232925420592  0.7384817588514216  0.6227446150710082
  0.8784746759719002  0.6336622467201973  0.5000000000000000
  0.5000000000000000  0.5000000000000000  0.6233211540238608
 
  0.00000000E+00  0.00000000E+00  0.00000000E+00
  0.00000000E+00  0.00000000E+00  0.00000000E+00
  0.00000000E+00  0.00000000E+00  0.00000000E+00
  0.00000000E+00  0.00000000E+00  0.00000000E+00
  0.00000000E+00  0.00000000E+00  0.00000000E+00
  0.00000000E+00  0.00000000E+00  0.00000000E+00
  0.00000000E+00  0.00000000E+00  0.00000000E+00
  0.00000000E+00  0.00000000E+00  0.00000000E+00
  0.00000000E+00  0.00000000E+00  0.00000000E+00
  0.00000000E+00  0.00000000E+00  0.00000000E+00
  0.00000000E+00  0.00000000E+00  0.00000000E+00
  0.00000000E+00  0.00000000E+00  0.00000000E+00
  0.00000000E+00  0.00000000E+00  0.00000000E+00
  0.00000000E+00  0.00000000E+00  0.00000000E+00
  0.00000000E+00  0.00000000E+00  0.00000000E+00
  0.00000000E+00  0.00000000E+00  0.00000000E+00
  0.00000000E+00  0.00000000E+00  0.00000000E+00
  0.00000000E+00  0.00000000E+00  0.00000000E+00
  0.00000000E+00  0.00000000E+00  0.00000000E+00
  0.00000000E+00  0.00000000E+00  0.00000000E+00
  0.00000000E+00  0.00000000E+00  0.00000000E+00
  0.00000000E+00  0.00000000E+00  0.00000000E+00
  0.00000000E+00  0.00000000E+00  0.00000000E+00
  0.00000000E+00  0.00000000E+00  0.00000000E+00
  0.00000000E+00  0.00000000E+00  0.00000000E+00
  0.00000000E+00  0.00000000E+00  0.00000000E+00
  0.00000000E+00  0.00000000E+00  0.00000000E+00
  0.00000000E+00  0.00000000E+00  0.00000000E+00
  0.00000000E+00  0.00000000E+00  0.00000000E+00
  0.00000000E+00  0.00000000E+00  0.00000000E+00
  0.00000000E+00  0.00000000E+00  0.00000000E+00
  0.00000000E+00  0.00000000E+00  0.00000000E+00
  0.00000000E+00  0.00000000E+00  0.00000000E+00
  0.00000000E+00  0.00000000E+00  0.00000000E+00
  0.00000000E+00  0.00000000E+00  0.00000000E+00
  0.00000000E+00  0.00000000E+00  0.00000000E+00
  0.00000000E+00  0.00000000E+00  0.00000000E+00
  0.00000000E+00  0.00000000E+00  0.00000000E+00
  0.00000000E+00  0.00000000E+00  0.00000000E+00
  0.00000000E+00  0.00000000E+00  0.00000000E+00
  0.00000000E+00  0.00000000E+00  0.00000000E+00
  0.00000000E+00  0.00000000E+00  0.00000000E+00
  0.00000000E+00  0.00000000E+00  0.00000000E+00
  0.00000000E+00  0.00000000E+00  0.00000000E+00
  0.00000000E+00  0.00000000E+00  0.00000000E+00
  0.00000000E+00  0.00000000E+00  0.00000000E+00
  0.00000000E+00  0.00000000E+00  0.00000000E+00
  0.00000000E+00  0.00000000E+00  0.00000000E+00
  0.00000000E+00  0.00000000E+00  0.00000000E+00
  0.00000000E+00  0.00000000E+00  0.00000000E+00
  0.00000000E+00  0.00000000E+00  0.00000000E+00
  0.00000000E+00  0.00000000E+00  0.00000000E+00
  0.00000000E+00  0.00000000E+00  0.00000000E+00
  0.00000000E+00  0.00000000E+00  0.00000000E+00
  0.00000000E+00  0.00000000E+00  0.00000000E+00
  0.00000000E+00  0.00000000E+00  0.00000000E+00
  0.00000000E+00  0.00000000E+00  0.00000000E+00
  0.00000000E+00  0.00000000E+00  0.00000000E+00
  0.00000000E+00  0.00000000E+00  0.00000000E+00
  0.00000000E+00  0.00000000E+00  0.00000000E+00
  0.00000000E+00  0.00000000E+00  0.00000000E+00
  0.00000000E+00  0.00000000E+00  0.00000000E+00
  0.00000000E+00  0.00000000E+00  0.00000000E+00
  0.00000000E+00  0.00000000E+00  0.00000000E+00
  0.00000000E+00  0.00000000E+00  0.00000000E+00
  0.00000000E+00  0.00000000E+00  0.00000000E+00
  0.00000000E+00  0.00000000E+00  0.00000000E+00
  0.00000000E+00  0.00000000E+00  0.00000000E+00
  0.00000000E+00  0.00000000E+00  0.00000000E+00
  0.00000000E+00  0.00000000E+00  0.00000000E+00
  0.00000000E+00  0.00000000E+00  0.00000000E+00
  0.00000000E+00  0.00000000E+00  0.00000000E+00
  0.00000000E+00  0.00000000E+00  0.00000000E+00
  0.00000000E+00  0.00000000E+00  0.00000000E+00
  0.00000000E+00  0.00000000E+00  0.00000000E+00
  0.00000000E+00  0.00000000E+00  0.00000000E+00
  0.00000000E+00  0.00000000E+00  0.00000000E+00
  0.00000000E+00  0.00000000E+00  0.00000000E+00
  0.00000000E+00  0.00000000E+00  0.00000000E+00
  0.00000000E+00  0.00000000E+00  0.00000000E+00
  0.00000000E+00  0.00000000E+00  0.00000000E+00
  0.00000000E+00  0.00000000E+00  0.00000000E+00
  0.00000000E+00  0.00000000E+00  0.00000000E+00
  0.00000000E+00  0.00000000E+00  0.00000000E+00
  0.00000000E+00  0.00000000E+00  0.00000000E+00
  0.00000000E+00  0.00000000E+00  0.00000000E+00
  0.00000000E+00  0.00000000E+00  0.00000000E+00
  0.00000000E+00  0.00000000E+00  0.00000000E+00
  0.00000000E+00  0.00000000E+00  0.00000000E+00
  0.00000000E+00  0.00000000E+00  0.00000000E+00
  0.00000000E+00  0.00000000E+00  0.00000000E+00
  0.00000000E+00  0.00000000E+00  0.00000000E+00
  0.00000000E+00  0.00000000E+00  0.00000000E+00
  0.00000000E+00  0.00000000E+00  0.00000000E+00
  0.00000000E+00  0.00000000E+00  0.00000000E+00
  0.00000000E+00  0.00000000E+00  0.00000000E+00
  0.00000000E+00  0.00000000E+00  0.00000000E+00
  0.00000000E+00  0.00000000E+00  0.00000000E+00
  0.00000000E+00  0.00000000E+00  0.00000000E+00
  0.00000000E+00  0.00000000E+00  0.00000000E+00
  0.00000000E+00  0.00000000E+00  0.00000000E+00
  0.00000000E+00  0.00000000E+00  0.00000000E+00
  0.00000000E+00  0.00000000E+00  0.00000000E+00
  0.00000000E+00  0.00000000E+00  0.00000000E+00
  0.00000000E+00  0.00000000E+00  0.00000000E+00
  0.00000000E+00  0.00000000E+00  0.00000000E+00
  0.00000000E+00  0.00000000E+00  0.00000000E+00
  0.00000000E+00  0.00000000E+00  0.00000000E+00
  0.00000000E+00  0.00000000E+00  0.00000000E+00
  0.00000000E+00  0.00000000E+00  0.00000000E+00
  0.00000000E+00  0.00000000E+00  0.00000000E+00
  0.00000000E+00  0.00000000E+00  0.00000000E+00
  0.00000000E+00  0.00000000E+00  0.00000000E+00
  0.00000000E+00  0.00000000E+00  0.00000000E+00
  0.00000000E+00  0.00000000E+00  0.00000000E+00
  0.00000000E+00  0.00000000E+00  0.00000000E+00
  0.00000000E+00  0.00000000E+00  0.00000000E+00
  0.00000000E+00  0.00000000E+00  0.00000000E+00
  0.00000000E+00  0.00000000E+00  0.00000000E+00
  0.00000000E+00  0.00000000E+00  0.00000000E+00
  0.00000000E+00  0.00000000E+00  0.00000000E+00
  0.00000000E+00  0.00000000E+00  0.00000000E+00
  0.00000000E+00  0.00000000E+00  0.00000000E+00
  0.00000000E+00  0.00000000E+00  0.00000000E+00
  0.00000000E+00  0.00000000E+00  0.00000000E+00
  0.00000000E+00  0.00000000E+00  0.00000000E+00
  0.00000000E+00  0.00000000E+00  0.00000000E+00
  0.00000000E+00  0.00000000E+00  0.00000000E+00
  0.00000000E+00  0.00000000E+00  0.00000000E+00
  0.00000000E+00  0.00000000E+00  0.00000000E+00
  0.00000000E+00  0.00000000E+00  0.00000000E+00
  0.00000000E+00  0.00000000E+00  0.00000000E+00
  0.00000000E+00  0.00000000E+00  0.00000000E+00
  0.00000000E+00  0.00000000E+00  0.00000000E+00
  0.00000000E+00  0.00000000E+00  0.00000000E+00
  0.00000000E+00  0.00000000E+00  0.00000000E+00
  0.00000000E+00  0.00000000E+00  0.00000000E+00
  0.00000000E+00  0.00000000E+00  0.00000000E+00
  0.00000000E+00  0.00000000E+00  0.00000000E+00
  0.00000000E+00  0.00000000E+00  0.00000000E+00
  0.00000000E+00  0.00000000E+00  0.00000000E+00
  0.00000000E+00  0.00000000E+00  0.00000000E+00
  0.00000000E+00  0.00000000E+00  0.00000000E+00
  0.00000000E+00  0.00000000E+00  0.00000000E+00
  0.00000000E+00  0.00000000E+00  0.00000000E+00
  0.00000000E+00  0.00000000E+00  0.00000000E+00
  0.00000000E+00  0.00000000E+00  0.00000000E+00
  0.00000000E+00  0.00000000E+00  0.00000000E+00
  0.00000000E+00  0.00000000E+00  0.00000000E+00
  0.00000000E+00  0.00000000E+00  0.00000000E+00
  0.00000000E+00  0.00000000E+00  0.00000000E+00
  0.00000000E+00  0.00000000E+00  0.00000000E+00
  0.00000000E+00  0.00000000E+00  0.00000000E+00
  0.00000000E+00  0.00000000E+00  0.00000000E+00
  0.00000000E+00  0.00000000E+00  0.00000000E+00
  0.00000000E+00  0.00000000E+00  0.00000000E+00
  0.00000000E+00  0.00000000E+00  0.00000000E+00
  0.00000000E+00  0.00000000E+00  0.00000000E+00
