Sr   Ti   Fe   O                        
   1.00000000000000     
    11.1989999999999998    0.0000000000000000    0.0000000000000000
     0.0000000000000000   11.1989999999999998    0.0000000000000000
     0.0000000000000000    0.0000000000000000   15.9830000000000005
   Sr   Ti   Fe   O 
    32    31     1    94
Direct
  0.9984304700647474  0.2499982749889621  0.1241098906481784
  0.0041624349743293  0.2435529329850135  0.6285933551205402
  0.9978826682605559  0.7501530263399604  0.1245950335976433
  0.0060022396168965  0.7547367468031976  0.6305901628465708
  0.4995174957530187  0.2505352423164597  0.1240743446335591
  0.4964369801603339  0.2435703647655450  0.6306651179794809
  0.4995227835842171  0.7488001525384472  0.1234676783794424
  0.4989513719429025  0.7556022166986038  0.6302952594553402
  0.0041624349743293  0.2435529329850135  0.3714066448794525
  0.9984304700647474  0.2499982749889621  0.8758901093518284
  0.0060022396168965  0.7547367468031976  0.3694098371534221
  0.9978826682605559  0.7501530263399604  0.8754049664023635
  0.4964369801603339  0.2435703647655450  0.3693348820205181
  0.4995174957530187  0.2505352423164597  0.8759256553664410
  0.4989513719429025  0.7556022166986038  0.3697047405446740
  0.4995227835842171  0.7488001525384472  0.8765323216205581
  0.2488853273314798  0.9991260146393169  0.1244362071089479
  0.2507198032742512  0.9984449282140105  0.6273789483632948
  0.2488432080103319  0.4996054848636898  0.1239056267636118
  0.2526636588867744  0.5013475472625332  0.6302374896550711
  0.7490815427114796  0.9987269753839667  0.1256637327645258
  0.7501246236012034  0.9975881833890743  0.6235554333436041
  0.7478989046379555  0.5000018032238512  0.1227368173004689
  0.7532805215622902  0.4948665445177823  0.6338965983327497
  0.2507198032742512  0.9984449282140105  0.3726210516367048
  0.2488853273314798  0.9991260146393169  0.8755637928910371
  0.2526636588867744  0.5013475472625332  0.3697625103449353
  0.2488432080103319  0.4996054848636898  0.8760943732363873
  0.7501246236012034  0.9975881833890743  0.3764445666564036
  0.7490815427114796  0.9987269753839667  0.8743362672354815
  0.7532805215622902  0.4948665445177823  0.3661034016672507
  0.7478989046379555  0.5000018032238512  0.8772631826995367
  0.9986543987302724  0.9997190741956636  0.0000000000000000
  0.0032686330352278  0.9936809485544105  0.5000000000000000
  0.9997438584374969  0.4989983896804003  0.0000000000000000
  0.0144635724961024  0.4861533748044219  0.5000000000000000
  0.4999771644258389  0.9995919729815237  0.0000000000000000
  0.4998752148778758  0.9981610452169928  0.5000000000000000
  0.4987941389379745  0.4996615511391175  0.0000000000000000
  0.2488095363498234  0.2498446122346602  0.0000000000000000
  0.2554388772201855  0.2405296828316357  0.5000000000000000
  0.2486072384153660  0.7504351698715401  0.0000000000000000
  0.2519282357642192  0.7523303338626312  0.5000000000000000
  0.7502590773803453  0.2491729603247959  0.0000000000000000
  0.7490570199359216  0.7508847563277661  0.0000000000000000
  0.2493221658938869  0.2494494334934143  0.2491849442934823
  0.2493221658938869  0.2494494334934143  0.7508150557065253
  0.2499704583961219  0.7499561988767035  0.2481609738028347
  0.2499704583961219  0.7499561988767035  0.7518390261971581
  0.7488006897177455  0.2498402692467117  0.2498365942088691
  0.7488006897177455  0.2498402692467117  0.7501634057911307
  0.7498908358641072  0.7474004935535564  0.2517659004237912
  0.7498908358641072  0.7474004935535564  0.7482340995762077
  0.9988613380716271 -0.0000355090596101  0.2500698753897098
  0.9988613380716271 -0.0000355090596101  0.7499301246102898
  0.9991926814563400  0.5007963729661464  0.2491559253670241
  0.9991926814563400  0.5007963729661464  0.7508440746329833
  0.5002171859951521  0.9994591942836358  0.2491317779433961
  0.5002171859951521  0.9994591942836358  0.7508682220566103
  0.4987565253447710  0.5002010696312650  0.2492113407626056
  0.4987565253447710  0.5002010696312650  0.7507886592373875
  0.7621139245340323  0.2465703799801617  0.5000000000000000
  0.4886168160875107  0.5040334619711944  0.5000000000000000
  0.7473571018474071  0.7568502874222617  0.5000000000000000
  0.1099264866518323  0.1393214011170955  0.2481164033221607
  0.1099264866518323  0.1393214011170955  0.7518835966778397
  0.1103812988278086  0.6385461907980551  0.2496352068266859
  0.1103812988278086  0.6385461907980551  0.7503647931733139
  0.6101986077845558  0.1390805147885880  0.2492405298244287
  0.6101986077845558  0.1390805147885880  0.7507594701755790
  0.6092995582792100  0.6387563255505699  0.2485889099028469
  0.6092995582792100  0.6387563255505699  0.7514110900971384
  0.3875037866373340  0.3602889624134256  0.2494198045728990
  0.3875037866373340  0.3602889624134256  0.7505801954271083
  0.3887526970576434  0.8610534276914239  0.2485499314905190
  0.3887526970576434  0.8610534276914239  0.7514500685094868
  0.8889401055340110  0.3610663191954490  0.2553501258088245
  0.8889401055340110  0.3610663191954490  0.7446498741911757
  0.8873073933710769  0.8602464089731813  0.2537561190458849
  0.8873073933710769  0.8602464089731813  0.7462438809541222
  0.3605591228652694  0.1109834485447180  0.2486603598449532
  0.3605591228652694  0.1109834485447180  0.7513396401550394
  0.3594571997207704  0.6099055834371807  0.2462828640653798
  0.3594571997207704  0.6099055834371807  0.7537171359346129
  0.8586054636984087  0.1118136464707970  0.2555623418449343
  0.8586054636984087  0.1118136464707970  0.7444376581550587
  0.8610026692281257  0.6102637518352445  0.2430675510425392
  0.8610026692281257  0.6102637518352445  0.7569324489574680
  0.1367984433681793  0.3894415369014922  0.2567575860701135
  0.1367984433681793  0.3894415369014922  0.7432424139298723
  0.1375029937348580  0.8876819048086591  0.2504651526257285
  0.1375029937348580  0.8876819048086591  0.7495348473742715
  0.6371447719032027  0.3888584413110574  0.2476890002207653
  0.6371447719032027  0.3888584413110574  0.7523109997792343
  0.6395671400479307  0.8874618756294408  0.2563332630779008
  0.6395671400479307  0.8874618756294408  0.7436667369220985
  0.3586800333140568  0.3897667611816469  0.0000000000000000
  0.3588544295644275  0.8907572617195869  0.0000000000000000
  0.3538895233625278  0.8967088177024368  0.5000000000000000
  0.8589959628751359  0.3905575766827077  0.0000000000000000
  0.8581256914248843  0.8906262661904367  0.0000000000000000
  0.8680444416107125  0.8898813253048393  0.5000000000000000
  0.1398831707877512  0.1086686429278939  0.0000000000000000
  0.1436517557068634  0.1081509832966453  0.5000000000000000
  0.1390545300876827  0.6089248336463232  0.0000000000000000
  0.1431783696521102  0.6081374219086938  0.5000000000000000
  0.6406157417975219  0.1095527216224133  0.0000000000000000
  0.6358966836180490  0.1220667689741842  0.5000000000000000
  0.6395319630235761  0.6099266707744664  0.0000000000000000
  0.1086068371829342  0.3584032475486777  0.0000000000000000
  0.1163904163339049  0.3571431920414361  0.5000000000000000
  0.1079001765600301  0.8596139425587569  0.0000000000000000
  0.1108612053908174  0.8550172099073056  0.5000000000000000
  0.6097984026641315  0.3591355165544405  0.0000000000000000
  0.6084079064424298  0.8589878907537011  0.0000000000000000
  0.6017959834267455  0.8624562906946474  0.5000000000000000
  0.3897314320447038  0.1401108913733412  0.0000000000000000
  0.3928257835595031  0.1416798626226403  0.5000000000000000
  0.3894134067839511  0.6398264584723389  0.0000000000000000
  0.8904638796561333  0.1411774993126779  0.0000000000000000
  0.8907848623449590  0.1405745222673236  0.5000000000000000
  0.8895074367823899  0.6396212853635020  0.0000000000000000
  0.9956686620561631  0.9994181334711247  0.1256208515647335
  0.0042429588516754  0.0019015548806830  0.6250988207010699
  0.0021741564547252  0.4947124850597717  0.1258745252296724
  0.9898919324892007  0.5187675611096012  0.6194405175642098
  0.5025435754476798  0.9981214278828362  0.1253195655774799
  0.4972462097201493  0.0026209811765954  0.6254085618332244
  0.4992120729703336  0.4986980286780473  0.1241582333473787
  0.4923134335123215  0.5022475276327114  0.6261297333780207
  0.0042429588516754  0.0019015548806830  0.3749011792989295
  0.9956686620561631  0.9994181334711247  0.8743791484352744
  0.9898919324892007  0.5187675611096012  0.3805594824357754
  0.0021741564547252  0.4947124850597717  0.8741254747703134
  0.4972462097201493  0.0026209811765954  0.3745914381667753
  0.5025435754476798  0.9981214278828362  0.8746804344225200
  0.4992120729703336  0.4986980286780473  0.8758417666526146
  0.2513030314072430  0.2468521435431834  0.3752786431037841
  0.2473384804266267  0.2522999031962202  0.8746692013285353
  0.2533163982994366  0.7475458002655113  0.3744724576392149
  0.2480567075854409  0.7509623516960018  0.8756838559127047
  0.7529050836508713  0.2497264673694984  0.8739933994717090
  0.7480753517526260  0.7534188438111590  0.8743243942710085
  0.2473384804266267  0.2522999031962202  0.1253307986714582
  0.2513030314072430  0.2468521435431834  0.6247213568962316
  0.2480567075854409  0.7509623516960018  0.1243161440872804
  0.2533163982994366  0.7475458002655113  0.6255275423607768
  0.7529050836508713  0.2497264673694984  0.1260066005283047
  0.7384164176948550  0.2586138949928970  0.6215665722477106
  0.7480753517526260  0.7534188438111590  0.1256756057289851
  0.7543072524190058  0.7283279886793187  0.6216529808649894
  0.7384164176948550  0.2586138949928970  0.3784334277522812
  0.8714821077710205  0.3871197210647396  0.5000000000000000
  0.4076363761668936  0.6539566153321315  0.5000000000000000
  0.4923134335123215  0.5022475276327114  0.3738702666219721
  0.3701977992245965  0.3827576302930880  0.5000000000000000
  0.7543072524190058  0.7283279886793187  0.3783470191350260
  0.6514889482141754  0.4801386353104571  0.5000000000000000
 
  0.00000000E+00  0.00000000E+00  0.00000000E+00
  0.00000000E+00  0.00000000E+00  0.00000000E+00
  0.00000000E+00  0.00000000E+00  0.00000000E+00
  0.00000000E+00  0.00000000E+00  0.00000000E+00
  0.00000000E+00  0.00000000E+00  0.00000000E+00
  0.00000000E+00  0.00000000E+00  0.00000000E+00
  0.00000000E+00  0.00000000E+00  0.00000000E+00
  0.00000000E+00  0.00000000E+00  0.00000000E+00
  0.00000000E+00  0.00000000E+00  0.00000000E+00
  0.00000000E+00  0.00000000E+00  0.00000000E+00
  0.00000000E+00  0.00000000E+00  0.00000000E+00
  0.00000000E+00  0.00000000E+00  0.00000000E+00
  0.00000000E+00  0.00000000E+00  0.00000000E+00
  0.00000000E+00  0.00000000E+00  0.00000000E+00
  0.00000000E+00  0.00000000E+00  0.00000000E+00
  0.00000000E+00  0.00000000E+00  0.00000000E+00
  0.00000000E+00  0.00000000E+00  0.00000000E+00
  0.00000000E+00  0.00000000E+00  0.00000000E+00
  0.00000000E+00  0.00000000E+00  0.00000000E+00
  0.00000000E+00  0.00000000E+00  0.00000000E+00
  0.00000000E+00  0.00000000E+00  0.00000000E+00
  0.00000000E+00  0.00000000E+00  0.00000000E+00
  0.00000000E+00  0.00000000E+00  0.00000000E+00
  0.00000000E+00  0.00000000E+00  0.00000000E+00
  0.00000000E+00  0.00000000E+00  0.00000000E+00
  0.00000000E+00  0.00000000E+00  0.00000000E+00
  0.00000000E+00  0.00000000E+00  0.00000000E+00
  0.00000000E+00  0.00000000E+00  0.00000000E+00
  0.00000000E+00  0.00000000E+00  0.00000000E+00
  0.00000000E+00  0.00000000E+00  0.00000000E+00
  0.00000000E+00  0.00000000E+00  0.00000000E+00
  0.00000000E+00  0.00000000E+00  0.00000000E+00
  0.00000000E+00  0.00000000E+00  0.00000000E+00
  0.00000000E+00  0.00000000E+00  0.00000000E+00
  0.00000000E+00  0.00000000E+00  0.00000000E+00
  0.00000000E+00  0.00000000E+00  0.00000000E+00
  0.00000000E+00  0.00000000E+00  0.00000000E+00
  0.00000000E+00  0.00000000E+00  0.00000000E+00
  0.00000000E+00  0.00000000E+00  0.00000000E+00
  0.00000000E+00  0.00000000E+00  0.00000000E+00
  0.00000000E+00  0.00000000E+00  0.00000000E+00
  0.00000000E+00  0.00000000E+00  0.00000000E+00
  0.00000000E+00  0.00000000E+00  0.00000000E+00
  0.00000000E+00  0.00000000E+00  0.00000000E+00
  0.00000000E+00  0.00000000E+00  0.00000000E+00
  0.00000000E+00  0.00000000E+00  0.00000000E+00
  0.00000000E+00  0.00000000E+00  0.00000000E+00
  0.00000000E+00  0.00000000E+00  0.00000000E+00
  0.00000000E+00  0.00000000E+00  0.00000000E+00
  0.00000000E+00  0.00000000E+00  0.00000000E+00
  0.00000000E+00  0.00000000E+00  0.00000000E+00
  0.00000000E+00  0.00000000E+00  0.00000000E+00
  0.00000000E+00  0.00000000E+00  0.00000000E+00
  0.00000000E+00  0.00000000E+00  0.00000000E+00
  0.00000000E+00  0.00000000E+00  0.00000000E+00
  0.00000000E+00  0.00000000E+00  0.00000000E+00
  0.00000000E+00  0.00000000E+00  0.00000000E+00
  0.00000000E+00  0.00000000E+00  0.00000000E+00
  0.00000000E+00  0.00000000E+00  0.00000000E+00
  0.00000000E+00  0.00000000E+00  0.00000000E+00
  0.00000000E+00  0.00000000E+00  0.00000000E+00
  0.00000000E+00  0.00000000E+00  0.00000000E+00
  0.00000000E+00  0.00000000E+00  0.00000000E+00
  0.00000000E+00  0.00000000E+00  0.00000000E+00
  0.00000000E+00  0.00000000E+00  0.00000000E+00
  0.00000000E+00  0.00000000E+00  0.00000000E+00
  0.00000000E+00  0.00000000E+00  0.00000000E+00
  0.00000000E+00  0.00000000E+00  0.00000000E+00
  0.00000000E+00  0.00000000E+00  0.00000000E+00
  0.00000000E+00  0.00000000E+00  0.00000000E+00
  0.00000000E+00  0.00000000E+00  0.00000000E+00
  0.00000000E+00  0.00000000E+00  0.00000000E+00
  0.00000000E+00  0.00000000E+00  0.00000000E+00
  0.00000000E+00  0.00000000E+00  0.00000000E+00
  0.00000000E+00  0.00000000E+00  0.00000000E+00
  0.00000000E+00  0.00000000E+00  0.00000000E+00
  0.00000000E+00  0.00000000E+00  0.00000000E+00
  0.00000000E+00  0.00000000E+00  0.00000000E+00
  0.00000000E+00  0.00000000E+00  0.00000000E+00
  0.00000000E+00  0.00000000E+00  0.00000000E+00
  0.00000000E+00  0.00000000E+00  0.00000000E+00
  0.00000000E+00  0.00000000E+00  0.00000000E+00
  0.00000000E+00  0.00000000E+00  0.00000000E+00
  0.00000000E+00  0.00000000E+00  0.00000000E+00
  0.00000000E+00  0.00000000E+00  0.00000000E+00
  0.00000000E+00  0.00000000E+00  0.00000000E+00
  0.00000000E+00  0.00000000E+00  0.00000000E+00
  0.00000000E+00  0.00000000E+00  0.00000000E+00
  0.00000000E+00  0.00000000E+00  0.00000000E+00
  0.00000000E+00  0.00000000E+00  0.00000000E+00
  0.00000000E+00  0.00000000E+00  0.00000000E+00
  0.00000000E+00  0.00000000E+00  0.00000000E+00
  0.00000000E+00  0.00000000E+00  0.00000000E+00
  0.00000000E+00  0.00000000E+00  0.00000000E+00
  0.00000000E+00  0.00000000E+00  0.00000000E+00
  0.00000000E+00  0.00000000E+00  0.00000000E+00
  0.00000000E+00  0.00000000E+00  0.00000000E+00
  0.00000000E+00  0.00000000E+00  0.00000000E+00
  0.00000000E+00  0.00000000E+00  0.00000000E+00
  0.00000000E+00  0.00000000E+00  0.00000000E+00
  0.00000000E+00  0.00000000E+00  0.00000000E+00
  0.00000000E+00  0.00000000E+00  0.00000000E+00
  0.00000000E+00  0.00000000E+00  0.00000000E+00
  0.00000000E+00  0.00000000E+00  0.00000000E+00
  0.00000000E+00  0.00000000E+00  0.00000000E+00
  0.00000000E+00  0.00000000E+00  0.00000000E+00
  0.00000000E+00  0.00000000E+00  0.00000000E+00
  0.00000000E+00  0.00000000E+00  0.00000000E+00
  0.00000000E+00  0.00000000E+00  0.00000000E+00
  0.00000000E+00  0.00000000E+00  0.00000000E+00
  0.00000000E+00  0.00000000E+00  0.00000000E+00
  0.00000000E+00  0.00000000E+00  0.00000000E+00
  0.00000000E+00  0.00000000E+00  0.00000000E+00
  0.00000000E+00  0.00000000E+00  0.00000000E+00
  0.00000000E+00  0.00000000E+00  0.00000000E+00
  0.00000000E+00  0.00000000E+00  0.00000000E+00
  0.00000000E+00  0.00000000E+00  0.00000000E+00
  0.00000000E+00  0.00000000E+00  0.00000000E+00
  0.00000000E+00  0.00000000E+00  0.00000000E+00
  0.00000000E+00  0.00000000E+00  0.00000000E+00
  0.00000000E+00  0.00000000E+00  0.00000000E+00
  0.00000000E+00  0.00000000E+00  0.00000000E+00
  0.00000000E+00  0.00000000E+00  0.00000000E+00
  0.00000000E+00  0.00000000E+00  0.00000000E+00
  0.00000000E+00  0.00000000E+00  0.00000000E+00
  0.00000000E+00  0.00000000E+00  0.00000000E+00
  0.00000000E+00  0.00000000E+00  0.00000000E+00
  0.00000000E+00  0.00000000E+00  0.00000000E+00
  0.00000000E+00  0.00000000E+00  0.00000000E+00
  0.00000000E+00  0.00000000E+00  0.00000000E+00
  0.00000000E+00  0.00000000E+00  0.00000000E+00
  0.00000000E+00  0.00000000E+00  0.00000000E+00
  0.00000000E+00  0.00000000E+00  0.00000000E+00
  0.00000000E+00  0.00000000E+00  0.00000000E+00
  0.00000000E+00  0.00000000E+00  0.00000000E+00
  0.00000000E+00  0.00000000E+00  0.00000000E+00
  0.00000000E+00  0.00000000E+00  0.00000000E+00
  0.00000000E+00  0.00000000E+00  0.00000000E+00
  0.00000000E+00  0.00000000E+00  0.00000000E+00
  0.00000000E+00  0.00000000E+00  0.00000000E+00
  0.00000000E+00  0.00000000E+00  0.00000000E+00
  0.00000000E+00  0.00000000E+00  0.00000000E+00
  0.00000000E+00  0.00000000E+00  0.00000000E+00
  0.00000000E+00  0.00000000E+00  0.00000000E+00
  0.00000000E+00  0.00000000E+00  0.00000000E+00
  0.00000000E+00  0.00000000E+00  0.00000000E+00
  0.00000000E+00  0.00000000E+00  0.00000000E+00
  0.00000000E+00  0.00000000E+00  0.00000000E+00
  0.00000000E+00  0.00000000E+00  0.00000000E+00
  0.00000000E+00  0.00000000E+00  0.00000000E+00
  0.00000000E+00  0.00000000E+00  0.00000000E+00
  0.00000000E+00  0.00000000E+00  0.00000000E+00
  0.00000000E+00  0.00000000E+00  0.00000000E+00
  0.00000000E+00  0.00000000E+00  0.00000000E+00
  0.00000000E+00  0.00000000E+00  0.00000000E+00
  0.00000000E+00  0.00000000E+00  0.00000000E+00
  0.00000000E+00  0.00000000E+00  0.00000000E+00
  0.00000000E+00  0.00000000E+00  0.00000000E+00
