SrTiFeO                                 
   1.00000000000000     
    11.1989999999999998    0.0000000000000000    0.0000000000000000
     0.0000000000000000   11.1989999999999998    0.0000000000000000
     0.0000000000000000    0.0000000000000000   15.9830000000000005
   Sr   Ti   Fe   O 
    32    31     1    95
Direct
  0.9999275570063312  0.2498292821927695  0.1249616462689440
  0.0013134079441258  0.2490142957197004  0.6246671872389071
  0.9985080836972470  0.7502690652917415  0.1256388386542355
  0.0003947475453502  0.7480632353934769  0.6232111101924132
  0.4998518077580388  0.2509471269163897  0.1252176511949957
  0.5025076545456345  0.2464535808753903  0.6255114971772836
  0.5000642048922420  0.7506269805605991  0.1238328511358859
  0.4989572094977437  0.7516127340247333  0.6273334412393733
  0.0013134079441258  0.2490142957197004  0.3753328127610929
  0.9999275570063312  0.2498292821927695  0.8750383537310561
  0.0003947475453502  0.7480632353934769  0.3767888898075869
  0.9985080836972470  0.7502690652917415  0.8743611613457645
  0.5025076545456345  0.2464535808753903  0.3744885028227164
  0.4998518077580388  0.2509471269163897  0.8747823488050044
  0.4989572094977437  0.7516127340247333  0.3726665587606266
  0.5000642048922420  0.7506269805605991  0.8761671488641142
  0.2498834080306572  0.9999471512549136  0.1250401495723709
  0.2499484121565193  0.0001256341574373  0.6250118552142853
  0.2507087599543417  0.5004982400677983  0.1248049913631283
  0.2459073704888702  0.5008978789426056  0.6256529878259527
  0.7496215939723272  0.9989043256265775  0.1249443879359501
  0.7505229490797993  0.0012333838364661  0.6251764972986328
  0.7493777756583438  0.5012822961141008  0.1245509737033818
  0.7566930662385349  0.4959639027150862  0.6286128927286760
  0.2499484121565193  0.0001256341574373  0.3749881447857147
  0.2498834080306572  0.9999471512549136  0.8749598504276290
  0.2459073704888702  0.5008978789426056  0.3743470121740474
  0.2507087599543417  0.5004982400677983  0.8751950086368716
  0.7505229490797993  0.0012333838364661  0.3748235027013672
  0.7496215939723272  0.9989043256265775  0.8750556120640499
  0.7566930662385349  0.4959639027150862  0.3713871072713239
  0.7493777756583438  0.5012822961141008  0.8754490262966182
  0.9994965294304408  0.9995694943027038  0.0000000000000000
  0.0028893879879565  0.0004036808555324  0.5000000000000000
  0.0000140105080954  0.4997081108634748  0.0000000000000000
  0.9987816492424788  0.4996278242916417  0.5000000000000000
  0.5000715220483058  0.0003680105753514  0.0000000000000000
  0.5002870602164166  0.9982951688440246  0.5000000000000000
  0.4994463552866869  0.4996009313585630  0.0000000000000000
  0.2502975643606201  0.2502625717713693  0.0000000000000000
  0.2496331563764936  0.2500528741141070  0.5000000000000000
  0.2495504806097470  0.7499410657140547  0.0000000000000000
  0.2525159479619250  0.7497650336341918  0.5000000000000000
  0.7502828519360744  0.2500179098866461  0.0000000000000000
  0.7523367272558464  0.2493559855995041  0.5000000000000000
  0.7504981685521743  0.7506078663319244  0.0000000000000000
  0.2503812750869219  0.2500374832381282  0.2502964749134879
  0.2503812750869219  0.2500374832381282  0.7497035250865122
  0.2498300005429794  0.7499649627470637  0.2499757149665696
  0.2498300005429794  0.7499649627470637  0.7500242850334303
  0.7504570460081154  0.2492145376955999  0.2494371953597325
  0.7504570460081154  0.2492145376955999  0.7505628046402675
  0.7490150536596459  0.7489826976155600  0.2520843110994395
  0.7490150536596459  0.7489826976155600  0.7479156889005605
  0.0001180603358427  0.9994115968178154  0.2504168879395586
  0.0001180603358427  0.9994115968178154  0.7495831120604414
  0.0006757059350278  0.4998775259903217  0.2493366524883134
  0.0006757059350278  0.4998775259903217  0.7506633475116866
  0.5000527867687532  0.9999463749453696  0.2498210902077496
  0.5000527867687532  0.9999463749453696  0.7501789097922504
  0.5012563866504566  0.5005434066820804  0.2504573801276986
  0.5012563866504566  0.5005434066820804  0.7495426198723013
  0.4940809398859932  0.4925106247254193  0.5000000000000000
  0.7573161126879677  0.7619876918403293  0.5000000000000000
  0.1094543469012367  0.1406807976666261  0.2484224811247989
  0.1094543469012367  0.1406807976666261  0.7515775188752011
  0.1090927551907062  0.6407810869258306  0.2499477551635924
  0.1090927551907062  0.6407810869258306  0.7500522448364076
  0.6091502482064193  0.1408977778389929  0.2493546542961412
  0.6091502482064193  0.1408977778389929  0.7506453457038588
  0.6089012639947405  0.6409552138049608  0.2442538566505297
  0.3918858615681586  0.3601765484227508  0.2545599525688962
  0.3918858615681586  0.3601765484227508  0.7454400474311038
  0.3902959007392229  0.8597619674251296  0.2494769558156400
  0.3902959007392229  0.8597619674251296  0.7505230441843601
  0.8906560576832478  0.3593255944076577  0.2512451073692655
  0.8906560576832478  0.3593255944076577  0.7487548926307345
  0.8896782897345855  0.8584257297963662  0.2550639334350377
  0.8896782897345855  0.8584257297963662  0.7449360665649623
  0.3596654193628031  0.1097835838381788  0.2497901538247989
  0.3596654193628031  0.1097835838381788  0.7502098461752011
  0.3594720207623793  0.6090230609772800  0.2516657152401895
  0.3594720207623793  0.6090230609772800  0.7483342847598103
  0.8590041184742317  0.1086181238744216  0.2496012026311287
  0.8590041184742317  0.1086181238744216  0.7503987973688713
  0.8594835255974188  0.6087373355031621  0.2490052224803782
  0.8594835255974188  0.6087373355031621  0.7509947775196217
  0.1412058738763501  0.3909875800482422  0.2492128131536433
  0.1412058738763501  0.3909875800482422  0.7507871868463568
  0.1404071294668074  0.8905985247568535  0.2492299270461525
  0.1404071294668074  0.8905985247568535  0.7507700729538476
  0.6414747779990365  0.3905732746285094  0.2491164023073427
  0.6406004660223183  0.8908051798652031  0.2512979866686895
  0.6406004660223183  0.8908051798652031  0.7487020133313105
  0.3587093367686223  0.3908542799204031  0.0000000000000000
  0.3592663089486137  0.8906191035853711  0.0000000000000000
  0.3566531003357082  0.8947661354941060  0.5000000000000000
  0.8592024058692211  0.3908251905719268  0.0000000000000000
  0.8612834982805998  0.3875375557437553  0.5000000000000000
  0.8592404514364825  0.8913576539894931  0.0000000000000000
  0.8601453486976292  0.8944283646964374  0.5000000000000000
  0.1407577273976411  0.1091405558928163  0.0000000000000000
  0.1412138469157753  0.1090122112822845  0.5000000000000000
  0.1407554583378157  0.6088102680914209  0.0000000000000000
  0.1363995776797758  0.6116022833936933  0.5000000000000000
  0.6409824541247252  0.1093765386868372  0.0000000000000000
  0.6400015073623212  0.1103858580506352  0.5000000000000000
  0.6399748652922850  0.6098960639276442  0.0000000000000000
  0.1091048368111831  0.3585822682281675  0.0000000000000000
  0.1062054314043198  0.3586483176640738  0.5000000000000000
  0.1091696434391344  0.8589003168649706  0.0000000000000000
  0.1076504593144220  0.8596884260035399  0.5000000000000000
  0.6094119735997412  0.3592942988692752  0.0000000000000000
  0.6093937275024188  0.8596802248217428  0.0000000000000000
  0.6049415322268814  0.8543208665836536  0.5000000000000000
  0.3910451090846855  0.1408076035186545  0.0000000000000000
  0.3922589311065200  0.1433890300501847  0.5000000000000000
  0.3905558670986704  0.6404880601284834  0.0000000000000000
  0.3904864033646936  0.6456403193735226  0.5000000000000000
  0.8912924786770746  0.1408366728348578  0.0000000000000000
  0.8910015036259045  0.1406666748521276  0.5000000000000000
  0.8907397950787403  0.6405023849676243  0.0000000000000000
  0.9982522333211286  0.9977233694103702  0.1252772713785150
  0.0018345002300936  0.0024144186191219  0.6252046756560186
  0.9999298625466018  0.4990796939237694  0.1248235295212956
  0.0006207702605079  0.5004920092171795  0.6256212303719735
  0.5004129529134211  0.9996027782952199  0.1249493655954606
  0.4997389767622412  0.0014776756613626  0.6252430393395632
  0.4976223409362669  0.4975132679315342  0.1250407480628550
  0.0018345002300936  0.0024144186191219  0.3747953243439814
  0.9982522333211286  0.9977233694103702  0.8747227286214850
  0.0006207702605079  0.5004920092171795  0.3743787696280265
  0.9999298625466018  0.4990796939237694  0.8751764704787044
  0.4997389767622412  0.0014776756613626  0.3747569606604369
  0.5004129529134211  0.9996027782952199  0.8750506344045395
  0.4976223409362669  0.4975132679315342  0.8749592519371450
  0.2478506011351081  0.2490448785386589  0.3747635409763392
  0.2524236468362335  0.2514647018593376  0.8747931602153446
  0.2484446531789360  0.7512166167910312  0.3746209289191692
  0.2504211582274614  0.7491214244307212  0.8749868414962967
  0.7492502542453485  0.2485504464372006  0.3746282724232041
  0.7511042834053135  0.2500084975800514  0.8751495204405327
  0.7392033526934653  0.7379106353984070  0.3766695331028219
  0.7523290997111890  0.7525566128216080  0.8749132914911946
  0.2524236468362335  0.2514647018593376  0.1252068397846554
  0.2478506011351081  0.2490448785386589  0.6252364590236609
  0.2504211582274614  0.7491214244307212  0.1250131585037033
  0.2484446531789360  0.7512166167910312  0.6253790710808308
  0.7511042834053135  0.2500084975800514  0.1248504795594673
  0.7492502542453485  0.2485504464372006  0.6253717275767959
  0.7523290997111890  0.7525566128216080  0.1250867085088054
  0.6414747779990365  0.3905732746285094  0.7508835976926572
  0.6089012639947405  0.6409552138049608  0.7557461433494703
  0.5135308766356863  0.5094202756079944  0.3764464547167697
  0.6179911943119839  0.3682296347923166  0.5000000000000000
  0.3486290113398470  0.3950808806721366  0.5000000000000000
  0.7392033526934653  0.7379106353984070  0.6233304668971782
  0.8782938660743682  0.6328043482880878  0.5000000000000000
  0.5135308766356863  0.5094202756079944  0.6235535452832303
 
  0.00000000E+00  0.00000000E+00  0.00000000E+00
  0.00000000E+00  0.00000000E+00  0.00000000E+00
  0.00000000E+00  0.00000000E+00  0.00000000E+00
  0.00000000E+00  0.00000000E+00  0.00000000E+00
  0.00000000E+00  0.00000000E+00  0.00000000E+00
  0.00000000E+00  0.00000000E+00  0.00000000E+00
  0.00000000E+00  0.00000000E+00  0.00000000E+00
  0.00000000E+00  0.00000000E+00  0.00000000E+00
  0.00000000E+00  0.00000000E+00  0.00000000E+00
  0.00000000E+00  0.00000000E+00  0.00000000E+00
  0.00000000E+00  0.00000000E+00  0.00000000E+00
  0.00000000E+00  0.00000000E+00  0.00000000E+00
  0.00000000E+00  0.00000000E+00  0.00000000E+00
  0.00000000E+00  0.00000000E+00  0.00000000E+00
  0.00000000E+00  0.00000000E+00  0.00000000E+00
  0.00000000E+00  0.00000000E+00  0.00000000E+00
  0.00000000E+00  0.00000000E+00  0.00000000E+00
  0.00000000E+00  0.00000000E+00  0.00000000E+00
  0.00000000E+00  0.00000000E+00  0.00000000E+00
  0.00000000E+00  0.00000000E+00  0.00000000E+00
  0.00000000E+00  0.00000000E+00  0.00000000E+00
  0.00000000E+00  0.00000000E+00  0.00000000E+00
  0.00000000E+00  0.00000000E+00  0.00000000E+00
  0.00000000E+00  0.00000000E+00  0.00000000E+00
  0.00000000E+00  0.00000000E+00  0.00000000E+00
  0.00000000E+00  0.00000000E+00  0.00000000E+00
  0.00000000E+00  0.00000000E+00  0.00000000E+00
  0.00000000E+00  0.00000000E+00  0.00000000E+00
  0.00000000E+00  0.00000000E+00  0.00000000E+00
  0.00000000E+00  0.00000000E+00  0.00000000E+00
  0.00000000E+00  0.00000000E+00  0.00000000E+00
  0.00000000E+00  0.00000000E+00  0.00000000E+00
  0.00000000E+00  0.00000000E+00  0.00000000E+00
  0.00000000E+00  0.00000000E+00  0.00000000E+00
  0.00000000E+00  0.00000000E+00  0.00000000E+00
  0.00000000E+00  0.00000000E+00  0.00000000E+00
  0.00000000E+00  0.00000000E+00  0.00000000E+00
  0.00000000E+00  0.00000000E+00  0.00000000E+00
  0.00000000E+00  0.00000000E+00  0.00000000E+00
  0.00000000E+00  0.00000000E+00  0.00000000E+00
  0.00000000E+00  0.00000000E+00  0.00000000E+00
  0.00000000E+00  0.00000000E+00  0.00000000E+00
  0.00000000E+00  0.00000000E+00  0.00000000E+00
  0.00000000E+00  0.00000000E+00  0.00000000E+00
  0.00000000E+00  0.00000000E+00  0.00000000E+00
  0.00000000E+00  0.00000000E+00  0.00000000E+00
  0.00000000E+00  0.00000000E+00  0.00000000E+00
  0.00000000E+00  0.00000000E+00  0.00000000E+00
  0.00000000E+00  0.00000000E+00  0.00000000E+00
  0.00000000E+00  0.00000000E+00  0.00000000E+00
  0.00000000E+00  0.00000000E+00  0.00000000E+00
  0.00000000E+00  0.00000000E+00  0.00000000E+00
  0.00000000E+00  0.00000000E+00  0.00000000E+00
  0.00000000E+00  0.00000000E+00  0.00000000E+00
  0.00000000E+00  0.00000000E+00  0.00000000E+00
  0.00000000E+00  0.00000000E+00  0.00000000E+00
  0.00000000E+00  0.00000000E+00  0.00000000E+00
  0.00000000E+00  0.00000000E+00  0.00000000E+00
  0.00000000E+00  0.00000000E+00  0.00000000E+00
  0.00000000E+00  0.00000000E+00  0.00000000E+00
  0.00000000E+00  0.00000000E+00  0.00000000E+00
  0.00000000E+00  0.00000000E+00  0.00000000E+00
  0.00000000E+00  0.00000000E+00  0.00000000E+00
  0.00000000E+00  0.00000000E+00  0.00000000E+00
  0.00000000E+00  0.00000000E+00  0.00000000E+00
  0.00000000E+00  0.00000000E+00  0.00000000E+00
  0.00000000E+00  0.00000000E+00  0.00000000E+00
  0.00000000E+00  0.00000000E+00  0.00000000E+00
  0.00000000E+00  0.00000000E+00  0.00000000E+00
  0.00000000E+00  0.00000000E+00  0.00000000E+00
  0.00000000E+00  0.00000000E+00  0.00000000E+00
  0.00000000E+00  0.00000000E+00  0.00000000E+00
  0.00000000E+00  0.00000000E+00  0.00000000E+00
  0.00000000E+00  0.00000000E+00  0.00000000E+00
  0.00000000E+00  0.00000000E+00  0.00000000E+00
  0.00000000E+00  0.00000000E+00  0.00000000E+00
  0.00000000E+00  0.00000000E+00  0.00000000E+00
  0.00000000E+00  0.00000000E+00  0.00000000E+00
  0.00000000E+00  0.00000000E+00  0.00000000E+00
  0.00000000E+00  0.00000000E+00  0.00000000E+00
  0.00000000E+00  0.00000000E+00  0.00000000E+00
  0.00000000E+00  0.00000000E+00  0.00000000E+00
  0.00000000E+00  0.00000000E+00  0.00000000E+00
  0.00000000E+00  0.00000000E+00  0.00000000E+00
  0.00000000E+00  0.00000000E+00  0.00000000E+00
  0.00000000E+00  0.00000000E+00  0.00000000E+00
  0.00000000E+00  0.00000000E+00  0.00000000E+00
  0.00000000E+00  0.00000000E+00  0.00000000E+00
  0.00000000E+00  0.00000000E+00  0.00000000E+00
  0.00000000E+00  0.00000000E+00  0.00000000E+00
  0.00000000E+00  0.00000000E+00  0.00000000E+00
  0.00000000E+00  0.00000000E+00  0.00000000E+00
  0.00000000E+00  0.00000000E+00  0.00000000E+00
  0.00000000E+00  0.00000000E+00  0.00000000E+00
  0.00000000E+00  0.00000000E+00  0.00000000E+00
  0.00000000E+00  0.00000000E+00  0.00000000E+00
  0.00000000E+00  0.00000000E+00  0.00000000E+00
  0.00000000E+00  0.00000000E+00  0.00000000E+00
  0.00000000E+00  0.00000000E+00  0.00000000E+00
  0.00000000E+00  0.00000000E+00  0.00000000E+00
  0.00000000E+00  0.00000000E+00  0.00000000E+00
  0.00000000E+00  0.00000000E+00  0.00000000E+00
  0.00000000E+00  0.00000000E+00  0.00000000E+00
  0.00000000E+00  0.00000000E+00  0.00000000E+00
  0.00000000E+00  0.00000000E+00  0.00000000E+00
  0.00000000E+00  0.00000000E+00  0.00000000E+00
  0.00000000E+00  0.00000000E+00  0.00000000E+00
  0.00000000E+00  0.00000000E+00  0.00000000E+00
  0.00000000E+00  0.00000000E+00  0.00000000E+00
  0.00000000E+00  0.00000000E+00  0.00000000E+00
  0.00000000E+00  0.00000000E+00  0.00000000E+00
  0.00000000E+00  0.00000000E+00  0.00000000E+00
  0.00000000E+00  0.00000000E+00  0.00000000E+00
  0.00000000E+00  0.00000000E+00  0.00000000E+00
  0.00000000E+00  0.00000000E+00  0.00000000E+00
  0.00000000E+00  0.00000000E+00  0.00000000E+00
  0.00000000E+00  0.00000000E+00  0.00000000E+00
  0.00000000E+00  0.00000000E+00  0.00000000E+00
  0.00000000E+00  0.00000000E+00  0.00000000E+00
  0.00000000E+00  0.00000000E+00  0.00000000E+00
  0.00000000E+00  0.00000000E+00  0.00000000E+00
  0.00000000E+00  0.00000000E+00  0.00000000E+00
  0.00000000E+00  0.00000000E+00  0.00000000E+00
  0.00000000E+00  0.00000000E+00  0.00000000E+00
  0.00000000E+00  0.00000000E+00  0.00000000E+00
  0.00000000E+00  0.00000000E+00  0.00000000E+00
  0.00000000E+00  0.00000000E+00  0.00000000E+00
  0.00000000E+00  0.00000000E+00  0.00000000E+00
  0.00000000E+00  0.00000000E+00  0.00000000E+00
  0.00000000E+00  0.00000000E+00  0.00000000E+00
  0.00000000E+00  0.00000000E+00  0.00000000E+00
  0.00000000E+00  0.00000000E+00  0.00000000E+00
  0.00000000E+00  0.00000000E+00  0.00000000E+00
  0.00000000E+00  0.00000000E+00  0.00000000E+00
  0.00000000E+00  0.00000000E+00  0.00000000E+00
  0.00000000E+00  0.00000000E+00  0.00000000E+00
  0.00000000E+00  0.00000000E+00  0.00000000E+00
  0.00000000E+00  0.00000000E+00  0.00000000E+00
  0.00000000E+00  0.00000000E+00  0.00000000E+00
  0.00000000E+00  0.00000000E+00  0.00000000E+00
  0.00000000E+00  0.00000000E+00  0.00000000E+00
  0.00000000E+00  0.00000000E+00  0.00000000E+00
  0.00000000E+00  0.00000000E+00  0.00000000E+00
  0.00000000E+00  0.00000000E+00  0.00000000E+00
  0.00000000E+00  0.00000000E+00  0.00000000E+00
  0.00000000E+00  0.00000000E+00  0.00000000E+00
  0.00000000E+00  0.00000000E+00  0.00000000E+00
  0.00000000E+00  0.00000000E+00  0.00000000E+00
  0.00000000E+00  0.00000000E+00  0.00000000E+00
  0.00000000E+00  0.00000000E+00  0.00000000E+00
  0.00000000E+00  0.00000000E+00  0.00000000E+00
  0.00000000E+00  0.00000000E+00  0.00000000E+00
  0.00000000E+00  0.00000000E+00  0.00000000E+00
  0.00000000E+00  0.00000000E+00  0.00000000E+00
  0.00000000E+00  0.00000000E+00  0.00000000E+00
  0.00000000E+00  0.00000000E+00  0.00000000E+00
  0.00000000E+00  0.00000000E+00  0.00000000E+00
  0.00000000E+00  0.00000000E+00  0.00000000E+00
  0.00000000E+00  0.00000000E+00  0.00000000E+00
