Sr   Ti   O                             
   1.00000000000000     
    11.1989999999999998    0.0000000000000000    0.0000000000000000
     0.0000000000000000   11.1989999999999998    0.0000000000000000
     0.0000000000000000    0.0000000000000000   15.9830000000000005
   Sr   Ti   O 
    32    32    94
Direct
  0.9991075469106429  0.2508364890257069  0.1250318438554036
  0.0029938441317216  0.2498431760275379  0.6238678053174981
  0.0007669779809553  0.7505178002410771  0.1238650024003425
  0.0018192052933425  0.7489560587949926  0.6255884988053702
  0.4993209147578145  0.2504633437515763  0.1243932831648904
  0.4935700000059650  0.2420743092265342  0.6298985975091967
  0.4978092023521032  0.7490817115107620  0.1229848562294516
  0.4964808544946928  0.7534819338576088  0.6302734379369321
  0.0040030620134776  0.2501727376183669  0.3762879839252901
  0.9989923098854572  0.2504643980467254  0.8751357988508019
  0.0090537639337231  0.7495005293127788  0.3734436593454709
  0.9987347960384275  0.7500603440894174  0.8744539420339740
  0.4927187573957358  0.2434196397055521  0.3704340730043343
  0.4995642454763177  0.2501882158784969  0.8758462203039064
  0.4883178524488916  0.7547409918425204  0.3692957035410881
  0.4984324728590797  0.7490025535195625  0.8759128556994789
  0.2494702000218640  0.9997781625931691  0.1249628736498762
  0.2492309391539201  0.9983435896551919  0.6248191910017877
  0.2505851545027677  0.5002179493478952  0.1241316629219942
  0.2476803365744774  0.4983507390488232  0.6272829402854370
  0.7492027059338827  0.0025366928880691  0.1244418248906566
  0.7491320418318260  0.0009057474023615  0.6243752439599837
  0.7498116471040494  0.4989303182774568  0.1228442324996837
  0.7573285717313792  0.4959788047046159  0.6334737086694937
  0.2492946520265130  0.0000804869331268  0.3749733415755709
  0.2494369972907695  0.9994870386198257  0.8751071941152648
  0.2480051657087840  0.4972493343924950  0.3719714187677720
  0.2495220239644024  0.4990852442706380  0.8759795097762314
  0.7484664321855700  0.0084693542407385  0.3758503409018052
  0.7492872990257263  0.0003664283013008  0.8741057962303264
  0.7594490258175479  0.4915073570324839  0.3687169058951483
  0.7487233986200845  0.4998423826266720  0.8763226920037002
  0.9986933834031607  0.0000527383926444  0.9999727002949602
  0.9984236895250087  0.9989517512197144  0.4995370148744801
  0.9995463065472905  0.4999255195500601  0.9999385999293986
  0.0029974414506668  0.4997023720176715  0.4991881580276002
  0.4999073671968731  0.9996768824099240  0.9999780315601664
  0.5004131210147679  0.9978563173483831  0.4994307228263944
  0.4993598046220125  0.5001646500159780  0.0000732873939194
  0.2494113997525474  0.2492934182503584  0.0001984083890611
  0.2503339375686310  0.2448213838707327  0.5006474899188587
  0.2489402779603367  0.7502952962130435  0.9996061391008080
  0.2496060373593560  0.7516993446696917  0.5004276688635497
  0.7501027760401680  0.2496228710419839  0.9997726575555241
  0.7495559663804268  0.7506847022342422  0.9973643734667006
  0.2493333373822078  0.2496809551596782  0.2480990747596592
  0.2490979901736090  0.2491062022818254  0.7506397936916105
  0.2491969691692064  0.7499778444564880  0.2479220212632062
  0.2489197477521014  0.7496042403293185  0.7511118755673452
  0.7484009637990833  0.2506783610862257  0.2496056109525882
  0.7484076531712708  0.2502132172829528  0.7500576869935558
  0.7499842401787936  0.7506223303363909  0.2452308957697656
  0.7492528620217188  0.7488643031039263  0.7498145917632016
  0.9993875984842701  0.0005975338656006  0.2511752347782062
  0.9989142420768951  0.9997064109813459  0.7491692975360701
  0.0011716603720695  0.5000012725281614  0.2494290099149510
  0.0004668380159521  0.5003186753935034  0.7508628103555179
  0.4996599124726990  0.9994951853451705  0.2493609293931504
  0.4999342158724792  0.9984402131637297  0.7509473410481821
  0.5001541390009081  0.5005282474711129  0.2506402193036200
  0.4987096356045994  0.4998973628562768  0.7505293487821723
  0.7551298717332765  0.2522097135187433  0.5006358976380934
  0.4901366250816100  0.5017963207764359  0.5002391209971624
  0.7542088154837920  0.7509597064006014  0.5006760092631947
  0.1097064242029609  0.1400953644817147  0.2477887634740973
  0.1084742242970100  0.1403074391533633  0.7503259207718685
  0.1114250650651953  0.6392407290680742  0.2480491771148509
  0.1092612591558608  0.6406341242049797  0.7512269817624788
  0.6101528665804112  0.1392367838979485  0.2495869988541752
  0.6092459613920134  0.1392238365290734  0.7506473175230959
  0.6128131393209619  0.6405016856550252  0.2572017714917697
  0.6082217209358515  0.6392918152855003  0.7535866214282362
  0.3892559064718284  0.3604872523081065  0.2481354504312232
  0.3892379509385690  0.3586895597249427  0.7514013929180839
  0.3880861188358466  0.8614016625799003  0.2468201236161129
  0.3891341379357298  0.8593534034201563  0.7518602670591703
  0.8883055300987847  0.3615083622135245  0.2529097390963446
  0.8891740466466579  0.3601905705030563  0.7463042766203870
  0.8865726161206690  0.8604679296393029  0.2586990636324576
  0.8889686085584441  0.8596869443077412  0.7476303089066824
  0.3609732042284386  0.1110542511825622  0.2494465750148825
  0.3603532764261678  0.1092394666252071  0.7481977603222110
  0.3610008800817233  0.6120493536596701  0.2485635214447117
  0.3579229957271471  0.6096426533457103  0.7524429395854725
  0.8592449479136881  0.1122980239651637  0.2544957374914835
  0.8579415190639276  0.1107940713195455  0.7449568239177471
  0.8618025594537633  0.6144614365575108  0.2552243356063904
  0.8605611260036768  0.6104629859783330  0.7546252449156466
  0.1401377132273070  0.3894505936533224  0.2468437991902498
  0.1396746402474958  0.3900098283180622  0.7487999988137080
  0.1378098424409942  0.8888639452748091  0.2492603602165621
  0.1390154187783164  0.8902011210856433  0.7503478380338309
  0.6388050648791292  0.3906698974879634  0.2461304699803459
  0.6384508910122328  0.3903578626003165  0.7542219889623382
  0.6403724882436707  0.8876600654497904  0.2573414341890485
  0.6401552611448050  0.8891196213341264  0.7493762069431408
  0.3594933978015024  0.3898818642650534  0.0013861294386249
  0.3588940585546908  0.8905396842492083  0.0006905498952478
  0.3570992636557874  0.8899042863707343  0.4999013610178681
  0.8587812654422321  0.3904041192128885  0.9999369732711018
  0.8578741435631567  0.8912216182136522  0.0003827577871049
  0.8605935040831326  0.8918822129398911  0.4935864987372797
  0.1394987614708696  0.1082879732862743  0.0008365662587505
  0.1399532882796669  0.1107968400119652  0.5010025252024379
  0.1394908180349807  0.6093833873734436  0.0004333727438663
  0.1465225814668438  0.6096739565524335  0.4994523334471160
  0.6407843347986095  0.1095119329696827  0.9996014230006558
  0.6331727052434379  0.1085434829293958  0.5002419265430329
  0.6403472669029820  0.6098737034532915  0.9994515382895479
  0.1092864281590806  0.3592456006746565  0.0011467403023107
  0.1244505838299393  0.3654570001079752  0.5021742476312768
  0.1076749470968659  0.8599241764278335  1.0000051354208199
  0.1095612653205802  0.8573095293534381  0.5004435734495940
  0.6097668243446082  0.3595445667714230  0.0007023053173543
  0.6086587615297507  0.8586958542379509  0.9999754319068367
  0.6062156575251324  0.8455413204124643  0.4919013822106693
  0.3904614033464564  0.1400049447041863  0.0005909003399040
  0.3871759697567832  0.1335473615402755  0.5012728249731891
  0.3892471799847113  0.6406040216123291  0.0001422999194191
  0.8907707578029040  0.1409257655924719  0.0007559195794518
  0.8895440997715417  0.1342965845377089  0.4999176235172565
  0.8898244004874660  0.6410312665100616  0.9993469414977209
  0.9941136036206071  0.9975712982425005  0.1264540838046472
  0.0011645625458917  0.9980813477925186  0.6246102275396381
  0.9952871295950007  0.5009807579747179  0.1254238849544798
 -0.0000108121036208  0.5080459304789181  0.6246814376585910
  0.5037757255448709  0.9982629709805998  0.1254357488285268
  0.5024694517570023  0.9930831022590650  0.6247896605673139
  0.5013014961719433  0.5047324606362590  0.1252229141576483
  0.4944181175368461  0.5021972820912042  0.6266406391386353
  0.0078899816681555  0.0036413850291577  0.3746418086727066
  0.9960689117851652  0.0009233260823439  0.8744825752641874
  0.0094151465717230  0.4971792935509627  0.3737052760583341
  0.0007135037874904  0.4966967410676710  0.8751346131274871
  0.4956644091008875  0.0003141168957566  0.3741970983663818
  0.4995200657903563  0.9996343304745090  0.8751383316008633
  0.4971779266176303  0.4993024030931982  0.8765144744537107
  0.2502015264452457  0.2498484760959299  0.3745349032734596
  0.2490869224726835  0.2487451382625648  0.8753859771704448
  0.2511135549195052  0.7498205095444993  0.3741763494356866
  0.2480703313879394  0.7510516565738291  0.8756855083153307
  0.7524019503938082  0.2486530523188226  0.8745550496809741
  0.7500194633422058  0.7527423814940427  0.8751279513948338
  0.2503207549437302  0.2483833994217975  0.1244548872745893
  0.2510379728233572  0.2488288069843597  0.6257445253079976
  0.2483115835273584  0.7504798195854380  0.1241460980035918
  0.2510388001142440  0.7487080959127147  0.6256097817637298
  0.7518423592799002  0.2487369467490571  0.1254366152365863
  0.7355423301972029  0.2601260703003875  0.6239802254198001
  0.7492391418669678  0.7504326650515083  0.1250791567047320
  0.7453968722828075  0.7385568546249801  0.6259811590962582
  0.7361372901230088  0.2593895432990986  0.3763518934106848
  0.8802056828433534  0.3827641482075670  0.4997539744156959
  0.4022455002746914  0.6476730575821580  0.5003059357650306
  0.4925028673270231  0.4981005839297382  0.3747242348838778
  0.3806768752066308  0.3735040869862362  0.5013256599204051
  0.8875052898275648  0.6371411189567385  0.4888811789587745
  0.6544587223765822  0.4833309227169910  0.5006032083065264
 
  0.00000000E+00  0.00000000E+00  0.00000000E+00
  0.00000000E+00  0.00000000E+00  0.00000000E+00
  0.00000000E+00  0.00000000E+00  0.00000000E+00
  0.00000000E+00  0.00000000E+00  0.00000000E+00
  0.00000000E+00  0.00000000E+00  0.00000000E+00
  0.00000000E+00  0.00000000E+00  0.00000000E+00
  0.00000000E+00  0.00000000E+00  0.00000000E+00
  0.00000000E+00  0.00000000E+00  0.00000000E+00
  0.00000000E+00  0.00000000E+00  0.00000000E+00
  0.00000000E+00  0.00000000E+00  0.00000000E+00
  0.00000000E+00  0.00000000E+00  0.00000000E+00
  0.00000000E+00  0.00000000E+00  0.00000000E+00
  0.00000000E+00  0.00000000E+00  0.00000000E+00
  0.00000000E+00  0.00000000E+00  0.00000000E+00
  0.00000000E+00  0.00000000E+00  0.00000000E+00
  0.00000000E+00  0.00000000E+00  0.00000000E+00
  0.00000000E+00  0.00000000E+00  0.00000000E+00
  0.00000000E+00  0.00000000E+00  0.00000000E+00
  0.00000000E+00  0.00000000E+00  0.00000000E+00
  0.00000000E+00  0.00000000E+00  0.00000000E+00
  0.00000000E+00  0.00000000E+00  0.00000000E+00
  0.00000000E+00  0.00000000E+00  0.00000000E+00
  0.00000000E+00  0.00000000E+00  0.00000000E+00
  0.00000000E+00  0.00000000E+00  0.00000000E+00
  0.00000000E+00  0.00000000E+00  0.00000000E+00
  0.00000000E+00  0.00000000E+00  0.00000000E+00
  0.00000000E+00  0.00000000E+00  0.00000000E+00
  0.00000000E+00  0.00000000E+00  0.00000000E+00
  0.00000000E+00  0.00000000E+00  0.00000000E+00
  0.00000000E+00  0.00000000E+00  0.00000000E+00
  0.00000000E+00  0.00000000E+00  0.00000000E+00
  0.00000000E+00  0.00000000E+00  0.00000000E+00
  0.00000000E+00  0.00000000E+00  0.00000000E+00
  0.00000000E+00  0.00000000E+00  0.00000000E+00
  0.00000000E+00  0.00000000E+00  0.00000000E+00
  0.00000000E+00  0.00000000E+00  0.00000000E+00
  0.00000000E+00  0.00000000E+00  0.00000000E+00
  0.00000000E+00  0.00000000E+00  0.00000000E+00
  0.00000000E+00  0.00000000E+00  0.00000000E+00
  0.00000000E+00  0.00000000E+00  0.00000000E+00
  0.00000000E+00  0.00000000E+00  0.00000000E+00
  0.00000000E+00  0.00000000E+00  0.00000000E+00
  0.00000000E+00  0.00000000E+00  0.00000000E+00
  0.00000000E+00  0.00000000E+00  0.00000000E+00
  0.00000000E+00  0.00000000E+00  0.00000000E+00
  0.00000000E+00  0.00000000E+00  0.00000000E+00
  0.00000000E+00  0.00000000E+00  0.00000000E+00
  0.00000000E+00  0.00000000E+00  0.00000000E+00
  0.00000000E+00  0.00000000E+00  0.00000000E+00
  0.00000000E+00  0.00000000E+00  0.00000000E+00
  0.00000000E+00  0.00000000E+00  0.00000000E+00
  0.00000000E+00  0.00000000E+00  0.00000000E+00
  0.00000000E+00  0.00000000E+00  0.00000000E+00
  0.00000000E+00  0.00000000E+00  0.00000000E+00
  0.00000000E+00  0.00000000E+00  0.00000000E+00
  0.00000000E+00  0.00000000E+00  0.00000000E+00
  0.00000000E+00  0.00000000E+00  0.00000000E+00
  0.00000000E+00  0.00000000E+00  0.00000000E+00
  0.00000000E+00  0.00000000E+00  0.00000000E+00
  0.00000000E+00  0.00000000E+00  0.00000000E+00
  0.00000000E+00  0.00000000E+00  0.00000000E+00
  0.00000000E+00  0.00000000E+00  0.00000000E+00
  0.00000000E+00  0.00000000E+00  0.00000000E+00
  0.00000000E+00  0.00000000E+00  0.00000000E+00
  0.00000000E+00  0.00000000E+00  0.00000000E+00
  0.00000000E+00  0.00000000E+00  0.00000000E+00
  0.00000000E+00  0.00000000E+00  0.00000000E+00
  0.00000000E+00  0.00000000E+00  0.00000000E+00
  0.00000000E+00  0.00000000E+00  0.00000000E+00
  0.00000000E+00  0.00000000E+00  0.00000000E+00
  0.00000000E+00  0.00000000E+00  0.00000000E+00
  0.00000000E+00  0.00000000E+00  0.00000000E+00
  0.00000000E+00  0.00000000E+00  0.00000000E+00
  0.00000000E+00  0.00000000E+00  0.00000000E+00
  0.00000000E+00  0.00000000E+00  0.00000000E+00
  0.00000000E+00  0.00000000E+00  0.00000000E+00
  0.00000000E+00  0.00000000E+00  0.00000000E+00
  0.00000000E+00  0.00000000E+00  0.00000000E+00
  0.00000000E+00  0.00000000E+00  0.00000000E+00
  0.00000000E+00  0.00000000E+00  0.00000000E+00
  0.00000000E+00  0.00000000E+00  0.00000000E+00
  0.00000000E+00  0.00000000E+00  0.00000000E+00
  0.00000000E+00  0.00000000E+00  0.00000000E+00
  0.00000000E+00  0.00000000E+00  0.00000000E+00
  0.00000000E+00  0.00000000E+00  0.00000000E+00
  0.00000000E+00  0.00000000E+00  0.00000000E+00
  0.00000000E+00  0.00000000E+00  0.00000000E+00
  0.00000000E+00  0.00000000E+00  0.00000000E+00
  0.00000000E+00  0.00000000E+00  0.00000000E+00
  0.00000000E+00  0.00000000E+00  0.00000000E+00
  0.00000000E+00  0.00000000E+00  0.00000000E+00
  0.00000000E+00  0.00000000E+00  0.00000000E+00
  0.00000000E+00  0.00000000E+00  0.00000000E+00
  0.00000000E+00  0.00000000E+00  0.00000000E+00
  0.00000000E+00  0.00000000E+00  0.00000000E+00
  0.00000000E+00  0.00000000E+00  0.00000000E+00
  0.00000000E+00  0.00000000E+00  0.00000000E+00
  0.00000000E+00  0.00000000E+00  0.00000000E+00
  0.00000000E+00  0.00000000E+00  0.00000000E+00
  0.00000000E+00  0.00000000E+00  0.00000000E+00
  0.00000000E+00  0.00000000E+00  0.00000000E+00
  0.00000000E+00  0.00000000E+00  0.00000000E+00
  0.00000000E+00  0.00000000E+00  0.00000000E+00
  0.00000000E+00  0.00000000E+00  0.00000000E+00
  0.00000000E+00  0.00000000E+00  0.00000000E+00
  0.00000000E+00  0.00000000E+00  0.00000000E+00
  0.00000000E+00  0.00000000E+00  0.00000000E+00
  0.00000000E+00  0.00000000E+00  0.00000000E+00
  0.00000000E+00  0.00000000E+00  0.00000000E+00
  0.00000000E+00  0.00000000E+00  0.00000000E+00
  0.00000000E+00  0.00000000E+00  0.00000000E+00
  0.00000000E+00  0.00000000E+00  0.00000000E+00
  0.00000000E+00  0.00000000E+00  0.00000000E+00
  0.00000000E+00  0.00000000E+00  0.00000000E+00
  0.00000000E+00  0.00000000E+00  0.00000000E+00
  0.00000000E+00  0.00000000E+00  0.00000000E+00
  0.00000000E+00  0.00000000E+00  0.00000000E+00
  0.00000000E+00  0.00000000E+00  0.00000000E+00
  0.00000000E+00  0.00000000E+00  0.00000000E+00
  0.00000000E+00  0.00000000E+00  0.00000000E+00
  0.00000000E+00  0.00000000E+00  0.00000000E+00
  0.00000000E+00  0.00000000E+00  0.00000000E+00
  0.00000000E+00  0.00000000E+00  0.00000000E+00
  0.00000000E+00  0.00000000E+00  0.00000000E+00
  0.00000000E+00  0.00000000E+00  0.00000000E+00
  0.00000000E+00  0.00000000E+00  0.00000000E+00
  0.00000000E+00  0.00000000E+00  0.00000000E+00
  0.00000000E+00  0.00000000E+00  0.00000000E+00
  0.00000000E+00  0.00000000E+00  0.00000000E+00
  0.00000000E+00  0.00000000E+00  0.00000000E+00
  0.00000000E+00  0.00000000E+00  0.00000000E+00
  0.00000000E+00  0.00000000E+00  0.00000000E+00
  0.00000000E+00  0.00000000E+00  0.00000000E+00
  0.00000000E+00  0.00000000E+00  0.00000000E+00
  0.00000000E+00  0.00000000E+00  0.00000000E+00
  0.00000000E+00  0.00000000E+00  0.00000000E+00
  0.00000000E+00  0.00000000E+00  0.00000000E+00
  0.00000000E+00  0.00000000E+00  0.00000000E+00
  0.00000000E+00  0.00000000E+00  0.00000000E+00
  0.00000000E+00  0.00000000E+00  0.00000000E+00
  0.00000000E+00  0.00000000E+00  0.00000000E+00
  0.00000000E+00  0.00000000E+00  0.00000000E+00
  0.00000000E+00  0.00000000E+00  0.00000000E+00
  0.00000000E+00  0.00000000E+00  0.00000000E+00
  0.00000000E+00  0.00000000E+00  0.00000000E+00
  0.00000000E+00  0.00000000E+00  0.00000000E+00
  0.00000000E+00  0.00000000E+00  0.00000000E+00
  0.00000000E+00  0.00000000E+00  0.00000000E+00
  0.00000000E+00  0.00000000E+00  0.00000000E+00
  0.00000000E+00  0.00000000E+00  0.00000000E+00
  0.00000000E+00  0.00000000E+00  0.00000000E+00
  0.00000000E+00  0.00000000E+00  0.00000000E+00
  0.00000000E+00  0.00000000E+00  0.00000000E+00
  0.00000000E+00  0.00000000E+00  0.00000000E+00
  0.00000000E+00  0.00000000E+00  0.00000000E+00
  0.00000000E+00  0.00000000E+00  0.00000000E+00
  0.00000000E+00  0.00000000E+00  0.00000000E+00
  0.00000000E+00  0.00000000E+00  0.00000000E+00
