SrTiFeO                                 
   1.00000000000000     
    11.1989999999999998    0.0000000000000000    0.0000000000000000
     0.0000000000000000   11.1989999999999998    0.0000000000000000
     0.0000000000000000    0.0000000000000000   15.9830000000000005
   Sr   Ti   O 
    32    32    94
Direct
  0.0002289510917372  0.2501547687026121  0.1249995250528308
  0.0001799492134822  0.2484067044832303  0.6253096513708357
  0.0016705625394781  0.7507261168878951  0.1237751793050830
  0.0001917583101677  0.7493608403946265  0.6249588258260224
  0.4997632351021530  0.2506473831804443  0.1252858508846636
  0.5011517831964466  0.2477561048616442  0.6258100870829941
  0.4981021702730632  0.7499346421606179  0.1233694405269622
  0.4973913889416810  0.7509526001123938  0.6280439133422220
  0.0013060958050856  0.2488755454956208  0.3751088627220933
  0.9999460167218061  0.2500574557654553  0.8751533144285639
  0.0071606976007394  0.7487291596535378  0.3743860521905793
  0.0000575502110769  0.7502279516273647  0.8745198849912558
  0.5003907492882218  0.2478934278302837  0.3748828869905058
  0.5000563211104644  0.2504736953081708  0.8749758795250447
  0.4887138069301067  0.7512280212242503  0.3710741815639253
  0.4988708009118434  0.7508090448249082  0.8756352027250439
  0.2502276655340032  0.0001572597176141  0.1250240954790871
  0.2489644899147739  0.9995228545104394  0.6254519993212433
  0.2505404246226952  0.5006944685099106  0.1248442962114212
  0.2464052801252274  0.5002505621611953  0.6260183814012095
  0.7496864902895852  0.0018031653524096  0.1237039648406314
  0.7511925997416624  0.0007566508617527  0.6257582569736055
  0.7503733914494075  0.4982614955443125  0.1236967779282276
  0.7530966039844930  0.4944652851439590  0.6287447326118041
  0.2488552134333017  0.0009291390670468  0.3744078386466390
  0.2501298404471047  0.0002657157802804  0.8749851472285111
  0.2472503314875866  0.4985778284132182  0.3737081867461411
  0.2503176646860940  0.5003064012964878  0.8751843413099873
  0.7509339758737441  0.0074977429132758  0.3742869860699503
  0.7502326140586880  0.0000095230922725  0.8750024305570693
  0.7535769224386266  0.4882019400863786  0.3725898438409791
  0.7492900308511621  0.4996700236145690  0.8751865950807322
  0.9997547268856625  0.9998750791179067  0.9999542371265060
  0.9987047058183931  0.9986987386371006  0.4996329150740654
  0.9998329558356479  0.5002181174183170  0.9999490394630414
  0.9996776203344135  0.4983601128153541  0.4992118741192058
  0.5002801620776764  0.0000937294006400  0.9999421094743666
  0.4989644755822167  0.9989441091976752  0.4992510669517357
  0.4998970844841251  0.5000921052056470  0.9999109987722837
  0.2503831163347661  0.2503658163964115  0.0003506375410351
  0.2481894322486738  0.2469345596612149  0.5007063973362835
  0.2497390556259540  0.7500191887881913  0.9996665250857583
  0.2500916920662508  0.7506789713464866  0.5004167171395225
  0.7502614994089722  0.2500417341981941  0.9997495303704337
  0.7503618457285118  0.7503854984100990  0.9972634201215603
  0.2501674161378249  0.2500352128921425  0.2496784783682018
  0.2500993645159318  0.2499693195698669  0.7496955532932049
  0.2492035656839520  0.7499871562898306  0.2490306850811694
  0.2495070325458348  0.7498249765170213  0.7501489187714030
  0.7500374314309084  0.2492127862700596  0.2489543800883362
  0.7500336170077252  0.2489723322733285  0.7505709226442666
  0.7499432561278018  0.7500373056428968  0.2454514748128335
  0.7493991519743447  0.7491207579404127  0.7491228847418411
  0.9999903217049232  0.9997818390505933  0.2503484620739287
  0.9999150652327689  0.9991603297858225  0.7499722789304420
  0.0001661316465229  0.4996367644104561  0.2500331054871023
  0.9995300113435100  0.5003066000529838  0.7504609886724241
  0.5000007705657329  0.0000726934087282  0.2500770361747398
  0.5004959759098869  0.9993599928470706  0.7501301639644590
  0.5011282039820973  0.5005498982484421  0.2506666544446161
  0.5006046248521292  0.5007403942758296  0.7500783327843226
  0.7509229499117283  0.2491216742683447  0.5005687000798040
  0.4935612004688858  0.4961631762891766  0.5002125135845074
  0.7487766078074537  0.7511035330418886  0.4995907924473474
  0.1106865293871837  0.1405060735836215  0.2479250246709870
  0.1100463537165841  0.1407960335031241  0.7510470472591458
  0.1099431994198160  0.6397724477268754  0.2495107719358582
  0.1086918373291345  0.6409033997593456  0.7495920456813238
  0.6103102050901210  0.1397627217737283  0.2499620668656574
  0.6092067490255136  0.1403207429556075  0.7499837634653738
  0.6119055493780208  0.6423257913309319  0.2544504419041471
  0.6081088356916680  0.6410798753023343  0.7552534496244168
  0.3911437842212614  0.3613549778044411  0.2531738589686797
  0.3910854312428806  0.3604671355039978  0.7464162580623552
  0.3890931428333277  0.8609989490458916  0.2483930472355200
  0.3902139057751197  0.8596731330198087  0.7503954567460814
  0.8894038316677151  0.3605643544118122  0.2510879544880312
  0.8904245819396887  0.3595569330718182  0.7485835529343580
  0.8887272841980062  0.8589544860927821  0.2577636456011861
  0.8910901598527309  0.8587846250442340  0.7487004091791448
  0.3604124942465983  0.1109309452774346  0.2484917391216511
  0.3602542417726070  0.1097842466470795  0.7485982527366112
  0.3609989339144741  0.6106994526823232  0.2517760651094095
  0.3592465047798306  0.6091390421890697  0.7486191559241663
  0.8601899415748794  0.1100203769889265  0.2493068161948326
  0.8593461287366952  0.1089516870720306  0.7501650183660290
  0.8589047603566515  0.6117630570634860  0.2578161028370704
  0.8586397648164239  0.6084888027662931  0.7520677167364311
  0.1407186958773101  0.3903199867132712  0.2477623813344947
  0.1402209955058693  0.3910722877241251  0.7487588996847397
  0.1394317639200701  0.8895115861587563  0.2498847843741192
  0.1406709112643831  0.8905543214209077  0.7502074109274817
  0.6402769408564704  0.3901369474248431  0.2490123549714438
  0.6405789433657332  0.3903838524003961  0.7505457608015590
  0.6411925272238622  0.8886209523546876  0.2575352940366180
  0.6411067734109959  0.8908371373184492  0.7505168058143907
  0.3595668065612483  0.3910934818737419  0.0012552849848323
  0.3595499928671333  0.8906134957049926  0.0006165013265309
  0.3569024329544190  0.8928044395237356  0.4997939358713575
  0.8593582560770103  0.3908807350964260  0.9998203600656996
  0.8589901368407215  0.8912209345094386  0.0001152143137324
  0.8605054264577854  0.8938156808277026  0.4961453968561305
  0.1408474273209710  0.1097437895199814  0.0009508986290863
  0.1416624446501863  0.1093708341982084  0.5009749480527375
  0.1403891618685183  0.6091829646743598  0.0006195510569070
  0.1382913492656063  0.6108643166736298  0.4996200967043964
  0.6408522446854895  0.1094229771746059  0.9997060792986207
  0.6399671682454404  0.1092019552758742  0.4998787464171462
  0.6409063038637586  0.6096957857053609  0.9997838766323968
  0.1093974198338111  0.3594964692897138  0.0010121823450241
  0.1097328141775323  0.3594804729324343  0.5017794998941663
  0.1094353005770840  0.8593238628898474  0.9998576544405958
  0.1087301569605252  0.8588645591866740  0.5001990055218487
  0.6094378041715705  0.3597550946757943  0.0007475859664979
  0.6094659628776119  0.8590659350951680  0.9998452318679333
  0.6048676842862485  0.8524221637742794  0.4911103193691566
  0.3908984886619157  0.1406028463401167  0.0008847030251869
  0.3918245091576454  0.1423343215520584  0.5013922790997682
  0.3907972502449986  0.6406257431056553  0.0000290292694057
  0.8909948322181853  0.1406966912486480  0.0006368722379178
  0.8907483926271086  0.1409377146787817  0.4998986357033351
  0.8907358880181500  0.6411924141980252  0.9996514913142704
  0.9978974397668312  0.9964209738908980  0.1256761464102417
  0.0000779378905589  0.0006026267450586  0.6251497838257908
  0.9956530746059900  0.5022339447806998  0.1257297344495069
  0.9963187696394843  0.5056893314429363  0.6239382738968174
  0.5039066551954707  0.9979034151847986  0.1255636782061131
  0.5032410987453261  0.9959022406664340  0.6239541209257881
  0.5011406854211798  0.5028795709103699  0.1262139541692827
  0.5102150875323883  0.5083519543383184  0.6234488997679898
  0.0046930347880923  0.0052023859619819  0.3745262298272669
  0.9999362349233866  0.9998065614157485  0.8753151155258615
  0.0059493583917767  0.4947456602282160  0.3745463620130320
  0.0008515302129114  0.4990312675596406  0.8750663461283963
  0.4951558977270299  0.0043809285332543  0.3747450513437837
  0.4992375302527310  0.0002925623271192  0.8750554184486946
  0.4977113366342413  0.4976705601059761  0.8752623047209086
  0.2489980711656987  0.2499062059571512  0.3752782243328722
  0.2521032566943642  0.2517643541660620  0.8749324259853762
  0.2495473565408018  0.7502615209072494  0.3749800896502672
  0.2501154121797442  0.7490142845194089  0.8749419616701726
  0.7506872449824898  0.2501215225520488  0.8750351596412570
  0.7518640942964243  0.7520264755502842  0.8754279282046182
  0.2524613553015676  0.2517170246590579  0.1251167392932481
  0.2491476642076259  0.2496759197841360  0.6250873406729297
  0.2500084664282424  0.7489956049537360  0.1249097528196885
  0.2495243622510671  0.7500279046894243  0.6247870278907710
  0.7506233467087038  0.2501097633387546  0.1248645169341925
  0.7488864188775913  0.2489158347602735  0.6250630134393078
  0.7517987880181320  0.7514842385441329  0.1248593115459517
  0.7454969761758721  0.7431239099141441  0.6268913005800282
  0.7489877036835871  0.2495028074322597  0.3749672073979408
  0.8615041667476576  0.3875811863304505  0.5002986049623009
  0.3947472307170418  0.6433869531226826  0.5003263737536414
  0.5073792080907985  0.5050280547274927  0.3773252116354740
  0.3574207330256859  0.3918315174411788  0.5010116608967058
  0.8784331546465803  0.6329284534562313  0.4882378418696373
  0.6142755122036750  0.3672684149984393  0.5001577455094944
 
  0.00000000E+00  0.00000000E+00  0.00000000E+00
  0.00000000E+00  0.00000000E+00  0.00000000E+00
  0.00000000E+00  0.00000000E+00  0.00000000E+00
  0.00000000E+00  0.00000000E+00  0.00000000E+00
  0.00000000E+00  0.00000000E+00  0.00000000E+00
  0.00000000E+00  0.00000000E+00  0.00000000E+00
  0.00000000E+00  0.00000000E+00  0.00000000E+00
  0.00000000E+00  0.00000000E+00  0.00000000E+00
  0.00000000E+00  0.00000000E+00  0.00000000E+00
  0.00000000E+00  0.00000000E+00  0.00000000E+00
  0.00000000E+00  0.00000000E+00  0.00000000E+00
  0.00000000E+00  0.00000000E+00  0.00000000E+00
  0.00000000E+00  0.00000000E+00  0.00000000E+00
  0.00000000E+00  0.00000000E+00  0.00000000E+00
  0.00000000E+00  0.00000000E+00  0.00000000E+00
  0.00000000E+00  0.00000000E+00  0.00000000E+00
  0.00000000E+00  0.00000000E+00  0.00000000E+00
  0.00000000E+00  0.00000000E+00  0.00000000E+00
  0.00000000E+00  0.00000000E+00  0.00000000E+00
  0.00000000E+00  0.00000000E+00  0.00000000E+00
  0.00000000E+00  0.00000000E+00  0.00000000E+00
  0.00000000E+00  0.00000000E+00  0.00000000E+00
  0.00000000E+00  0.00000000E+00  0.00000000E+00
  0.00000000E+00  0.00000000E+00  0.00000000E+00
  0.00000000E+00  0.00000000E+00  0.00000000E+00
  0.00000000E+00  0.00000000E+00  0.00000000E+00
  0.00000000E+00  0.00000000E+00  0.00000000E+00
  0.00000000E+00  0.00000000E+00  0.00000000E+00
  0.00000000E+00  0.00000000E+00  0.00000000E+00
  0.00000000E+00  0.00000000E+00  0.00000000E+00
  0.00000000E+00  0.00000000E+00  0.00000000E+00
  0.00000000E+00  0.00000000E+00  0.00000000E+00
  0.00000000E+00  0.00000000E+00  0.00000000E+00
  0.00000000E+00  0.00000000E+00  0.00000000E+00
  0.00000000E+00  0.00000000E+00  0.00000000E+00
  0.00000000E+00  0.00000000E+00  0.00000000E+00
  0.00000000E+00  0.00000000E+00  0.00000000E+00
  0.00000000E+00  0.00000000E+00  0.00000000E+00
  0.00000000E+00  0.00000000E+00  0.00000000E+00
  0.00000000E+00  0.00000000E+00  0.00000000E+00
  0.00000000E+00  0.00000000E+00  0.00000000E+00
  0.00000000E+00  0.00000000E+00  0.00000000E+00
  0.00000000E+00  0.00000000E+00  0.00000000E+00
  0.00000000E+00  0.00000000E+00  0.00000000E+00
  0.00000000E+00  0.00000000E+00  0.00000000E+00
  0.00000000E+00  0.00000000E+00  0.00000000E+00
  0.00000000E+00  0.00000000E+00  0.00000000E+00
  0.00000000E+00  0.00000000E+00  0.00000000E+00
  0.00000000E+00  0.00000000E+00  0.00000000E+00
  0.00000000E+00  0.00000000E+00  0.00000000E+00
  0.00000000E+00  0.00000000E+00  0.00000000E+00
  0.00000000E+00  0.00000000E+00  0.00000000E+00
  0.00000000E+00  0.00000000E+00  0.00000000E+00
  0.00000000E+00  0.00000000E+00  0.00000000E+00
  0.00000000E+00  0.00000000E+00  0.00000000E+00
  0.00000000E+00  0.00000000E+00  0.00000000E+00
  0.00000000E+00  0.00000000E+00  0.00000000E+00
  0.00000000E+00  0.00000000E+00  0.00000000E+00
  0.00000000E+00  0.00000000E+00  0.00000000E+00
  0.00000000E+00  0.00000000E+00  0.00000000E+00
  0.00000000E+00  0.00000000E+00  0.00000000E+00
  0.00000000E+00  0.00000000E+00  0.00000000E+00
  0.00000000E+00  0.00000000E+00  0.00000000E+00
  0.00000000E+00  0.00000000E+00  0.00000000E+00
  0.00000000E+00  0.00000000E+00  0.00000000E+00
  0.00000000E+00  0.00000000E+00  0.00000000E+00
  0.00000000E+00  0.00000000E+00  0.00000000E+00
  0.00000000E+00  0.00000000E+00  0.00000000E+00
  0.00000000E+00  0.00000000E+00  0.00000000E+00
  0.00000000E+00  0.00000000E+00  0.00000000E+00
  0.00000000E+00  0.00000000E+00  0.00000000E+00
  0.00000000E+00  0.00000000E+00  0.00000000E+00
  0.00000000E+00  0.00000000E+00  0.00000000E+00
  0.00000000E+00  0.00000000E+00  0.00000000E+00
  0.00000000E+00  0.00000000E+00  0.00000000E+00
  0.00000000E+00  0.00000000E+00  0.00000000E+00
  0.00000000E+00  0.00000000E+00  0.00000000E+00
  0.00000000E+00  0.00000000E+00  0.00000000E+00
  0.00000000E+00  0.00000000E+00  0.00000000E+00
  0.00000000E+00  0.00000000E+00  0.00000000E+00
  0.00000000E+00  0.00000000E+00  0.00000000E+00
  0.00000000E+00  0.00000000E+00  0.00000000E+00
  0.00000000E+00  0.00000000E+00  0.00000000E+00
  0.00000000E+00  0.00000000E+00  0.00000000E+00
  0.00000000E+00  0.00000000E+00  0.00000000E+00
  0.00000000E+00  0.00000000E+00  0.00000000E+00
  0.00000000E+00  0.00000000E+00  0.00000000E+00
  0.00000000E+00  0.00000000E+00  0.00000000E+00
  0.00000000E+00  0.00000000E+00  0.00000000E+00
  0.00000000E+00  0.00000000E+00  0.00000000E+00
  0.00000000E+00  0.00000000E+00  0.00000000E+00
  0.00000000E+00  0.00000000E+00  0.00000000E+00
  0.00000000E+00  0.00000000E+00  0.00000000E+00
  0.00000000E+00  0.00000000E+00  0.00000000E+00
  0.00000000E+00  0.00000000E+00  0.00000000E+00
  0.00000000E+00  0.00000000E+00  0.00000000E+00
  0.00000000E+00  0.00000000E+00  0.00000000E+00
  0.00000000E+00  0.00000000E+00  0.00000000E+00
  0.00000000E+00  0.00000000E+00  0.00000000E+00
  0.00000000E+00  0.00000000E+00  0.00000000E+00
  0.00000000E+00  0.00000000E+00  0.00000000E+00
  0.00000000E+00  0.00000000E+00  0.00000000E+00
  0.00000000E+00  0.00000000E+00  0.00000000E+00
  0.00000000E+00  0.00000000E+00  0.00000000E+00
  0.00000000E+00  0.00000000E+00  0.00000000E+00
  0.00000000E+00  0.00000000E+00  0.00000000E+00
  0.00000000E+00  0.00000000E+00  0.00000000E+00
  0.00000000E+00  0.00000000E+00  0.00000000E+00
  0.00000000E+00  0.00000000E+00  0.00000000E+00
  0.00000000E+00  0.00000000E+00  0.00000000E+00
  0.00000000E+00  0.00000000E+00  0.00000000E+00
  0.00000000E+00  0.00000000E+00  0.00000000E+00
  0.00000000E+00  0.00000000E+00  0.00000000E+00
  0.00000000E+00  0.00000000E+00  0.00000000E+00
  0.00000000E+00  0.00000000E+00  0.00000000E+00
  0.00000000E+00  0.00000000E+00  0.00000000E+00
  0.00000000E+00  0.00000000E+00  0.00000000E+00
  0.00000000E+00  0.00000000E+00  0.00000000E+00
  0.00000000E+00  0.00000000E+00  0.00000000E+00
  0.00000000E+00  0.00000000E+00  0.00000000E+00
  0.00000000E+00  0.00000000E+00  0.00000000E+00
  0.00000000E+00  0.00000000E+00  0.00000000E+00
  0.00000000E+00  0.00000000E+00  0.00000000E+00
  0.00000000E+00  0.00000000E+00  0.00000000E+00
  0.00000000E+00  0.00000000E+00  0.00000000E+00
  0.00000000E+00  0.00000000E+00  0.00000000E+00
  0.00000000E+00  0.00000000E+00  0.00000000E+00
  0.00000000E+00  0.00000000E+00  0.00000000E+00
  0.00000000E+00  0.00000000E+00  0.00000000E+00
  0.00000000E+00  0.00000000E+00  0.00000000E+00
  0.00000000E+00  0.00000000E+00  0.00000000E+00
  0.00000000E+00  0.00000000E+00  0.00000000E+00
  0.00000000E+00  0.00000000E+00  0.00000000E+00
  0.00000000E+00  0.00000000E+00  0.00000000E+00
  0.00000000E+00  0.00000000E+00  0.00000000E+00
  0.00000000E+00  0.00000000E+00  0.00000000E+00
  0.00000000E+00  0.00000000E+00  0.00000000E+00
  0.00000000E+00  0.00000000E+00  0.00000000E+00
  0.00000000E+00  0.00000000E+00  0.00000000E+00
  0.00000000E+00  0.00000000E+00  0.00000000E+00
  0.00000000E+00  0.00000000E+00  0.00000000E+00
  0.00000000E+00  0.00000000E+00  0.00000000E+00
  0.00000000E+00  0.00000000E+00  0.00000000E+00
  0.00000000E+00  0.00000000E+00  0.00000000E+00
  0.00000000E+00  0.00000000E+00  0.00000000E+00
  0.00000000E+00  0.00000000E+00  0.00000000E+00
  0.00000000E+00  0.00000000E+00  0.00000000E+00
  0.00000000E+00  0.00000000E+00  0.00000000E+00
  0.00000000E+00  0.00000000E+00  0.00000000E+00
  0.00000000E+00  0.00000000E+00  0.00000000E+00
  0.00000000E+00  0.00000000E+00  0.00000000E+00
  0.00000000E+00  0.00000000E+00  0.00000000E+00
  0.00000000E+00  0.00000000E+00  0.00000000E+00
  0.00000000E+00  0.00000000E+00  0.00000000E+00
  0.00000000E+00  0.00000000E+00  0.00000000E+00
  0.00000000E+00  0.00000000E+00  0.00000000E+00
  0.00000000E+00  0.00000000E+00  0.00000000E+00
  0.00000000E+00  0.00000000E+00  0.00000000E+00
