SrTiFeO                                 
   1.00000000000000     
    11.1989999999999998    0.0000000000000000    0.0000000000000000
     0.0000000000000000   11.1989999999999998    0.0000000000000000
     0.0000000000000000    0.0000000000000000   15.9830000000000005
   Sr   Ti   O 
    32    32    94
Direct
  0.9998803051965203  0.2503552330155546  0.1247341024949901
  0.0032627876819484  0.2499486335881337  0.6267202335481235
  0.0024101669497507  0.7504204719113883  0.1242273025525348
  0.0020439201043703  0.7493585689563054  0.6268206490222927
  0.5001230840320339  0.2503002498867677  0.1245286187010666
  0.4959767535797116  0.2462515857884026  0.6277386064585401
  0.4978330110509790  0.7496797764361418  0.1237079673350671
  0.4977592686926445  0.7529279611309907  0.6272446275116357
  0.0040373781411415  0.2499739000960196  0.3732882318091941
  0.0001869722383907  0.2502337034624329  0.8753554216133129
  0.0071867771139664  0.7501197820439671  0.3736832062680057
  0.0011889063979186  0.7498153615428294  0.8751344182851765
  0.4950768775663144  0.2461606371681052  0.3720477839869950
  0.4999078794082416  0.2503361282631786  0.8756012203138943
  0.4925940470187019  0.7535197214369149  0.3734029015771513
  0.4989845775901874  0.7497483535646007  0.8754344924906314
  0.2496744593881201  0.0000303420799230  0.1249301721226766
  0.2497127587930665  0.9999132781638586  0.6255734341948144
  0.2508672822625035  0.5001325387609642  0.1250932831793847
  0.2478853463323676  0.4983727953685875  0.6254133083237142
  0.7497699689979197  0.0028635497234174  0.1242963152881389
  0.7492652138109235  0.0001680424751589  0.6263584064269803
  0.7508106414489356  0.4981733343943009  0.1228747498331330
  0.7514967626697573  0.4997818987005868  0.6291785993781148
  0.2496560286440078  0.0011384351753704  0.3745298218990784
  0.2497276055212329  0.0002031748409833  0.8751123870198887
  0.2481358426691752  0.4975010952955728  0.3743494053286567
  0.2506343429287556  0.4998251425640953  0.8749527012490701
  0.7479684028380875  0.0063109058611984  0.3744202281896556
  0.7503926147867769  0.0015501203582580  0.8751077897411584
  0.7518470571130279  0.4950208409945028  0.3714169876178285
  0.7505594111954712  0.4991673658114769  0.8763308500482366
  0.9994906400426855  0.9999106746799010  0.0000549304610458
  0.0010473297657522  0.9979868785389264  0.4995407485782931
  0.0002112399132032  0.5001504788743936  1.0000055043970206
  0.9991053952665611  0.5006918804708332  0.4995019508899519
  0.5000646801431383  0.9996944122285037  0.0000134086260011
  0.4989841312173259  0.9998360316482161  0.4996267695633392
  0.4999199001614477  0.5006173264867437 -0.0000159628037559
  0.2500329153942228  0.2497370240531298  0.0002052497661511
  0.2496838067594059  0.2489835730247263  0.5004249514526637
  0.2501211423209103  0.7497118657746819  0.9998229935415037
  0.2479527674579132  0.7511110910779101  0.5003808312037038
  0.7504457198459813  0.2495431072913363  0.9998306023387943
  0.7499601065881090  0.7501786186188226  0.9982750377898256
  0.2497440802645447  0.2499089051318750  0.2486077441631838
  0.2499252907641047  0.2498396365422073  0.7501498743925140
  0.2500192488835334  0.7498315325699740  0.2497625146778952
  0.2501330241932119  0.7496369125015160  0.7499684982809113
  0.7492926694673983  0.2507226021802049  0.2494250919683608
  0.7491847194269259  0.2505697264985371  0.7502249167654612
  0.7498586418156402  0.7501611635999927  0.2449560131942338
  0.7498723232051713  0.7500873428438170  0.7523298307876251
  0.9994544216062667  0.0001093283742114  0.2506571467339132
  0.9993329251315488  0.9995482277956823  0.7499586068747761
  0.0002121582173439  0.4999700952766790  0.2500546955968471
  0.9998608951575954  0.5000847637401016  0.7503416380026519
  0.4997619082755373  0.9998216103328889  0.2499156189235783
  0.5003591659459417  0.9994893262002683  0.7506628356201321
  0.5008346979033174  0.4994227586057505  0.2504429818972153
  0.5009743504193706  0.4995888361395022  0.7500541147423332
  0.7564874913848925  0.2466259271528703  0.5005547102905332
  0.4965456804318985  0.5065522335683508  0.4993633113348391
  0.7507211411373025  0.7494791098453980  0.5047656679855588
  0.1097053751642728  0.1400011312208168  0.2486121981975745
  0.1094422230016746  0.1397219002619986  0.7490224439899944
  0.1105889490806393  0.6393922366124377  0.2499114619498904
  0.1099624579945949  0.6399217047318807  0.7498087506005381
  0.6100418118017669  0.1397970631046719  0.2500965304610264
  0.6092053977716372  0.1406538992769024  0.7496901405286551
  0.6120849063558884  0.6415697081531603  0.2590572986964537
  0.6092625244905980  0.6412870569897823  0.7487301479453380
  0.3905617833169342  0.3598327355999275  0.2487014430382145
  0.3908401164910073  0.3597314780099415  0.7490439227700892
  0.3899346507463085  0.8600067908826121  0.2492719990784879
  0.3906931371591397  0.8592711820766771  0.7501510309457036
  0.8896238965203372  0.3601736610538009  0.2515397882613239
  0.8902864568761583  0.3594596638717236  0.7482881342539479
  0.8876083679758118  0.8588139584706812  0.2574482684073143
  0.8901327908843724  0.8590379230143252  0.7502642578102373
  0.3601725761865479  0.1099796137193430  0.2496987441205567
  0.3602602602276758  0.1094863491152170  0.7481155214372263
  0.3616192953165214  0.6095050359956626  0.2543516068605345
  0.3607856901287952  0.6087864214400863  0.7454883078581978
  0.8592373607475864  0.1110497716575054  0.2533520646247896
  0.8585773463268147  0.1104470621291227  0.7461401720447427
  0.8591903167387357  0.6124752465694429  0.2563505765068641
  0.8592856310346997  0.6099572236457934  0.7509596292248657
  0.1401339644827024  0.3901406592837577  0.2487812761984879
  0.1399582706322295  0.3903296033417548  0.7488592701474381
  0.1391855692676362  0.8892135477728044  0.2499359594205878
  0.1400017763449952  0.8899466394190270  0.7497701017844345
  0.6408919184107389  0.3908126414149786  0.2455252162029127
  0.6412255537995796  0.3912109871614753  0.7542266554484091
  0.6414638617132362  0.8882314508008843  0.2574289683053712
  0.6414099742689061  0.8908428192795250  0.7503227419487365
  0.3600164674488535  0.3906967064327702  0.0009333989230545
  0.3592679545710948  0.8905297325543127  0.0005428800869598
  0.3597029109501395  0.8900375081807896  0.4999389043897608
  0.8594884091095388  0.3904288360073381  0.9999492953642194
  0.8584637514919919  0.8906017607222979  0.9999000489095976
  0.8565840282680868  0.8906152267007293  0.4927285829668458
  0.1401534232759798  0.1090098454242462  0.0009415609366181
  0.1403655179289716  0.1091118545285745  0.5010753362941134
  0.1405416303311917  0.6092399829881738  0.0004603563231462
  0.1416733738029267  0.6086889822788677  0.4997730122348618
  0.6407002736867853  0.1093861404619588  0.9999506490599990
  0.6360030494941529  0.1172548398083011  0.5002394777918118
  0.6411864617032453  0.6093992710815588  0.9998275028595948
  0.1093856998420493  0.3596020070003749  0.0009094961091927
  0.1094253436287380  0.3599424695801713  0.5010102366108005
  0.1093956702555012  0.8593085051904729  0.9999638314797560
  0.1084951752346209  0.8586099801475275  0.5002827540529867
  0.6098925540979150  0.3599372551371360  0.0004148404714161
  0.6090957641763106  0.8586653974931991  0.9998668046076009
  0.6119006480140466  0.8581364706792626  0.4925971203825811
  0.3908113575638356  0.1401966698902552  0.0009205476550380
  0.3890019847446173  0.1387914840050353  0.5010252424703276
  0.3907316316095676  0.6408944886690482  0.9999948831816597
  0.8907811518524380  0.1405354630700816  0.0005314687589596
  0.8918404879675850  0.1421549801076985  0.4999442346785812
  0.8906261394618442  0.6412397183796966  0.9999047527916265
  0.9957001128746974  0.9971359854530516  0.1263190478820637
  0.9968679654640361  0.9969746500042216  0.6236219761947724
  0.9962736262071372  0.5020497104232979  0.1259255860684098
  0.9975978917760968  0.5036128192951851  0.6239334709544209
  0.5034487842347095  0.9975439011286461  0.1259014129839576
  0.5034531321910218  0.9957379546773649  0.6240814727387817
  0.5011230309030219  0.5057723260851575  0.1261961614759495
  0.5119810497625410  0.4927072724949400  0.6219199088329650
  0.0041086183808797  0.0030664261677631  0.3754730568045444
  0.9984220050985934  0.0011596388895939  0.8746414618254807
  0.0031769315741247  0.4967696611169227  0.3751578987683896
  0.0001334034895485  0.4992597894778196  0.8749564586168118
  0.4970883279990521  0.0024144281974726  0.3750139437807100
  0.4993974865598192  0.0003054082046696  0.8750308116480038
  0.4980524834768787  0.5018159688611017  0.8747067646816278
  0.2492771875134766  0.2506488374110860  0.3749727128187197
  0.2502043226738791  0.2495356286396133  0.8749193655971511
  0.2497893536445713  0.7510188557908087  0.3755280754548047
  0.2510069583135836  0.7482015410994485  0.8745814062380609
  0.7518706390224138  0.2481519330117322  0.8747346563445512
  0.7492764465565938  0.7497957060210252  0.8750976396195574
  0.2503272661803532  0.2495584306595054  0.1249711386334744
  0.2493594967847198  0.2506554616603819  0.6248316044465059
  0.2509683287626868  0.7481199562207629  0.1253926198049904
  0.2497257905269757  0.7507734028828466  0.6244601793871675
  0.7518114514525044  0.2482555966952654  0.1252014934734777
  0.7400940458750231  0.2580977305020483  0.6230248498394491
  0.7491185222145789  0.7497871747110451  0.1253544835697712
  0.7502938362299897  0.7508289622212123  0.6247242475646241
  0.7403791222425339  0.2572380791670537  0.3770862193592897
  0.8531978081370335  0.3946568818060823  0.5003223794435973
  0.3922205359288928  0.6419576559105319  0.5001844980780928
  0.5058428533585364  0.4866077664336236  0.3770855327446465
  0.3673832706123268  0.3862645163737128  0.5011675193334200
  0.8913529719350548  0.6449729949649525  0.4928653993303712
  0.6453188096004118  0.6065382742145121  0.4935716453550636
 
  0.00000000E+00  0.00000000E+00  0.00000000E+00
  0.00000000E+00  0.00000000E+00  0.00000000E+00
  0.00000000E+00  0.00000000E+00  0.00000000E+00
  0.00000000E+00  0.00000000E+00  0.00000000E+00
  0.00000000E+00  0.00000000E+00  0.00000000E+00
  0.00000000E+00  0.00000000E+00  0.00000000E+00
  0.00000000E+00  0.00000000E+00  0.00000000E+00
  0.00000000E+00  0.00000000E+00  0.00000000E+00
  0.00000000E+00  0.00000000E+00  0.00000000E+00
  0.00000000E+00  0.00000000E+00  0.00000000E+00
  0.00000000E+00  0.00000000E+00  0.00000000E+00
  0.00000000E+00  0.00000000E+00  0.00000000E+00
  0.00000000E+00  0.00000000E+00  0.00000000E+00
  0.00000000E+00  0.00000000E+00  0.00000000E+00
  0.00000000E+00  0.00000000E+00  0.00000000E+00
  0.00000000E+00  0.00000000E+00  0.00000000E+00
  0.00000000E+00  0.00000000E+00  0.00000000E+00
  0.00000000E+00  0.00000000E+00  0.00000000E+00
  0.00000000E+00  0.00000000E+00  0.00000000E+00
  0.00000000E+00  0.00000000E+00  0.00000000E+00
  0.00000000E+00  0.00000000E+00  0.00000000E+00
  0.00000000E+00  0.00000000E+00  0.00000000E+00
  0.00000000E+00  0.00000000E+00  0.00000000E+00
  0.00000000E+00  0.00000000E+00  0.00000000E+00
  0.00000000E+00  0.00000000E+00  0.00000000E+00
  0.00000000E+00  0.00000000E+00  0.00000000E+00
  0.00000000E+00  0.00000000E+00  0.00000000E+00
  0.00000000E+00  0.00000000E+00  0.00000000E+00
  0.00000000E+00  0.00000000E+00  0.00000000E+00
  0.00000000E+00  0.00000000E+00  0.00000000E+00
  0.00000000E+00  0.00000000E+00  0.00000000E+00
  0.00000000E+00  0.00000000E+00  0.00000000E+00
  0.00000000E+00  0.00000000E+00  0.00000000E+00
  0.00000000E+00  0.00000000E+00  0.00000000E+00
  0.00000000E+00  0.00000000E+00  0.00000000E+00
  0.00000000E+00  0.00000000E+00  0.00000000E+00
  0.00000000E+00  0.00000000E+00  0.00000000E+00
  0.00000000E+00  0.00000000E+00  0.00000000E+00
  0.00000000E+00  0.00000000E+00  0.00000000E+00
  0.00000000E+00  0.00000000E+00  0.00000000E+00
  0.00000000E+00  0.00000000E+00  0.00000000E+00
  0.00000000E+00  0.00000000E+00  0.00000000E+00
  0.00000000E+00  0.00000000E+00  0.00000000E+00
  0.00000000E+00  0.00000000E+00  0.00000000E+00
  0.00000000E+00  0.00000000E+00  0.00000000E+00
  0.00000000E+00  0.00000000E+00  0.00000000E+00
  0.00000000E+00  0.00000000E+00  0.00000000E+00
  0.00000000E+00  0.00000000E+00  0.00000000E+00
  0.00000000E+00  0.00000000E+00  0.00000000E+00
  0.00000000E+00  0.00000000E+00  0.00000000E+00
  0.00000000E+00  0.00000000E+00  0.00000000E+00
  0.00000000E+00  0.00000000E+00  0.00000000E+00
  0.00000000E+00  0.00000000E+00  0.00000000E+00
  0.00000000E+00  0.00000000E+00  0.00000000E+00
  0.00000000E+00  0.00000000E+00  0.00000000E+00
  0.00000000E+00  0.00000000E+00  0.00000000E+00
  0.00000000E+00  0.00000000E+00  0.00000000E+00
  0.00000000E+00  0.00000000E+00  0.00000000E+00
  0.00000000E+00  0.00000000E+00  0.00000000E+00
  0.00000000E+00  0.00000000E+00  0.00000000E+00
  0.00000000E+00  0.00000000E+00  0.00000000E+00
  0.00000000E+00  0.00000000E+00  0.00000000E+00
  0.00000000E+00  0.00000000E+00  0.00000000E+00
  0.00000000E+00  0.00000000E+00  0.00000000E+00
  0.00000000E+00  0.00000000E+00  0.00000000E+00
  0.00000000E+00  0.00000000E+00  0.00000000E+00
  0.00000000E+00  0.00000000E+00  0.00000000E+00
  0.00000000E+00  0.00000000E+00  0.00000000E+00
  0.00000000E+00  0.00000000E+00  0.00000000E+00
  0.00000000E+00  0.00000000E+00  0.00000000E+00
  0.00000000E+00  0.00000000E+00  0.00000000E+00
  0.00000000E+00  0.00000000E+00  0.00000000E+00
  0.00000000E+00  0.00000000E+00  0.00000000E+00
  0.00000000E+00  0.00000000E+00  0.00000000E+00
  0.00000000E+00  0.00000000E+00  0.00000000E+00
  0.00000000E+00  0.00000000E+00  0.00000000E+00
  0.00000000E+00  0.00000000E+00  0.00000000E+00
  0.00000000E+00  0.00000000E+00  0.00000000E+00
  0.00000000E+00  0.00000000E+00  0.00000000E+00
  0.00000000E+00  0.00000000E+00  0.00000000E+00
  0.00000000E+00  0.00000000E+00  0.00000000E+00
  0.00000000E+00  0.00000000E+00  0.00000000E+00
  0.00000000E+00  0.00000000E+00  0.00000000E+00
  0.00000000E+00  0.00000000E+00  0.00000000E+00
  0.00000000E+00  0.00000000E+00  0.00000000E+00
  0.00000000E+00  0.00000000E+00  0.00000000E+00
  0.00000000E+00  0.00000000E+00  0.00000000E+00
  0.00000000E+00  0.00000000E+00  0.00000000E+00
  0.00000000E+00  0.00000000E+00  0.00000000E+00
  0.00000000E+00  0.00000000E+00  0.00000000E+00
  0.00000000E+00  0.00000000E+00  0.00000000E+00
  0.00000000E+00  0.00000000E+00  0.00000000E+00
  0.00000000E+00  0.00000000E+00  0.00000000E+00
  0.00000000E+00  0.00000000E+00  0.00000000E+00
  0.00000000E+00  0.00000000E+00  0.00000000E+00
  0.00000000E+00  0.00000000E+00  0.00000000E+00
  0.00000000E+00  0.00000000E+00  0.00000000E+00
  0.00000000E+00  0.00000000E+00  0.00000000E+00
  0.00000000E+00  0.00000000E+00  0.00000000E+00
  0.00000000E+00  0.00000000E+00  0.00000000E+00
  0.00000000E+00  0.00000000E+00  0.00000000E+00
  0.00000000E+00  0.00000000E+00  0.00000000E+00
  0.00000000E+00  0.00000000E+00  0.00000000E+00
  0.00000000E+00  0.00000000E+00  0.00000000E+00
  0.00000000E+00  0.00000000E+00  0.00000000E+00
  0.00000000E+00  0.00000000E+00  0.00000000E+00
  0.00000000E+00  0.00000000E+00  0.00000000E+00
  0.00000000E+00  0.00000000E+00  0.00000000E+00
  0.00000000E+00  0.00000000E+00  0.00000000E+00
  0.00000000E+00  0.00000000E+00  0.00000000E+00
  0.00000000E+00  0.00000000E+00  0.00000000E+00
  0.00000000E+00  0.00000000E+00  0.00000000E+00
  0.00000000E+00  0.00000000E+00  0.00000000E+00
  0.00000000E+00  0.00000000E+00  0.00000000E+00
  0.00000000E+00  0.00000000E+00  0.00000000E+00
  0.00000000E+00  0.00000000E+00  0.00000000E+00
  0.00000000E+00  0.00000000E+00  0.00000000E+00
  0.00000000E+00  0.00000000E+00  0.00000000E+00
  0.00000000E+00  0.00000000E+00  0.00000000E+00
  0.00000000E+00  0.00000000E+00  0.00000000E+00
  0.00000000E+00  0.00000000E+00  0.00000000E+00
  0.00000000E+00  0.00000000E+00  0.00000000E+00
  0.00000000E+00  0.00000000E+00  0.00000000E+00
  0.00000000E+00  0.00000000E+00  0.00000000E+00
  0.00000000E+00  0.00000000E+00  0.00000000E+00
  0.00000000E+00  0.00000000E+00  0.00000000E+00
  0.00000000E+00  0.00000000E+00  0.00000000E+00
  0.00000000E+00  0.00000000E+00  0.00000000E+00
  0.00000000E+00  0.00000000E+00  0.00000000E+00
  0.00000000E+00  0.00000000E+00  0.00000000E+00
  0.00000000E+00  0.00000000E+00  0.00000000E+00
  0.00000000E+00  0.00000000E+00  0.00000000E+00
  0.00000000E+00  0.00000000E+00  0.00000000E+00
  0.00000000E+00  0.00000000E+00  0.00000000E+00
  0.00000000E+00  0.00000000E+00  0.00000000E+00
  0.00000000E+00  0.00000000E+00  0.00000000E+00
  0.00000000E+00  0.00000000E+00  0.00000000E+00
  0.00000000E+00  0.00000000E+00  0.00000000E+00
  0.00000000E+00  0.00000000E+00  0.00000000E+00
  0.00000000E+00  0.00000000E+00  0.00000000E+00
  0.00000000E+00  0.00000000E+00  0.00000000E+00
  0.00000000E+00  0.00000000E+00  0.00000000E+00
  0.00000000E+00  0.00000000E+00  0.00000000E+00
  0.00000000E+00  0.00000000E+00  0.00000000E+00
  0.00000000E+00  0.00000000E+00  0.00000000E+00
  0.00000000E+00  0.00000000E+00  0.00000000E+00
  0.00000000E+00  0.00000000E+00  0.00000000E+00
  0.00000000E+00  0.00000000E+00  0.00000000E+00
  0.00000000E+00  0.00000000E+00  0.00000000E+00
  0.00000000E+00  0.00000000E+00  0.00000000E+00
  0.00000000E+00  0.00000000E+00  0.00000000E+00
  0.00000000E+00  0.00000000E+00  0.00000000E+00
  0.00000000E+00  0.00000000E+00  0.00000000E+00
  0.00000000E+00  0.00000000E+00  0.00000000E+00
  0.00000000E+00  0.00000000E+00  0.00000000E+00
  0.00000000E+00  0.00000000E+00  0.00000000E+00
  0.00000000E+00  0.00000000E+00  0.00000000E+00
  0.00000000E+00  0.00000000E+00  0.00000000E+00
