SrTiFeO                                 
   1.00000000000000     
    11.1989999999999998    0.0000000000000000    0.0000000000000000
     0.0000000000000000   11.1989999999999998    0.0000000000000000
     0.0000000000000000    0.0000000000000000   15.9830000000000005
   Sr   Ti   Fe   O 
    32    31     1    94
Direct
  0.0023455077695216  0.2502826873067701  0.1239143161765945
  0.0019285466369075  0.2485231645546586  0.6255495698020368
  0.9988367073699106  0.7504714680711870  0.1254406390126417
  0.9972037470835348  0.7480445196157151  0.6227960165843436
  0.4978956584367542  0.2500479443969565  0.1248311619367066
  0.4997513483661438  0.2455767208070308  0.6265562838986586
  0.4995850578372340  0.7510488547144037  0.1238187334750118
  0.4982118105367629  0.7527228966057221  0.6291990238554381
  0.0068290271321743  0.2492251151880092  0.3746308665762104
  0.0008971000340517  0.2497839483456075  0.8752404735841587
  0.9992215018471924  0.7484063536497670  0.3763272588221089
  0.9986556150540218  0.7502549000307084  0.8744950983957755
  0.4950340486224464  0.2446390085856417  0.3750771825689704
  0.4988506236152732  0.2508656830399419  0.8749158129604314
  0.4982565025977179  0.7534047855148407  0.3714653777713927
  0.4992453839275144  0.7511377722713624  0.8766438681748040
  0.2499945620908749  0.9994370703976091  0.1250639584994239
  0.2488746219421896  0.9987498858666756  0.6259376979895226
  0.2505107493257115  0.5010996730573374  0.1247153460462519
  0.2429246342499858  0.5002814951656279  0.6274748519255066
  0.7502427939533692  0.9968571042257863  0.1244193096984099
  0.7492634259458687  0.9961445953885247  0.6253177398927556
  0.7487721295502349  0.5027173655990954  0.1236787909382843
  0.7570992081170997  0.4976196963188698  0.6297974800688327
  0.2493799457494447  0.9977644991900820  0.3743226423034435
  0.2497688114040086  0.9992028334087656  0.8749100457330546
  0.2442830756648035  0.5013971445567236  0.3722868103916193
  0.2505039076822991  0.5011843253214160  0.8756035569478311
  0.7489708521893064  0.9890037290429272  0.3764370673535303
  0.7496437581678712  0.9982439655009245  0.8752204083647683
  0.7565090968713644  0.5030517031638938  0.3711363124079082
  0.7492522216565395  0.5017295653905950  0.8758718457612936
  0.9994146551176190  0.0001215059114406  0.0000394637989897
  0.9981195304745100  0.9983869832460615  0.4994271896604413
  0.9997410759876781  0.4995577081956637  0.0000979067686837
  0.9989758949969180  0.4998941310908760  0.4992842929190852
  0.5002489559018054  0.0007957947218338  0.0000474031278233
  0.4997535961437057  0.9969326920889495  0.4997335856073531
  0.4995703276425498  0.4990845342260896  0.0001019191071200
  0.2505668912498675  0.2504417853477037  0.9998761261707778
  0.2460220529072202  0.2441102449973042  0.5005747010134163
  0.2495311050382126  0.7499141975795768  0.0002926767148191
  0.2503272866264330  0.7509816706139485  0.5005545351899067
  0.7501924651607891  0.2499189959785286  0.9984292467737111
  0.7504273110788204  0.7505921220373020  0.9997894438841365
  0.2503203490361449  0.2498722405375076  0.2499418748212666
  0.2500342684243855  0.2499666086186201  0.7499693448593485
  0.2495683143630162  0.7498829778586834  0.2493114261829121
  0.2490709591219840  0.7497323997165470  0.7498770106338560
  0.7502598233520461  0.2489940504724220  0.2452008204502884
  0.7500519707068182  0.2492469653434780  0.7524471764965343
  0.7491654219162847  0.7484999427159820  0.2508605352540551
  0.7484256915078497  0.7485841502928784  0.7484614737556061
  0.9998558141861383  0.9995641764682894  0.2509885198641311
  0.9990735654005255  0.9996593700649675  0.7495480158346002
  0.0003281747148179  0.4997228358769157  0.2495244532944443
  0.9999526254248455  0.4991890975097051  0.7511224022338739
  0.5000196599772170  0.9999841973936038  0.2500434447131090
  0.5001560510362517  0.0006507485549451  0.7505889630832249
  0.5012844110843988  0.5006990748305147  0.2505605071767084
  0.5014574026872908  0.5006741811976037  0.7501856061886818
  0.7515286554005567  0.2500211619091195  0.5044372969179526
  0.4878902209015752  0.4934489508986787  0.4993015866882050
  0.7530444019610549  0.7547123356991414  0.5008700287822736
  0.1106831678085342  0.1405306160340257  0.2479777275931977
  0.1098642353223862  0.1410938872485490  0.7514394552205833
  0.1098771941759498  0.6396362605602980  0.2487839961728703
  0.1091132663582434  0.6394869629370455  0.7485511480233499
  0.6115536910850563  0.1413376167206316  0.2566109741827061
  0.6090001280051400  0.1417404631077477  0.7512552777247886
  0.6096976293656140  0.6389093228859941  0.2427319010014650
  0.6079528980022312  0.6402278828371558  0.7572507014459232
  0.3908575533053271  0.3617241305629375  0.2557807406848065
  0.3918621489143956  0.3610235454138597  0.7438933070656464
  0.3892398880279321  0.8608353194045573  0.2480906345441954
  0.3892345186349440  0.8612565122233283  0.7498332960180433
  0.8876009184698169  0.3587970019018882  0.2587717338840190
  0.8904945010748219  0.3585556546058793  0.7489353507198195
  0.8892224820068441  0.8600853101640853  0.2533556527395045
  0.8893501617475682  0.8591262936592953  0.7454540755052850
  0.3607097127392839  0.1114190734182506  0.2497497670435764
  0.3596146548552124  0.1107283579448418  0.7497817408079683
  0.3604510392408735  0.6093755091192157  0.2507017382091009
  0.3603395750444225  0.6091007748537219  0.7468840584607828
  0.8581512159132865  0.1114543061461774  0.2585820226487004
  0.8580912312063190  0.1088237353215287  0.7499063608146213
  0.8606438802057653  0.6087315216180852  0.2470919852784172
  0.8596047341312779  0.6080728318691156  0.7518584980267182
  0.1401111042116068  0.3893563682578470  0.2491723733098669
  0.1410172878378734  0.3904138191188037  0.7511639918792502
  0.1396538846141468  0.8897655778389907  0.2480896700736935
  0.1391598729275319  0.8901415080621953  0.7495310326843815
  0.6412198528367049  0.3878481616367903  0.2575495845963997
  0.6415480670467921  0.3909807901176591  0.7503391972461507
  0.6390493190382746  0.8897662018065498  0.2497114316704600
  0.6396303662561400  0.8909094152892597  0.7500560910305003
  0.3587662633014907  0.3906949546564812  0.0004231437676948
  0.3598094067638764  0.8906507048881706  0.0007701510610694
  0.3554041439593467  0.8945338216715872  0.5013818908643765
  0.8587789326620335  0.3907234060143478  0.9999458450272983
  0.8595736243784690  0.8914483919787035  1.0000274768279651
  0.8632925457369484  0.8979528906160016  0.5001548491698439
  0.1409453911300089  0.1098572310539885  0.0003739257707128
  0.1422182193832022  0.1086980231537692  0.5002694382681158
  0.1399475189086506  0.6089385586470984  0.0008561363347498
  0.1424665018159270  0.6087902212693173  0.5009439605562961
  0.6415477958496875  0.1094028956634744  0.9999193833561512
  0.6396849598330117  0.1163474418537376  0.4912037453340693
  0.6395351434568106  0.6095926457623715  0.9999462825777138
  0.1096249607111159  0.3584845026508965  0.9998321440019001
  0.1108570279149801  0.3583843039913913  0.5001619890094169
  0.1092344329873855  0.8598967765476218  0.0009191494498386
  0.1089037620689933  0.8577549618265630  0.5010683325610958
  0.6093483916089392  0.3588983688351554  0.9997608321432760
  0.6093972362144002  0.8600978122097906  0.0003990495677344
  0.6027852868880477  0.8601583160679104  0.5007501220957375
  0.3909709024038828  0.1412719844981937  0.0001046307262790
  0.3909550592503609  0.1445125802583225  0.5007541058424325
  0.3905427130816186  0.6395948249800623  0.0008233497928136
  0.8912058110943200  0.1415281845700550  0.9998219175925173
  0.8893562874448915  0.1438466938706394  0.4924473614697921
  0.8905916835958789  0.6400359720144171  0.0004965735391931
  0.9950715354298380  0.0020349948452721  0.1261306290189728
  1.0002200653120352  0.0068529892673912  0.6245889950821327
  0.9982315967628117  0.4946064745657793  0.1254773108311581
  0.9988023871692238  0.4963039036168265  0.6248479007969034
  0.5021590997135166  0.0038056829032871  0.1256512969784072
  0.5029758904802567  0.0055972127341427  0.6248961855133168
  0.5004621833549782  0.4934514270962213  0.1261084255806015
  0.5191318028095195  0.5101071763253386  0.6196219845215770
  0.0077550771670226  0.9993605639073933  0.3746486965494900
  0.9988043019847259  0.9986525910776259  0.8747022755193761
  0.0058242106165620  0.5033981440187310  0.3740006107013674
  0.0004720617221094  0.4988828106175913  0.8753291017937666
  0.4949224894891943  0.9983082709476214  0.3745205476627233
  0.4993145449363878  0.0003802561501178  0.8753134361390442
  0.4962576819115934  0.4963793390862908  0.8746485315003034
  0.2489905785886066  0.2492627939256445  0.3753007858337582
  0.2533423823653457  0.2518396768983389  0.8746351589862309
  0.2502700702004418  0.7498568375488149  0.3752317869985531
  0.2500697038404284  0.7487103624570304  0.8748077585341589
  0.7509187495752121  0.2504395141683681  0.8750818262189961
  0.7524092905011924  0.7522921345224559  0.8758361404580226
  0.2531615694339299  0.2520708786418087  0.1253370102455050
  0.2483438106971510  0.2502717262464244  0.6249902111491517
  0.2505329435641825  0.7487584876717290  0.1250084114390478
  0.2499040164752306  0.7498486008222622  0.6247297982227490
  0.7507290297242203  0.2504504125363435  0.1254626834840603
  0.7484412628047700  0.2500716595902063  0.6244770863242833
  0.7522553731961877  0.7523872367955664  0.1239588948056214
  0.7383909759695594  0.7376426026635594  0.6280076327342710
  0.8615914348652483  0.3850950903233047  0.4914370183221916
  0.4012368312410083  0.6462379801696253  0.5012861571610583
  0.5122671084165553  0.5178147635664504  0.3787303578808187
  0.3575781386218267  0.3937424050542440  0.4997058702800697
  0.8848822706966758  0.6295410368896374  0.4993283626318116
  0.7420234966366176  0.7385024019575508  0.3717489919125448
  0.6177909399136591  0.3719320518663152  0.4923862992881302
 
  0.00000000E+00  0.00000000E+00  0.00000000E+00
  0.00000000E+00  0.00000000E+00  0.00000000E+00
  0.00000000E+00  0.00000000E+00  0.00000000E+00
  0.00000000E+00  0.00000000E+00  0.00000000E+00
  0.00000000E+00  0.00000000E+00  0.00000000E+00
  0.00000000E+00  0.00000000E+00  0.00000000E+00
  0.00000000E+00  0.00000000E+00  0.00000000E+00
  0.00000000E+00  0.00000000E+00  0.00000000E+00
  0.00000000E+00  0.00000000E+00  0.00000000E+00
  0.00000000E+00  0.00000000E+00  0.00000000E+00
  0.00000000E+00  0.00000000E+00  0.00000000E+00
  0.00000000E+00  0.00000000E+00  0.00000000E+00
  0.00000000E+00  0.00000000E+00  0.00000000E+00
  0.00000000E+00  0.00000000E+00  0.00000000E+00
  0.00000000E+00  0.00000000E+00  0.00000000E+00
  0.00000000E+00  0.00000000E+00  0.00000000E+00
  0.00000000E+00  0.00000000E+00  0.00000000E+00
  0.00000000E+00  0.00000000E+00  0.00000000E+00
  0.00000000E+00  0.00000000E+00  0.00000000E+00
  0.00000000E+00  0.00000000E+00  0.00000000E+00
  0.00000000E+00  0.00000000E+00  0.00000000E+00
  0.00000000E+00  0.00000000E+00  0.00000000E+00
  0.00000000E+00  0.00000000E+00  0.00000000E+00
  0.00000000E+00  0.00000000E+00  0.00000000E+00
  0.00000000E+00  0.00000000E+00  0.00000000E+00
  0.00000000E+00  0.00000000E+00  0.00000000E+00
  0.00000000E+00  0.00000000E+00  0.00000000E+00
  0.00000000E+00  0.00000000E+00  0.00000000E+00
  0.00000000E+00  0.00000000E+00  0.00000000E+00
  0.00000000E+00  0.00000000E+00  0.00000000E+00
  0.00000000E+00  0.00000000E+00  0.00000000E+00
  0.00000000E+00  0.00000000E+00  0.00000000E+00
  0.00000000E+00  0.00000000E+00  0.00000000E+00
  0.00000000E+00  0.00000000E+00  0.00000000E+00
  0.00000000E+00  0.00000000E+00  0.00000000E+00
  0.00000000E+00  0.00000000E+00  0.00000000E+00
  0.00000000E+00  0.00000000E+00  0.00000000E+00
  0.00000000E+00  0.00000000E+00  0.00000000E+00
  0.00000000E+00  0.00000000E+00  0.00000000E+00
  0.00000000E+00  0.00000000E+00  0.00000000E+00
  0.00000000E+00  0.00000000E+00  0.00000000E+00
  0.00000000E+00  0.00000000E+00  0.00000000E+00
  0.00000000E+00  0.00000000E+00  0.00000000E+00
  0.00000000E+00  0.00000000E+00  0.00000000E+00
  0.00000000E+00  0.00000000E+00  0.00000000E+00
  0.00000000E+00  0.00000000E+00  0.00000000E+00
  0.00000000E+00  0.00000000E+00  0.00000000E+00
  0.00000000E+00  0.00000000E+00  0.00000000E+00
  0.00000000E+00  0.00000000E+00  0.00000000E+00
  0.00000000E+00  0.00000000E+00  0.00000000E+00
  0.00000000E+00  0.00000000E+00  0.00000000E+00
  0.00000000E+00  0.00000000E+00  0.00000000E+00
  0.00000000E+00  0.00000000E+00  0.00000000E+00
  0.00000000E+00  0.00000000E+00  0.00000000E+00
  0.00000000E+00  0.00000000E+00  0.00000000E+00
  0.00000000E+00  0.00000000E+00  0.00000000E+00
  0.00000000E+00  0.00000000E+00  0.00000000E+00
  0.00000000E+00  0.00000000E+00  0.00000000E+00
  0.00000000E+00  0.00000000E+00  0.00000000E+00
  0.00000000E+00  0.00000000E+00  0.00000000E+00
  0.00000000E+00  0.00000000E+00  0.00000000E+00
  0.00000000E+00  0.00000000E+00  0.00000000E+00
  0.00000000E+00  0.00000000E+00  0.00000000E+00
  0.00000000E+00  0.00000000E+00  0.00000000E+00
  0.00000000E+00  0.00000000E+00  0.00000000E+00
  0.00000000E+00  0.00000000E+00  0.00000000E+00
  0.00000000E+00  0.00000000E+00  0.00000000E+00
  0.00000000E+00  0.00000000E+00  0.00000000E+00
  0.00000000E+00  0.00000000E+00  0.00000000E+00
  0.00000000E+00  0.00000000E+00  0.00000000E+00
  0.00000000E+00  0.00000000E+00  0.00000000E+00
  0.00000000E+00  0.00000000E+00  0.00000000E+00
  0.00000000E+00  0.00000000E+00  0.00000000E+00
  0.00000000E+00  0.00000000E+00  0.00000000E+00
  0.00000000E+00  0.00000000E+00  0.00000000E+00
  0.00000000E+00  0.00000000E+00  0.00000000E+00
  0.00000000E+00  0.00000000E+00  0.00000000E+00
  0.00000000E+00  0.00000000E+00  0.00000000E+00
  0.00000000E+00  0.00000000E+00  0.00000000E+00
  0.00000000E+00  0.00000000E+00  0.00000000E+00
  0.00000000E+00  0.00000000E+00  0.00000000E+00
  0.00000000E+00  0.00000000E+00  0.00000000E+00
  0.00000000E+00  0.00000000E+00  0.00000000E+00
  0.00000000E+00  0.00000000E+00  0.00000000E+00
  0.00000000E+00  0.00000000E+00  0.00000000E+00
  0.00000000E+00  0.00000000E+00  0.00000000E+00
  0.00000000E+00  0.00000000E+00  0.00000000E+00
  0.00000000E+00  0.00000000E+00  0.00000000E+00
  0.00000000E+00  0.00000000E+00  0.00000000E+00
  0.00000000E+00  0.00000000E+00  0.00000000E+00
  0.00000000E+00  0.00000000E+00  0.00000000E+00
  0.00000000E+00  0.00000000E+00  0.00000000E+00
  0.00000000E+00  0.00000000E+00  0.00000000E+00
  0.00000000E+00  0.00000000E+00  0.00000000E+00
  0.00000000E+00  0.00000000E+00  0.00000000E+00
  0.00000000E+00  0.00000000E+00  0.00000000E+00
  0.00000000E+00  0.00000000E+00  0.00000000E+00
  0.00000000E+00  0.00000000E+00  0.00000000E+00
  0.00000000E+00  0.00000000E+00  0.00000000E+00
  0.00000000E+00  0.00000000E+00  0.00000000E+00
  0.00000000E+00  0.00000000E+00  0.00000000E+00
  0.00000000E+00  0.00000000E+00  0.00000000E+00
  0.00000000E+00  0.00000000E+00  0.00000000E+00
  0.00000000E+00  0.00000000E+00  0.00000000E+00
  0.00000000E+00  0.00000000E+00  0.00000000E+00
  0.00000000E+00  0.00000000E+00  0.00000000E+00
  0.00000000E+00  0.00000000E+00  0.00000000E+00
  0.00000000E+00  0.00000000E+00  0.00000000E+00
  0.00000000E+00  0.00000000E+00  0.00000000E+00
  0.00000000E+00  0.00000000E+00  0.00000000E+00
  0.00000000E+00  0.00000000E+00  0.00000000E+00
  0.00000000E+00  0.00000000E+00  0.00000000E+00
  0.00000000E+00  0.00000000E+00  0.00000000E+00
  0.00000000E+00  0.00000000E+00  0.00000000E+00
  0.00000000E+00  0.00000000E+00  0.00000000E+00
  0.00000000E+00  0.00000000E+00  0.00000000E+00
  0.00000000E+00  0.00000000E+00  0.00000000E+00
  0.00000000E+00  0.00000000E+00  0.00000000E+00
  0.00000000E+00  0.00000000E+00  0.00000000E+00
  0.00000000E+00  0.00000000E+00  0.00000000E+00
  0.00000000E+00  0.00000000E+00  0.00000000E+00
  0.00000000E+00  0.00000000E+00  0.00000000E+00
  0.00000000E+00  0.00000000E+00  0.00000000E+00
  0.00000000E+00  0.00000000E+00  0.00000000E+00
  0.00000000E+00  0.00000000E+00  0.00000000E+00
  0.00000000E+00  0.00000000E+00  0.00000000E+00
  0.00000000E+00  0.00000000E+00  0.00000000E+00
  0.00000000E+00  0.00000000E+00  0.00000000E+00
  0.00000000E+00  0.00000000E+00  0.00000000E+00
  0.00000000E+00  0.00000000E+00  0.00000000E+00
  0.00000000E+00  0.00000000E+00  0.00000000E+00
  0.00000000E+00  0.00000000E+00  0.00000000E+00
  0.00000000E+00  0.00000000E+00  0.00000000E+00
  0.00000000E+00  0.00000000E+00  0.00000000E+00
  0.00000000E+00  0.00000000E+00  0.00000000E+00
  0.00000000E+00  0.00000000E+00  0.00000000E+00
  0.00000000E+00  0.00000000E+00  0.00000000E+00
  0.00000000E+00  0.00000000E+00  0.00000000E+00
  0.00000000E+00  0.00000000E+00  0.00000000E+00
  0.00000000E+00  0.00000000E+00  0.00000000E+00
  0.00000000E+00  0.00000000E+00  0.00000000E+00
  0.00000000E+00  0.00000000E+00  0.00000000E+00
  0.00000000E+00  0.00000000E+00  0.00000000E+00
  0.00000000E+00  0.00000000E+00  0.00000000E+00
  0.00000000E+00  0.00000000E+00  0.00000000E+00
  0.00000000E+00  0.00000000E+00  0.00000000E+00
  0.00000000E+00  0.00000000E+00  0.00000000E+00
  0.00000000E+00  0.00000000E+00  0.00000000E+00
  0.00000000E+00  0.00000000E+00  0.00000000E+00
  0.00000000E+00  0.00000000E+00  0.00000000E+00
  0.00000000E+00  0.00000000E+00  0.00000000E+00
  0.00000000E+00  0.00000000E+00  0.00000000E+00
  0.00000000E+00  0.00000000E+00  0.00000000E+00
  0.00000000E+00  0.00000000E+00  0.00000000E+00
  0.00000000E+00  0.00000000E+00  0.00000000E+00
  0.00000000E+00  0.00000000E+00  0.00000000E+00
  0.00000000E+00  0.00000000E+00  0.00000000E+00
  0.00000000E+00  0.00000000E+00  0.00000000E+00
