SrTiFeO                                 
   1.00000000000000     
    11.1989999999999998    0.0000000000000000    0.0000000000000000
     0.0000000000000000   11.1989999999999998    0.0000000000000000
     0.0000000000000000    0.0000000000000000   15.9830000000000005
   Sr   Ti   Fe   O 
    32    30     2    94
Direct
  0.9989370786575802  0.2502397275254248  0.1245510956943142
  0.9979084120175694  0.2432361219997188  0.6279656970007145
  0.9980548100260579  0.7498110725331146  0.1249222130986282
  0.0061463830666248  0.7552740297791496  0.6279116340215932
  0.5004696157190112  0.2507800681819193  0.1254149435689792
  0.5062028045149054  0.2453182770271635  0.6253621273134150
  0.5007578335219450  0.7499601066666798  0.1234046542393468
  0.4969688408022251  0.7525703951106106  0.6287479439227288
  0.9979084120175694  0.2432361219997188  0.3720343029992853
  0.9989370786575802  0.2502397275254248  0.8754489043056859
  0.0061463830666248  0.7552740297791496  0.3720883659784062
  0.9980548100260579  0.7498110725331146  0.8750777869013721
  0.5062028045149054  0.2453182770271635  0.3746378726865848
  0.5004696157190112  0.2507800681819193  0.8745850564310210
  0.4969688408022251  0.7525703951106106  0.3712520560772712
  0.5007578335219450  0.7499601066666798  0.8765953457606537
  0.2503007342275388  0.9998257412532107  0.1248649700642398
  0.2506440835146395  0.9987858847529683  0.6264876633923218
  0.2491959769703544  0.5002268430080195  0.1246339307452720
  0.2473100411370891  0.5040654540082169  0.6289100928852266
  0.7493120087889565  0.9984954626908307  0.1254614802385577
  0.7524892483666569  0.0054914853358526  0.6230041399200282
  0.7488130645915636  0.4995784694402185  0.1231768464136470
  0.7523701705575517  0.4902178530413357  0.6325393933615753
  0.2506440835146395  0.9987858847529683  0.3735123366076788
  0.2503007342275388  0.9998257412532107  0.8751350299357604
  0.2473100411370891  0.5040654540082169  0.3710899071147737
  0.2491959769703544  0.5002268430080195  0.8753660692547278
  0.7524892483666569  0.0054914853358526  0.3769958600799724
  0.7493120087889565  0.9984954626908307  0.8745385197614426
  0.7523701705575517  0.4902178530413357  0.3674606066384247
  0.7488130645915636  0.4995784694402185  0.8768231535863527
  0.9997949175825032  0.9995144723938385 -0.0000000000000000
  0.9987668428379112  0.0007107098628725  0.5000000000000000
  0.0002983958114754  0.4992748456720488 -0.0000000000000000
  0.0079099116171483  0.4861246809138865  0.5000000000000000
  0.5003476007742212  0.9999402728098697 -0.0000000000000000
  0.5020620654344716  0.9982711264085491  0.5000000000000000
  0.4989457124115093  0.4995184235280797 -0.0000000000000000
  0.2501715111236237  0.2506408150104862 -0.0000000000000000
  0.2513252752226770  0.2398832518226402  0.5000000000000000
  0.2495346092899222  0.7500590778695668 -0.0000000000000000
  0.2508499148948152  0.7537695159435661  0.5000000000000000
  0.7502399522964963  0.2492885056404721 -0.0000000000000000
  0.7499111661763396  0.7509458765947009 -0.0000000000000000
  0.2508605182738917  0.2501163550676345  0.2506835213221249
  0.2508605182738917  0.2501163550676345  0.7493164786778752
  0.2505515981687270  0.7500658130666706  0.2485901286141783
  0.2505515981687270  0.7500658130666706  0.7514098713858214
  0.7500929646122426  0.2487852480994488  0.2500905072006868
  0.7500929646122426  0.2487852480994488  0.7499094927993054
  0.7502520177041655  0.7474374747651252  0.2530692668914759
  0.7502520177041655  0.7474374747651252  0.7469307331085241
  0.0002346934313273  0.9997674071919771  0.2495308236892678
  0.0002346934313273  0.9997674071919771  0.7504691763107322
  0.9994594941382121  0.5008185440417664  0.2493122658097730
  0.9994594941382121  0.5008185440417664  0.7506877341902271
  0.5008154455610324  0.9995953609413828  0.2500961775132922
  0.5008154455610324  0.9995953609413828  0.7499038224867077
  0.5004624394666267  0.5008709612204741  0.2497888715652083
  0.5004624394666267  0.5008709612204741  0.7502111284347915
  0.4847563894432678  0.4909778681159788  0.5000000000000000
  0.7501851639582091  0.2525890107325064  0.5000000000000000
  0.7459855040104222  0.7620509732757108  0.5000000000000000
  0.1104385747920322  0.1403680866740220  0.2478303412968595
  0.1104385747920322  0.1403680866740220  0.7521696587031406
  0.1099762332990547  0.6400938915340734  0.2497136167499240
  0.1099762332990547  0.6400938915340734  0.7502863832500759
  0.6102973747878535  0.1388230261614397  0.2487880245122422
  0.6102973747878535  0.1388230261614397  0.7512119754877576
  0.6091430054640364  0.6402416728611926  0.2460509139074694
  0.6091430054640364  0.6402416728611926  0.7539490860925306
  0.3906422707150726  0.3613915223012080  0.2558768991115652
  0.3906422707150726  0.3613915223012080  0.7441231008884347
  0.3898894321610602  0.8600069422140840  0.2487096551901020
  0.3898894321610602  0.8600069422140840  0.7512903448098979
  0.8903047997235962  0.3608905447736998  0.2521390840964139
  0.8903047997235962  0.3608905447736998  0.7478609159035862
  0.8895198390894455  0.8584799078206355  0.2546082126391320
  0.8895198390894455  0.8584799078206355  0.7453917873608681
  0.3601980305653386  0.1106614891646806  0.2483729650456403
  0.3601980305653386  0.1106614891646806  0.7516270349543599
  0.3595319024512612  0.6092564477787300  0.2505078492625170
  0.3595319024512612  0.6092564477787300  0.7494921507374830
  0.8605678557035789  0.1092059257209514  0.2497640229715408
  0.8605678557035789  0.1092059257209514  0.7502359770284595
  0.8597020787600366  0.6084560651719826  0.2441977344365442
  0.8597020787600366  0.6084560651719826  0.7558022655634555
  0.1391608648349272  0.3910439805723914  0.2542292207649467
  0.1391608648349272  0.3910439805723914  0.7457707792350533
  0.1395447588444857  0.8890626129864541  0.2505317829875077
  0.1395447588444857  0.8890626129864541  0.7494682170124922
  0.6385778272822596  0.3892207590262121  0.2485349474303813
  0.6385778272822596  0.3892207590262121  0.7514650525696189
  0.6411484811271493  0.8881453908973581  0.2571217492576445
  0.6411484811271493  0.8881453908973581  0.7428782507423558
  0.3586677932758226  0.3909970743514082 -0.0000000000000000
  0.3593328778402141  0.8908566329668504 -0.0000000000000000
  0.3532986698053865  0.8958956807542752  0.5000000000000000
  0.8599242733620940  0.3906157121138206 -0.0000000000000000
  0.8593007848673910  0.8908135735310224 -0.0000000000000000
  0.8704382614454117  0.8881257887647800  0.5000000000000000
  0.1412157414043987  0.1095429949991677 -0.0000000000000000
  0.1459800312141903  0.1059547570463468  0.5000000000000000
  0.1402369599905780  0.6089615203109460 -0.0000000000000000
  0.1320768667342330  0.6133767106502784  0.5000000000000000
  0.6408069644171510  0.1091554346987513 -0.0000000000000000
  0.6389102907003720  0.1084520886161936  0.5000000000000000
  0.6395849237994885  0.6100286795160020 -0.0000000000000000
  0.1093372965455420  0.3583176071729691 -0.0000000000000000
  0.1034970890932261  0.3521837368251581  0.5000000000000000
  0.1091312042400786  0.8590528769044705 -0.0000000000000000
  0.1114852818205722  0.8594864361872214  0.5000000000000000
  0.6093994822104875  0.3597934021563984 -0.0000000000000000
  0.6091960508367957  0.8593052747952084 -0.0000000000000000
  0.5949862602493236  0.8545075980442858  0.5000000000000000
  0.3907535275151445  0.1406891025921458 -0.0000000000000000
  0.3940247779061942  0.1472309289318763  0.5000000000000000
  0.3903631718097654  0.6404161316486071 -0.0000000000000000
  0.8915402401507386  0.1402571812278364 -0.0000000000000000
  0.8941352385996747  0.1425482603609481  0.5000000000000000
  0.8899528482263831  0.6398390141159948 -0.0000000000000000
  0.9991485553393386  0.9972457622090080  0.1252490373627781
  0.0033308329443022  0.0033271000707887  0.6257472265809866
  0.0025894328255191  0.4972213171594302  0.1251467874650545
  0.9926853508012774  0.5134237981663339  0.6221082097866346
  0.5025948705065976  0.9975536618440835  0.1253298040583512
  0.4960012588365899  0.0028813826452357  0.6255302871301335
  0.4973161565773636  0.4978457524191433  0.1253523148030378
  0.5098342548601368  0.5124792031352052  0.6216675582770390
  0.0033308329443022  0.0033271000707887  0.3742527734190129
  0.9991485553393386  0.9972457622090080  0.8747509626372221
  0.9926853508012774  0.5134237981663339  0.3778917902133660
  0.0025894328255191  0.4972213171594302  0.8748532125349454
  0.4960012588365899  0.0028813826452357  0.3744697128698667
  0.5025948705065976  0.9975536618440835  0.8746701959416419
  0.4973161565773636  0.4978457524191433  0.8746476851969625
  0.2485126932520790  0.2479291177457142  0.3758963312786799
  0.2515126727693622  0.2543926366678048  0.8741667911093252
  0.2507515147285165  0.7489087668846992  0.3747322516311075
  0.2498230273820359  0.7496032163844212  0.8751939843102267
  0.7515118006025162  0.2504292012086101  0.8752352517383277
  0.7499085501915601  0.7541172571681249  0.8743522251066785
  0.2515126727693622  0.2543926366678048  0.1258332088906745
  0.2485126932520790  0.2479291177457142  0.6241036687213204
  0.2498230273820359  0.7496032163844212  0.1248060156897732
  0.2507515147285165  0.7489087668846992  0.6252677483688921
  0.7515118006025162  0.2504292012086101  0.1247647482616723
  0.7495682870133068  0.2497845132577457  0.6265847571949162
  0.7499085501915601  0.7541172571681249  0.1256477748933212
  0.7528544034885659  0.7238736205549630  0.6205965592464356
  0.7495682870133068  0.2497845132577457  0.3734152428050835
  0.8532819850847285  0.4111233423698544  0.5000000000000000
  0.3974078201731234  0.6453991562628500  0.5000000000000000
  0.5098342548601368  0.5124792031352052  0.3783324417229611
  0.3494075414693591  0.3963476544461818  0.5000000000000000
  0.7528544034885659  0.7238736205549630  0.3794034407535644
  0.6088462732136640  0.3717687611846683  0.5000000000000000
 
  0.00000000E+00  0.00000000E+00  0.00000000E+00
  0.00000000E+00  0.00000000E+00  0.00000000E+00
  0.00000000E+00  0.00000000E+00  0.00000000E+00
  0.00000000E+00  0.00000000E+00  0.00000000E+00
  0.00000000E+00  0.00000000E+00  0.00000000E+00
  0.00000000E+00  0.00000000E+00  0.00000000E+00
  0.00000000E+00  0.00000000E+00  0.00000000E+00
  0.00000000E+00  0.00000000E+00  0.00000000E+00
  0.00000000E+00  0.00000000E+00  0.00000000E+00
  0.00000000E+00  0.00000000E+00  0.00000000E+00
  0.00000000E+00  0.00000000E+00  0.00000000E+00
  0.00000000E+00  0.00000000E+00  0.00000000E+00
  0.00000000E+00  0.00000000E+00  0.00000000E+00
  0.00000000E+00  0.00000000E+00  0.00000000E+00
  0.00000000E+00  0.00000000E+00  0.00000000E+00
  0.00000000E+00  0.00000000E+00  0.00000000E+00
  0.00000000E+00  0.00000000E+00  0.00000000E+00
  0.00000000E+00  0.00000000E+00  0.00000000E+00
  0.00000000E+00  0.00000000E+00  0.00000000E+00
  0.00000000E+00  0.00000000E+00  0.00000000E+00
  0.00000000E+00  0.00000000E+00  0.00000000E+00
  0.00000000E+00  0.00000000E+00  0.00000000E+00
  0.00000000E+00  0.00000000E+00  0.00000000E+00
  0.00000000E+00  0.00000000E+00  0.00000000E+00
  0.00000000E+00  0.00000000E+00  0.00000000E+00
  0.00000000E+00  0.00000000E+00  0.00000000E+00
  0.00000000E+00  0.00000000E+00  0.00000000E+00
  0.00000000E+00  0.00000000E+00  0.00000000E+00
  0.00000000E+00  0.00000000E+00  0.00000000E+00
  0.00000000E+00  0.00000000E+00  0.00000000E+00
  0.00000000E+00  0.00000000E+00  0.00000000E+00
  0.00000000E+00  0.00000000E+00  0.00000000E+00
  0.00000000E+00  0.00000000E+00  0.00000000E+00
  0.00000000E+00  0.00000000E+00  0.00000000E+00
  0.00000000E+00  0.00000000E+00  0.00000000E+00
  0.00000000E+00  0.00000000E+00  0.00000000E+00
  0.00000000E+00  0.00000000E+00  0.00000000E+00
  0.00000000E+00  0.00000000E+00  0.00000000E+00
  0.00000000E+00  0.00000000E+00  0.00000000E+00
  0.00000000E+00  0.00000000E+00  0.00000000E+00
  0.00000000E+00  0.00000000E+00  0.00000000E+00
  0.00000000E+00  0.00000000E+00  0.00000000E+00
  0.00000000E+00  0.00000000E+00  0.00000000E+00
  0.00000000E+00  0.00000000E+00  0.00000000E+00
  0.00000000E+00  0.00000000E+00  0.00000000E+00
  0.00000000E+00  0.00000000E+00  0.00000000E+00
  0.00000000E+00  0.00000000E+00  0.00000000E+00
  0.00000000E+00  0.00000000E+00  0.00000000E+00
  0.00000000E+00  0.00000000E+00  0.00000000E+00
  0.00000000E+00  0.00000000E+00  0.00000000E+00
  0.00000000E+00  0.00000000E+00  0.00000000E+00
  0.00000000E+00  0.00000000E+00  0.00000000E+00
  0.00000000E+00  0.00000000E+00  0.00000000E+00
  0.00000000E+00  0.00000000E+00  0.00000000E+00
  0.00000000E+00  0.00000000E+00  0.00000000E+00
  0.00000000E+00  0.00000000E+00  0.00000000E+00
  0.00000000E+00  0.00000000E+00  0.00000000E+00
  0.00000000E+00  0.00000000E+00  0.00000000E+00
  0.00000000E+00  0.00000000E+00  0.00000000E+00
  0.00000000E+00  0.00000000E+00  0.00000000E+00
  0.00000000E+00  0.00000000E+00  0.00000000E+00
  0.00000000E+00  0.00000000E+00  0.00000000E+00
  0.00000000E+00  0.00000000E+00  0.00000000E+00
  0.00000000E+00  0.00000000E+00  0.00000000E+00
  0.00000000E+00  0.00000000E+00  0.00000000E+00
  0.00000000E+00  0.00000000E+00  0.00000000E+00
  0.00000000E+00  0.00000000E+00  0.00000000E+00
  0.00000000E+00  0.00000000E+00  0.00000000E+00
  0.00000000E+00  0.00000000E+00  0.00000000E+00
  0.00000000E+00  0.00000000E+00  0.00000000E+00
  0.00000000E+00  0.00000000E+00  0.00000000E+00
  0.00000000E+00  0.00000000E+00  0.00000000E+00
  0.00000000E+00  0.00000000E+00  0.00000000E+00
  0.00000000E+00  0.00000000E+00  0.00000000E+00
  0.00000000E+00  0.00000000E+00  0.00000000E+00
  0.00000000E+00  0.00000000E+00  0.00000000E+00
  0.00000000E+00  0.00000000E+00  0.00000000E+00
  0.00000000E+00  0.00000000E+00  0.00000000E+00
  0.00000000E+00  0.00000000E+00  0.00000000E+00
  0.00000000E+00  0.00000000E+00  0.00000000E+00
  0.00000000E+00  0.00000000E+00  0.00000000E+00
  0.00000000E+00  0.00000000E+00  0.00000000E+00
  0.00000000E+00  0.00000000E+00  0.00000000E+00
  0.00000000E+00  0.00000000E+00  0.00000000E+00
  0.00000000E+00  0.00000000E+00  0.00000000E+00
  0.00000000E+00  0.00000000E+00  0.00000000E+00
  0.00000000E+00  0.00000000E+00  0.00000000E+00
  0.00000000E+00  0.00000000E+00  0.00000000E+00
  0.00000000E+00  0.00000000E+00  0.00000000E+00
  0.00000000E+00  0.00000000E+00  0.00000000E+00
  0.00000000E+00  0.00000000E+00  0.00000000E+00
  0.00000000E+00  0.00000000E+00  0.00000000E+00
  0.00000000E+00  0.00000000E+00  0.00000000E+00
  0.00000000E+00  0.00000000E+00  0.00000000E+00
  0.00000000E+00  0.00000000E+00  0.00000000E+00
  0.00000000E+00  0.00000000E+00  0.00000000E+00
  0.00000000E+00  0.00000000E+00  0.00000000E+00
  0.00000000E+00  0.00000000E+00  0.00000000E+00
  0.00000000E+00  0.00000000E+00  0.00000000E+00
  0.00000000E+00  0.00000000E+00  0.00000000E+00
  0.00000000E+00  0.00000000E+00  0.00000000E+00
  0.00000000E+00  0.00000000E+00  0.00000000E+00
  0.00000000E+00  0.00000000E+00  0.00000000E+00
  0.00000000E+00  0.00000000E+00  0.00000000E+00
  0.00000000E+00  0.00000000E+00  0.00000000E+00
  0.00000000E+00  0.00000000E+00  0.00000000E+00
  0.00000000E+00  0.00000000E+00  0.00000000E+00
  0.00000000E+00  0.00000000E+00  0.00000000E+00
  0.00000000E+00  0.00000000E+00  0.00000000E+00
  0.00000000E+00  0.00000000E+00  0.00000000E+00
  0.00000000E+00  0.00000000E+00  0.00000000E+00
  0.00000000E+00  0.00000000E+00  0.00000000E+00
  0.00000000E+00  0.00000000E+00  0.00000000E+00
  0.00000000E+00  0.00000000E+00  0.00000000E+00
  0.00000000E+00  0.00000000E+00  0.00000000E+00
  0.00000000E+00  0.00000000E+00  0.00000000E+00
  0.00000000E+00  0.00000000E+00  0.00000000E+00
  0.00000000E+00  0.00000000E+00  0.00000000E+00
  0.00000000E+00  0.00000000E+00  0.00000000E+00
  0.00000000E+00  0.00000000E+00  0.00000000E+00
  0.00000000E+00  0.00000000E+00  0.00000000E+00
  0.00000000E+00  0.00000000E+00  0.00000000E+00
  0.00000000E+00  0.00000000E+00  0.00000000E+00
  0.00000000E+00  0.00000000E+00  0.00000000E+00
  0.00000000E+00  0.00000000E+00  0.00000000E+00
  0.00000000E+00  0.00000000E+00  0.00000000E+00
  0.00000000E+00  0.00000000E+00  0.00000000E+00
  0.00000000E+00  0.00000000E+00  0.00000000E+00
  0.00000000E+00  0.00000000E+00  0.00000000E+00
  0.00000000E+00  0.00000000E+00  0.00000000E+00
  0.00000000E+00  0.00000000E+00  0.00000000E+00
  0.00000000E+00  0.00000000E+00  0.00000000E+00
  0.00000000E+00  0.00000000E+00  0.00000000E+00
  0.00000000E+00  0.00000000E+00  0.00000000E+00
  0.00000000E+00  0.00000000E+00  0.00000000E+00
  0.00000000E+00  0.00000000E+00  0.00000000E+00
  0.00000000E+00  0.00000000E+00  0.00000000E+00
  0.00000000E+00  0.00000000E+00  0.00000000E+00
  0.00000000E+00  0.00000000E+00  0.00000000E+00
  0.00000000E+00  0.00000000E+00  0.00000000E+00
  0.00000000E+00  0.00000000E+00  0.00000000E+00
  0.00000000E+00  0.00000000E+00  0.00000000E+00
  0.00000000E+00  0.00000000E+00  0.00000000E+00
  0.00000000E+00  0.00000000E+00  0.00000000E+00
  0.00000000E+00  0.00000000E+00  0.00000000E+00
  0.00000000E+00  0.00000000E+00  0.00000000E+00
  0.00000000E+00  0.00000000E+00  0.00000000E+00
  0.00000000E+00  0.00000000E+00  0.00000000E+00
  0.00000000E+00  0.00000000E+00  0.00000000E+00
  0.00000000E+00  0.00000000E+00  0.00000000E+00
  0.00000000E+00  0.00000000E+00  0.00000000E+00
  0.00000000E+00  0.00000000E+00  0.00000000E+00
  0.00000000E+00  0.00000000E+00  0.00000000E+00
  0.00000000E+00  0.00000000E+00  0.00000000E+00
  0.00000000E+00  0.00000000E+00  0.00000000E+00
  0.00000000E+00  0.00000000E+00  0.00000000E+00
  0.00000000E+00  0.00000000E+00  0.00000000E+00
  0.00000000E+00  0.00000000E+00  0.00000000E+00
