SrTiFeO                                 
   1.00000000000000     
    11.1989999999999998    0.0000000000000000    0.0000000000000000
     0.0000000000000000   11.1989999999999998    0.0000000000000000
     0.0000000000000000    0.0000000000000000   15.9830000000000005
   Sr   Ti   Fe   O 
    32    31     1    94
Direct
  0.0005652832899877  0.2492176640759280  0.1235888481825573
  0.0036870778644119  0.2462384526152505  0.6281127902068351
  0.9992384258376664  0.7492444205060250  0.1258011604342268
  0.0036690510848585  0.7502422527253431  0.6260095319748161
  0.5004329480720807  0.2512707100549803  0.1256933411684457
  0.4995309493105027  0.2521537609705555  0.6242631748089131
  0.4989476596069136  0.7499480836731458  0.1237492934913904
  0.4979301285030563  0.7513236516973043  0.6278319005029946
  0.0036870778644119  0.2462384526152505  0.3718872097931645
  0.0005652832899877  0.2492176640759280  0.8764111518174419
  0.0036690510848585  0.7502422527253431  0.3739904680251832
  0.9992384258376664  0.7492444205060250  0.8741988395657733
  0.4995309493105027  0.2521537609705555  0.3757368251910868
  0.5004329480720807  0.2512707100549803  0.8743066588315554
  0.4979301285030563  0.7513236516973043  0.3721680994970061
  0.4989476596069136  0.7499480836731458  0.8762507065086096
  0.2493987567349964  0.0002014718378705  0.1250598548194136
  0.2490429737915518  0.0014612159641783  0.6258884520494095
  0.2511190910968428  0.5000417087765923  0.1248312048529511
  0.2554509351311265  0.5006104657325987  0.6248308693357809
  0.7495087270580237  0.9992023863293737  0.1246662462138363
  0.7492296571006233  0.0011620075993537  0.6260267903044758
  0.7494447767947875  0.5001030266836299  0.1240461540427027
  0.7515801043714428  0.4965735434805272  0.6304604436850969
  0.2490429737915518  0.0014612159641783  0.3741115479505898
  0.2493987567349964  0.0002014718378705  0.8749401451805873
  0.2554509351311265  0.5006104657325987  0.3751691306642188
  0.2511190910968428  0.5000417087765923  0.8751687951470495
  0.7492296571006233  0.0011620075993537  0.3739732096955230
  0.7495087270580237  0.9992023863293737  0.8753337537861637
  0.7515801043714428  0.4965735434805272  0.3695395563149028
  0.7494447767947875  0.5001030266836299  0.8759538459572976
  0.9992647875683067  0.9990089638221766 -0.0000000000000000
  0.0015385082213258  0.0013166892454714  0.5000000000000000
  0.0004700377789096  0.5000281300666881 -0.0000000000000000
  0.0055347683672908  0.4987882795304023  0.5000000000000000
  0.5001293794855355  0.0004562617305297 -0.0000000000000000
  0.4975303821398260  0.9979703791924891  0.5000000000000000
  0.4994130655699394  0.4995931107866070 -0.0000000000000000
  0.2505958448758933  0.2503851575430061 -0.0000000000000000
  0.2507644721434424  0.2497878773991023  0.5000000000000000
  0.2491296389490545  0.7496611736344025 -0.0000000000000000
  0.2536670990742646  0.7526864555704156  0.5000000000000000
  0.7497436775988076  0.2491837004170502 -0.0000000000000000
  0.7501869877227515  0.7504907990135230 -0.0000000000000000
  0.2505718519802057  0.2503648473514294  0.2499555559601210
  0.2505718519802057  0.2503648473514294  0.7500444440398792
  0.2498425473313230  0.7499221168473661  0.2499390876995811
  0.2498425473313230  0.7499221168473661  0.7500609123004189
  0.7512296127448053  0.2497942586706305  0.2492373441980212
  0.7512296127448053  0.2497942586706305  0.7507626558019787
  0.7490075111589806  0.7487245140249036  0.2499700426780743
  0.7490075111589806  0.7487245140249036  0.7500299573219252
  0.9994769053482302  0.9992456344342161  0.2499699796459366
  0.9994769053482302  0.9992456344342161  0.7500300203540629
  0.0003511064081247  0.4987544052033966  0.2496834301137675
  0.0003511064081247  0.4987544052033966  0.7503165698862327
  0.4999539324680434  0.0009324576233969  0.2501535961061351
  0.4999539324680434  0.0009324576233969  0.7498464038938578
  0.5013967802032040  0.5007947191633655  0.2511477764234636
  0.5013967802032040  0.5007947191633655  0.7488522235765359
  0.7497246967679596  0.2471355232634332  0.5000000000000000
  0.7559538066175374  0.7523771102091641  0.5000000000000000
  0.4996863673766159  0.4968447866538178  0.5000000000000000
  0.1101086632007080  0.1391356624620503  0.2471795933375267
  0.1101086632007080  0.1391356624620503  0.7528204066624729
  0.1089661438758008  0.6393489824157343  0.2529754653240994
  0.1089661438758008  0.6393489824157343  0.7470245346759007
  0.6103885458400516  0.1412061088354362  0.2534955617667413
  0.6103885458400516  0.1412061088354362  0.7465044382332591
  0.6096858254684669  0.6408057122254960  0.2436589340668786
  0.6096858254684669  0.6408057122254960  0.7563410659331212
  0.3909294576721257  0.3602834946245761  0.2534604864640071
  0.3909294576721257  0.3602834946245761  0.7465395135359926
  0.3894985632154747  0.8606243160984195  0.2490486091699335
  0.3894985632154747  0.8606243160984195  0.7509513908300667
  0.8910376415194841  0.3588679905803127  0.2460654567401390
  0.8910376415194841  0.3588679905803127  0.7539345432598610
  0.8889001007260954  0.8582168300547184  0.2549588233130218
  0.8889001007260954  0.8582168300547184  0.7450411766869790
  0.3603428875404537  0.1106014953045413  0.2486727678054221
  0.3603428875404537  0.1106014953045413  0.7513272321945779
  0.3595925792870351  0.6104276308597534  0.2505582402639358
  0.3595925792870351  0.6104276308597534  0.7494417597360709
  0.8591653153371708  0.1084159075655072  0.2495794952209029
  0.8591653153371708  0.1084159075655072  0.7504205047790967
  0.8600838845329077  0.6092125312437621  0.2485737914295862
  0.8600838845329077  0.6092125312437621  0.7514262085704150
  0.1412639386629722  0.3907265297976379  0.2502996275737116
  0.1412639386629722  0.3907265297976379  0.7497003724262880
  0.1386171032210503  0.8890918263591850  0.2491375510620450
  0.1386171032210503  0.8890918263591850  0.7508624489379625
  0.6412704457981191  0.3894163118511451  0.2474538530117962
  0.6412704457981191  0.3894163118511451  0.7525461469882035
  0.6401764515801029  0.8901890098637097  0.2520508795524529
  0.6401764515801029  0.8901890098637097  0.7479491204475458
  0.3586981142957977  0.3904817937350802 -0.0000000000000000
  0.3592385367578572  0.8907133177588632 -0.0000000000000000
  0.3521374816586887  0.8987739819318613  0.5000000000000000
  0.8597745945583377  0.3900819997026355 -0.0000000000000000
  0.8586329988950500  0.8911639474067405 -0.0000000000000000
  0.8557883797170748  0.8996441244163275  0.5000000000000000
  0.1402587923585963  0.1090529736475324 -0.0000000000000000
  0.1434762770099418  0.1051730654673593  0.5000000000000000
  0.1410838069587911  0.6088818194059770 -0.0000000000000000
  0.1357003945138146  0.6111645215491046  0.5000000000000000
  0.6409489918776595  0.1085602308369427 -0.0000000000000000
  0.6379353481565302  0.1169919632075265  0.5000000000000000
  0.6403731010871864  0.6100847035159264 -0.0000000000000000
  0.1092400355183864  0.3588599014779266 -0.0000000000000000
  0.0992999924828105  0.3526316389604303  0.5000000000000000
  0.1088115068490642  0.8587191190445890 -0.0000000000000000
  0.1032289199886969  0.8568909657971917  0.5000000000000000
  0.6098855178477210  0.3591220847717672 -0.0000000000000000
  0.6089472380225939  0.8592300794288596 -0.0000000000000000
  0.6035062799777763  0.8616704110210573  0.5000000000000000
  0.3909710575103768  0.1406064840724396 -0.0000000000000000
  0.3927406989653337  0.1452520108018998  0.5000000000000000
  0.3901484603411853  0.6409873977156377 -0.0000000000000000
  0.8911182676703281  0.1403131598156102 -0.0000000000000000
  0.8963519091581404  0.1490568873006984  0.5000000000000000
  0.8904890302975965  0.6404661091145489 -0.0000000000000000
  0.9976021514401912  0.9969874057797926  0.1250748676242403
  0.0008599274004755  0.0019248854110254  0.6256193352586259
  0.0019271345680244  0.5010765964375252  0.1248264972308924
  0.9929468947264539  0.4916036998824908  0.6242274991732846
  0.5020862198410398  0.0008416513144917  0.1253478248669547
  0.4977601147110963  0.0020183334867503  0.6250819153434620
  0.4975406981703488  0.4980501861846901  0.1242849302529055
  0.5105917928189588  0.5075171895849577  0.6268399496579889
  0.0008599274004755  0.0019248854110254  0.3743806647413734
  0.9976021514401912  0.9969874057797926  0.8749251323757600
  0.9929468947264539  0.4916036998824908  0.3757725008267143
  0.0019271345680244  0.5010765964375252  0.8751735027691068
  0.4977601147110963  0.0020183334867503  0.3749180846565383
  0.5020862198410398  0.0008416513144917  0.8746521751330448
  0.4975406981703488  0.4980501861846901  0.8757150697470940
  0.2474453433364821  0.2474248561260320  0.3740599502783349
  0.2514398791232401  0.2515324013548327  0.8750838791059553
  0.2478393561933504  0.7524985735527365  0.3745290691552429
  0.2485523601047922  0.7488271193682416  0.8748720947954124
  0.7491926006163606  0.2470812893593343  0.8753849830337123
  0.7522480301606612  0.7530571764177532  0.8750415605588729
  0.2514398791232401  0.2515324013548327  0.1249161208940458
  0.2474453433364821  0.2474248561260320  0.6259400497216637
  0.2485523601047922  0.7488271193682416  0.1251279052045884
  0.2478393561933504  0.7524985735527365  0.6254709308447559
  0.7491926006163606  0.2470812893593343  0.1246150169662882
  0.7589639031139982  0.2556079016254711  0.6248427927724637
  0.7522480301606612  0.7530571764177532  0.1249584394411264
  0.7398724794830774  0.7365198647688204  0.6239183813241099
  0.7589639031139982  0.2556079016254711  0.3751572072275370
  0.3896313726960670  0.6514057949884755  0.5000000000000000
  0.5105917928189588  0.5075171895849577  0.3731600503420109
  0.3495998079950288  0.3891197722166407  0.5000000000000000
  0.8647602269280975  0.6093734333261944  0.5000000000000000
  0.7398724794830774  0.7365198647688204  0.3760816186758898
  0.6488828864912859  0.3864774158092925  0.5000000000000000
 
  0.00000000E+00  0.00000000E+00  0.00000000E+00
  0.00000000E+00  0.00000000E+00  0.00000000E+00
  0.00000000E+00  0.00000000E+00  0.00000000E+00
  0.00000000E+00  0.00000000E+00  0.00000000E+00
  0.00000000E+00  0.00000000E+00  0.00000000E+00
  0.00000000E+00  0.00000000E+00  0.00000000E+00
  0.00000000E+00  0.00000000E+00  0.00000000E+00
  0.00000000E+00  0.00000000E+00  0.00000000E+00
  0.00000000E+00  0.00000000E+00  0.00000000E+00
  0.00000000E+00  0.00000000E+00  0.00000000E+00
  0.00000000E+00  0.00000000E+00  0.00000000E+00
  0.00000000E+00  0.00000000E+00  0.00000000E+00
  0.00000000E+00  0.00000000E+00  0.00000000E+00
  0.00000000E+00  0.00000000E+00  0.00000000E+00
  0.00000000E+00  0.00000000E+00  0.00000000E+00
  0.00000000E+00  0.00000000E+00  0.00000000E+00
  0.00000000E+00  0.00000000E+00  0.00000000E+00
  0.00000000E+00  0.00000000E+00  0.00000000E+00
  0.00000000E+00  0.00000000E+00  0.00000000E+00
  0.00000000E+00  0.00000000E+00  0.00000000E+00
  0.00000000E+00  0.00000000E+00  0.00000000E+00
  0.00000000E+00  0.00000000E+00  0.00000000E+00
  0.00000000E+00  0.00000000E+00  0.00000000E+00
  0.00000000E+00  0.00000000E+00  0.00000000E+00
  0.00000000E+00  0.00000000E+00  0.00000000E+00
  0.00000000E+00  0.00000000E+00  0.00000000E+00
  0.00000000E+00  0.00000000E+00  0.00000000E+00
  0.00000000E+00  0.00000000E+00  0.00000000E+00
  0.00000000E+00  0.00000000E+00  0.00000000E+00
  0.00000000E+00  0.00000000E+00  0.00000000E+00
  0.00000000E+00  0.00000000E+00  0.00000000E+00
  0.00000000E+00  0.00000000E+00  0.00000000E+00
  0.00000000E+00  0.00000000E+00  0.00000000E+00
  0.00000000E+00  0.00000000E+00  0.00000000E+00
  0.00000000E+00  0.00000000E+00  0.00000000E+00
  0.00000000E+00  0.00000000E+00  0.00000000E+00
  0.00000000E+00  0.00000000E+00  0.00000000E+00
  0.00000000E+00  0.00000000E+00  0.00000000E+00
  0.00000000E+00  0.00000000E+00  0.00000000E+00
  0.00000000E+00  0.00000000E+00  0.00000000E+00
  0.00000000E+00  0.00000000E+00  0.00000000E+00
  0.00000000E+00  0.00000000E+00  0.00000000E+00
  0.00000000E+00  0.00000000E+00  0.00000000E+00
  0.00000000E+00  0.00000000E+00  0.00000000E+00
  0.00000000E+00  0.00000000E+00  0.00000000E+00
  0.00000000E+00  0.00000000E+00  0.00000000E+00
  0.00000000E+00  0.00000000E+00  0.00000000E+00
  0.00000000E+00  0.00000000E+00  0.00000000E+00
  0.00000000E+00  0.00000000E+00  0.00000000E+00
  0.00000000E+00  0.00000000E+00  0.00000000E+00
  0.00000000E+00  0.00000000E+00  0.00000000E+00
  0.00000000E+00  0.00000000E+00  0.00000000E+00
  0.00000000E+00  0.00000000E+00  0.00000000E+00
  0.00000000E+00  0.00000000E+00  0.00000000E+00
  0.00000000E+00  0.00000000E+00  0.00000000E+00
  0.00000000E+00  0.00000000E+00  0.00000000E+00
  0.00000000E+00  0.00000000E+00  0.00000000E+00
  0.00000000E+00  0.00000000E+00  0.00000000E+00
  0.00000000E+00  0.00000000E+00  0.00000000E+00
  0.00000000E+00  0.00000000E+00  0.00000000E+00
  0.00000000E+00  0.00000000E+00  0.00000000E+00
  0.00000000E+00  0.00000000E+00  0.00000000E+00
  0.00000000E+00  0.00000000E+00  0.00000000E+00
  0.00000000E+00  0.00000000E+00  0.00000000E+00
  0.00000000E+00  0.00000000E+00  0.00000000E+00
  0.00000000E+00  0.00000000E+00  0.00000000E+00
  0.00000000E+00  0.00000000E+00  0.00000000E+00
  0.00000000E+00  0.00000000E+00  0.00000000E+00
  0.00000000E+00  0.00000000E+00  0.00000000E+00
  0.00000000E+00  0.00000000E+00  0.00000000E+00
  0.00000000E+00  0.00000000E+00  0.00000000E+00
  0.00000000E+00  0.00000000E+00  0.00000000E+00
  0.00000000E+00  0.00000000E+00  0.00000000E+00
  0.00000000E+00  0.00000000E+00  0.00000000E+00
  0.00000000E+00  0.00000000E+00  0.00000000E+00
  0.00000000E+00  0.00000000E+00  0.00000000E+00
  0.00000000E+00  0.00000000E+00  0.00000000E+00
  0.00000000E+00  0.00000000E+00  0.00000000E+00
  0.00000000E+00  0.00000000E+00  0.00000000E+00
  0.00000000E+00  0.00000000E+00  0.00000000E+00
  0.00000000E+00  0.00000000E+00  0.00000000E+00
  0.00000000E+00  0.00000000E+00  0.00000000E+00
  0.00000000E+00  0.00000000E+00  0.00000000E+00
  0.00000000E+00  0.00000000E+00  0.00000000E+00
  0.00000000E+00  0.00000000E+00  0.00000000E+00
  0.00000000E+00  0.00000000E+00  0.00000000E+00
  0.00000000E+00  0.00000000E+00  0.00000000E+00
  0.00000000E+00  0.00000000E+00  0.00000000E+00
  0.00000000E+00  0.00000000E+00  0.00000000E+00
  0.00000000E+00  0.00000000E+00  0.00000000E+00
  0.00000000E+00  0.00000000E+00  0.00000000E+00
  0.00000000E+00  0.00000000E+00  0.00000000E+00
  0.00000000E+00  0.00000000E+00  0.00000000E+00
  0.00000000E+00  0.00000000E+00  0.00000000E+00
  0.00000000E+00  0.00000000E+00  0.00000000E+00
  0.00000000E+00  0.00000000E+00  0.00000000E+00
  0.00000000E+00  0.00000000E+00  0.00000000E+00
  0.00000000E+00  0.00000000E+00  0.00000000E+00
  0.00000000E+00  0.00000000E+00  0.00000000E+00
  0.00000000E+00  0.00000000E+00  0.00000000E+00
  0.00000000E+00  0.00000000E+00  0.00000000E+00
  0.00000000E+00  0.00000000E+00  0.00000000E+00
  0.00000000E+00  0.00000000E+00  0.00000000E+00
  0.00000000E+00  0.00000000E+00  0.00000000E+00
  0.00000000E+00  0.00000000E+00  0.00000000E+00
  0.00000000E+00  0.00000000E+00  0.00000000E+00
  0.00000000E+00  0.00000000E+00  0.00000000E+00
  0.00000000E+00  0.00000000E+00  0.00000000E+00
  0.00000000E+00  0.00000000E+00  0.00000000E+00
  0.00000000E+00  0.00000000E+00  0.00000000E+00
  0.00000000E+00  0.00000000E+00  0.00000000E+00
  0.00000000E+00  0.00000000E+00  0.00000000E+00
  0.00000000E+00  0.00000000E+00  0.00000000E+00
  0.00000000E+00  0.00000000E+00  0.00000000E+00
  0.00000000E+00  0.00000000E+00  0.00000000E+00
  0.00000000E+00  0.00000000E+00  0.00000000E+00
  0.00000000E+00  0.00000000E+00  0.00000000E+00
  0.00000000E+00  0.00000000E+00  0.00000000E+00
  0.00000000E+00  0.00000000E+00  0.00000000E+00
  0.00000000E+00  0.00000000E+00  0.00000000E+00
  0.00000000E+00  0.00000000E+00  0.00000000E+00
  0.00000000E+00  0.00000000E+00  0.00000000E+00
  0.00000000E+00  0.00000000E+00  0.00000000E+00
  0.00000000E+00  0.00000000E+00  0.00000000E+00
  0.00000000E+00  0.00000000E+00  0.00000000E+00
  0.00000000E+00  0.00000000E+00  0.00000000E+00
  0.00000000E+00  0.00000000E+00  0.00000000E+00
  0.00000000E+00  0.00000000E+00  0.00000000E+00
  0.00000000E+00  0.00000000E+00  0.00000000E+00
  0.00000000E+00  0.00000000E+00  0.00000000E+00
  0.00000000E+00  0.00000000E+00  0.00000000E+00
  0.00000000E+00  0.00000000E+00  0.00000000E+00
  0.00000000E+00  0.00000000E+00  0.00000000E+00
  0.00000000E+00  0.00000000E+00  0.00000000E+00
  0.00000000E+00  0.00000000E+00  0.00000000E+00
  0.00000000E+00  0.00000000E+00  0.00000000E+00
  0.00000000E+00  0.00000000E+00  0.00000000E+00
  0.00000000E+00  0.00000000E+00  0.00000000E+00
  0.00000000E+00  0.00000000E+00  0.00000000E+00
  0.00000000E+00  0.00000000E+00  0.00000000E+00
  0.00000000E+00  0.00000000E+00  0.00000000E+00
  0.00000000E+00  0.00000000E+00  0.00000000E+00
  0.00000000E+00  0.00000000E+00  0.00000000E+00
  0.00000000E+00  0.00000000E+00  0.00000000E+00
  0.00000000E+00  0.00000000E+00  0.00000000E+00
  0.00000000E+00  0.00000000E+00  0.00000000E+00
  0.00000000E+00  0.00000000E+00  0.00000000E+00
  0.00000000E+00  0.00000000E+00  0.00000000E+00
  0.00000000E+00  0.00000000E+00  0.00000000E+00
  0.00000000E+00  0.00000000E+00  0.00000000E+00
  0.00000000E+00  0.00000000E+00  0.00000000E+00
  0.00000000E+00  0.00000000E+00  0.00000000E+00
  0.00000000E+00  0.00000000E+00  0.00000000E+00
  0.00000000E+00  0.00000000E+00  0.00000000E+00
  0.00000000E+00  0.00000000E+00  0.00000000E+00
  0.00000000E+00  0.00000000E+00  0.00000000E+00
  0.00000000E+00  0.00000000E+00  0.00000000E+00
  0.00000000E+00  0.00000000E+00  0.00000000E+00
