Sr   Ti   Fe   O                        
   1.00000000000000     
    11.1989999999999998    0.0000000000000000    0.0000000000000000
     0.0000000000000000   11.1989999999999998    0.0000000000000000
     0.0000000000000000    0.0000000000000000   15.9830000000000005
   Sr   Ti   Fe   O 
    32    31     1    94
Direct
  0.9991979664358801  0.2497477763160735  0.1236889156122031
  0.0041844119819355  0.2461745655409079  0.6280109262637853
  0.9990015415229899  0.7487314266973450  0.1261367657064057
  0.0021746617047283  0.7535314685652296  0.6255090387343517
  0.5003883754480069  0.2503382050629528  0.1249360197628505
  0.4910715142947662  0.2463974273367943  0.6279195922215409
  0.4986464025893931  0.7483094064058773  0.1241167541988632
  0.4984577176127422  0.7507411865104302  0.6276214950773973
  0.0041844119819355  0.2461745655409079  0.3719890737362007
  0.9991979664358801  0.2497477763160735  0.8763110843877674
  0.0021746617047283  0.7535314685652296  0.3744909612656300
  0.9990015415229899  0.7487314266973450  0.8738632342935808
  0.4910715142947662  0.2463974273367943  0.3720804077784860
  0.5003883754480069  0.2503382050629528  0.8750639802371130
  0.4984577176127422  0.7507411865104302  0.3723785049225894
  0.4986464025893931  0.7483094064058773  0.8758832458010949
  0.2489424471873160  0.9992140521136021  0.1252258196540297
  0.2481798814365660 -0.0000428686223316  0.6242740561936685
  0.2504967108034662  0.4990228097223811  0.1247641199966674
  0.2631326175654922  0.4981606427348690  0.6246699840538402
  0.7494064371085525  0.9994659663047021  0.1253365027978376
  0.7480381696141747  0.9963598250357288  0.6231532446875058
  0.7497101452816792  0.5004164039064677  0.1223305529153818
  0.7490632881060403  0.5018702001929852  0.6413950020714185
  0.2481798814365660 -0.0000428686223316  0.3757259438062841
  0.2489424471873160  0.9992140521136021  0.8747741803459582
  0.2631326175654922  0.4981606427348690  0.3753300159461681
  0.2504967108034662  0.4990228097223811  0.8752358800033290
  0.7480381696141747  0.9963598250357288  0.3768467553124890
  0.7494064371085525  0.9994659663047021  0.8746634972021646
  0.7490632881060403  0.5018702001929852  0.3586049979285766
  0.7497101452816792  0.5004164039064677  0.8776694470846328
  0.9986324705491929  0.9991266945961772  0.0000000000000000
  0.9996899623940894  0.0000565381002928  0.5000000000000000
  0.0009523848826133  0.4996586955441310  0.0000000000000000
  0.0157840082251920  0.5096646669753613  0.5000000000000000
  0.4996564958356634 -0.0000428104858065  0.0000000000000000
  0.5008844115908819  0.9972482003671653  0.5000000000000000
  0.4987518817774763  0.4995517338265772  0.0000000000000000
  0.2495258886488024  0.2489718438446947  0.0000000000000000
  0.2501804850420063  0.2500618543779146  0.5000000000000000
  0.2488001805025513  0.7494305358876101  0.0000000000000000
  0.2581305869561490  0.7531481732535025  0.5000000000000000
  0.7499925592754160  0.2480359476092096  0.0000000000000000
  0.7492916686736014  0.7508191238570181  0.0000000000000000
  0.2487583904847474  0.2494280459871434  0.2491374955374106
  0.2487583904847474  0.2494280459871434  0.7508625044625999
  0.2492970433552801  0.7493508655440022  0.2500436158024812
  0.2492970433552801  0.7493508655440022  0.7499563841974933
  0.7489148965404145  0.2501542482626214  0.2493712213262297
  0.7489148965404145  0.2501542482626214  0.7506287786737642
  0.7491654940740364  0.7498605428989682  0.2489867179678800
  0.7491654940740364  0.7498605428989682  0.7510132820321399
  0.9987512886064869  0.9997707778138668  0.2503242122623361
  0.9987512886064869  0.9997707778138668  0.7496757877376760
  0.0008885282016257  0.4989304821262342  0.2499936879264567
  0.0008885282016257  0.4989304821262342  0.7500063120734888
  0.4991814274320265  0.9993256746204630  0.2500541138445302
  0.4991814274320265  0.9993256746204630  0.7499458861554783
  0.4997897783038110  0.4988427903659897  0.2496326809396189
  0.4997897783038110  0.4988427903659897  0.7503673190604573
  0.7472427875131616  0.2535155142585755  0.5000000000000000
  0.7570429983485789  0.7445256240791575  0.5000000000000000
  0.5136379051035481  0.4989612441550149  0.5000000000000000
  0.1087264211579748  0.1388625917708118  0.2477067724136178
  0.1087264211579748  0.1388625917708118  0.7522932275863742
  0.1097884049234673  0.6380173040179955  0.2535227740038379
  0.1097884049234673  0.6380173040179955  0.7464772259961706
  0.6100339899757343  0.1400410720487668  0.2543342374510159
  0.6100339899757343  0.1400410720487668  0.7456657625490262
  0.6115157977757761  0.6377742819970098  0.2460700907698015
  0.6115157977757761  0.6377742819970098  0.7539299092301500
  0.3879436105905443  0.3587678706787197  0.2482223236692550
  0.3879436105905443  0.3587678706787197  0.7517776763307540
  0.3889148249999393  0.8598444028656202  0.2475595881767138
  0.3889148249999393  0.8598444028656202  0.7524404118232900
  0.8882468933239546  0.3607079507736649  0.2467265457820373
  0.8882468933239546  0.3607079507736649  0.7532734542179506
  0.8869665311879434  0.8607684664046548  0.2528418472435722
  0.8869665311879434  0.8607684664046548  0.7471581527564604
  0.3599806848303250  0.1100984624586624  0.2504213939263282
  0.3599806848303250  0.1100984624586624  0.7495786060736146
  0.3601043468369866  0.6104879307941533  0.2490966102059417
  0.3601043468369866  0.6104879307941533  0.7509033897940827
  0.8581351793547008  0.1114854436864165  0.2563792568602667
  0.8581351793547008  0.1114854436864165  0.7436207431397444
  0.8634972820823066  0.6128683723018336  0.2443643415465169
  0.8634972820823066  0.6128683723018336  0.7556356584534918
  0.1394478392225242  0.3895122261276024  0.2510406663899722
  0.1394478392225242  0.3895122261276024  0.7489593336099991
  0.1375382818524882  0.8887690614367499  0.2486760708353703
  0.1375382818524882  0.8887690614367499  0.7513239291646553
  0.6380400865658603  0.3873815711619974  0.2406173797489323
  0.6380400865658603  0.3873815711619974  0.7593826202510373
  0.6388799892037659  0.8887369270582487  0.2513849496771146
  0.6388799892037659  0.8887369270582487  0.7486150503229008
  0.3583329420741758  0.3889988379277162  0.0000000000000000
  0.3584639648565806  0.8905848112033078  0.0000000000000000
  0.3531782144761587  0.8970394349333742  0.5000000000000000
  0.8595950475054087  0.3892929507753846  0.0000000000000000
  0.8577061642839094  0.8910463640372094  0.0000000000000000
  0.8564595313698732  0.8961325225308585  0.5000000000000000
  0.1396650398735543  0.1074447878589441  0.0000000000000000
  0.1414584592685975  0.1053598855279623  0.5000000000000000
  0.1403996649995994  0.6085295472521756  0.0000000000000000
  0.1539600811208551  0.6003564780547461  0.5000000000000000
  0.6406005283705885  0.1082139402659938  0.0000000000000000
  0.6357379562485809  0.1113887931132691  0.5000000000000000
  0.6399517794728816  0.6099831783960772  0.0000000000000000
  0.1090098848061533  0.3581018809080799  0.0000000000000000
  0.0969074524809083  0.3524781341742006  0.5000000000000000
  0.1074470425481128  0.8591100078407292  0.0000000000000000
  0.1062741225233533  0.8548912634952189  0.5000000000000000
  0.6107356389108785  0.3588383589962649  0.0000000000000000
  0.6076276500545804  0.8590210255161399  0.0000000000000000
  0.6011375172071729  0.8544770824796707  0.5000000000000000
  0.3903891308277807  0.1400693431123164  0.0000000000000000
  0.3893020465984551  0.1407762680864399  0.5000000000000000
  0.3889718442412180  0.6412426772462376  0.0000000000000000
  0.8912243338301398  0.1404394891105658  0.0000000000000000
  0.8944681385193453  0.1468775879295681  0.5000000000000000
  0.8898308523320624  0.6397246774165682  0.0000000000000000
  0.9943693418359913  0.9996887277213998  0.1256561975228150
  0.0017567616783264  0.9988237213535580  0.6254165835622695
  0.0032793523970918  0.4991247990134853  0.1248171355572364
  0.9889315801758941  0.4903813005625819  0.6226165426334558
  0.5015299175857302  0.0017369600350580  0.1253758688006775
  0.4974131412020156  0.9975829596172862  0.6255142407265044
  0.4962404900347801  0.5003146672992063  0.1229636532957804
  0.5037665991666450  0.4947077358251108  0.6295781376851254
  0.0017567616783264  0.9988237213535580  0.3745834164377349
  0.9943693418359913  0.9996887277213998  0.8743438024771971
  0.9889315801758941  0.4903813005625819  0.3773834573664971
  0.0032793523970918  0.4991247990134853  0.8751828644427567
  0.4974131412020156  0.9975829596172862  0.3744857592735139
  0.5015299175857302  0.0017369600350580  0.8746241311993491
  0.4962404900347801  0.5003146672992063  0.8770363467042261
  0.2473242589000293  0.2480233416523104  0.3737107657048583
  0.2482547678966635  0.2483194974945809  0.8754049842040460
  0.2503146080099451  0.7519806430087391  0.3742230989436661
  0.2466117234313174  0.7487136783666607  0.8750659825349821
  0.7511772647856620  0.2428504866721560  0.8749923166762839
  0.7495152307526119  0.7530816342244293  0.8755807095760717
  0.2482547678966635  0.2483194974945809  0.1245950157959754
  0.2473242589000293  0.2480233416523104  0.6262892342952150
  0.2466117234313174  0.7487136783666607  0.1249340174650119
  0.2503146080099451  0.7519806430087391  0.6257769010563170
  0.7511772647856620  0.2428504866721560  0.1250076833237856
  0.7453458971445146  0.2730127586553471  0.6223641049510208
  0.7495152307526119  0.7530816342244293  0.1244192904238922
  0.7439881856201620  0.7377465961464807  0.6251025072539063
  0.7453458971445146  0.2730127586553471  0.3776358950489437
  0.3943001880295576  0.6503593635544830  0.5000000000000000
  0.5037665991666450  0.4947077358251108  0.3704218623148390
  0.3553198310895615  0.3846033928164414  0.5000000000000000
  0.9070888425786636  0.6412987181306851  0.5000000000000000
  0.7439881856201620  0.7377465961464807  0.3748974927460979
  0.6876651988124465  0.4907252394101888  0.5000000000000000
 
  0.00000000E+00  0.00000000E+00  0.00000000E+00
  0.00000000E+00  0.00000000E+00  0.00000000E+00
  0.00000000E+00  0.00000000E+00  0.00000000E+00
  0.00000000E+00  0.00000000E+00  0.00000000E+00
  0.00000000E+00  0.00000000E+00  0.00000000E+00
  0.00000000E+00  0.00000000E+00  0.00000000E+00
  0.00000000E+00  0.00000000E+00  0.00000000E+00
  0.00000000E+00  0.00000000E+00  0.00000000E+00
  0.00000000E+00  0.00000000E+00  0.00000000E+00
  0.00000000E+00  0.00000000E+00  0.00000000E+00
  0.00000000E+00  0.00000000E+00  0.00000000E+00
  0.00000000E+00  0.00000000E+00  0.00000000E+00
  0.00000000E+00  0.00000000E+00  0.00000000E+00
  0.00000000E+00  0.00000000E+00  0.00000000E+00
  0.00000000E+00  0.00000000E+00  0.00000000E+00
  0.00000000E+00  0.00000000E+00  0.00000000E+00
  0.00000000E+00  0.00000000E+00  0.00000000E+00
  0.00000000E+00  0.00000000E+00  0.00000000E+00
  0.00000000E+00  0.00000000E+00  0.00000000E+00
  0.00000000E+00  0.00000000E+00  0.00000000E+00
  0.00000000E+00  0.00000000E+00  0.00000000E+00
  0.00000000E+00  0.00000000E+00  0.00000000E+00
  0.00000000E+00  0.00000000E+00  0.00000000E+00
  0.00000000E+00  0.00000000E+00  0.00000000E+00
  0.00000000E+00  0.00000000E+00  0.00000000E+00
  0.00000000E+00  0.00000000E+00  0.00000000E+00
  0.00000000E+00  0.00000000E+00  0.00000000E+00
  0.00000000E+00  0.00000000E+00  0.00000000E+00
  0.00000000E+00  0.00000000E+00  0.00000000E+00
  0.00000000E+00  0.00000000E+00  0.00000000E+00
  0.00000000E+00  0.00000000E+00  0.00000000E+00
  0.00000000E+00  0.00000000E+00  0.00000000E+00
  0.00000000E+00  0.00000000E+00  0.00000000E+00
  0.00000000E+00  0.00000000E+00  0.00000000E+00
  0.00000000E+00  0.00000000E+00  0.00000000E+00
  0.00000000E+00  0.00000000E+00  0.00000000E+00
  0.00000000E+00  0.00000000E+00  0.00000000E+00
  0.00000000E+00  0.00000000E+00  0.00000000E+00
  0.00000000E+00  0.00000000E+00  0.00000000E+00
  0.00000000E+00  0.00000000E+00  0.00000000E+00
  0.00000000E+00  0.00000000E+00  0.00000000E+00
  0.00000000E+00  0.00000000E+00  0.00000000E+00
  0.00000000E+00  0.00000000E+00  0.00000000E+00
  0.00000000E+00  0.00000000E+00  0.00000000E+00
  0.00000000E+00  0.00000000E+00  0.00000000E+00
  0.00000000E+00  0.00000000E+00  0.00000000E+00
  0.00000000E+00  0.00000000E+00  0.00000000E+00
  0.00000000E+00  0.00000000E+00  0.00000000E+00
  0.00000000E+00  0.00000000E+00  0.00000000E+00
  0.00000000E+00  0.00000000E+00  0.00000000E+00
  0.00000000E+00  0.00000000E+00  0.00000000E+00
  0.00000000E+00  0.00000000E+00  0.00000000E+00
  0.00000000E+00  0.00000000E+00  0.00000000E+00
  0.00000000E+00  0.00000000E+00  0.00000000E+00
  0.00000000E+00  0.00000000E+00  0.00000000E+00
  0.00000000E+00  0.00000000E+00  0.00000000E+00
  0.00000000E+00  0.00000000E+00  0.00000000E+00
  0.00000000E+00  0.00000000E+00  0.00000000E+00
  0.00000000E+00  0.00000000E+00  0.00000000E+00
  0.00000000E+00  0.00000000E+00  0.00000000E+00
  0.00000000E+00  0.00000000E+00  0.00000000E+00
  0.00000000E+00  0.00000000E+00  0.00000000E+00
  0.00000000E+00  0.00000000E+00  0.00000000E+00
  0.00000000E+00  0.00000000E+00  0.00000000E+00
  0.00000000E+00  0.00000000E+00  0.00000000E+00
  0.00000000E+00  0.00000000E+00  0.00000000E+00
  0.00000000E+00  0.00000000E+00  0.00000000E+00
  0.00000000E+00  0.00000000E+00  0.00000000E+00
  0.00000000E+00  0.00000000E+00  0.00000000E+00
  0.00000000E+00  0.00000000E+00  0.00000000E+00
  0.00000000E+00  0.00000000E+00  0.00000000E+00
  0.00000000E+00  0.00000000E+00  0.00000000E+00
  0.00000000E+00  0.00000000E+00  0.00000000E+00
  0.00000000E+00  0.00000000E+00  0.00000000E+00
  0.00000000E+00  0.00000000E+00  0.00000000E+00
  0.00000000E+00  0.00000000E+00  0.00000000E+00
  0.00000000E+00  0.00000000E+00  0.00000000E+00
  0.00000000E+00  0.00000000E+00  0.00000000E+00
  0.00000000E+00  0.00000000E+00  0.00000000E+00
  0.00000000E+00  0.00000000E+00  0.00000000E+00
  0.00000000E+00  0.00000000E+00  0.00000000E+00
  0.00000000E+00  0.00000000E+00  0.00000000E+00
  0.00000000E+00  0.00000000E+00  0.00000000E+00
  0.00000000E+00  0.00000000E+00  0.00000000E+00
  0.00000000E+00  0.00000000E+00  0.00000000E+00
  0.00000000E+00  0.00000000E+00  0.00000000E+00
  0.00000000E+00  0.00000000E+00  0.00000000E+00
  0.00000000E+00  0.00000000E+00  0.00000000E+00
  0.00000000E+00  0.00000000E+00  0.00000000E+00
  0.00000000E+00  0.00000000E+00  0.00000000E+00
  0.00000000E+00  0.00000000E+00  0.00000000E+00
  0.00000000E+00  0.00000000E+00  0.00000000E+00
  0.00000000E+00  0.00000000E+00  0.00000000E+00
  0.00000000E+00  0.00000000E+00  0.00000000E+00
  0.00000000E+00  0.00000000E+00  0.00000000E+00
  0.00000000E+00  0.00000000E+00  0.00000000E+00
  0.00000000E+00  0.00000000E+00  0.00000000E+00
  0.00000000E+00  0.00000000E+00  0.00000000E+00
  0.00000000E+00  0.00000000E+00  0.00000000E+00
  0.00000000E+00  0.00000000E+00  0.00000000E+00
  0.00000000E+00  0.00000000E+00  0.00000000E+00
  0.00000000E+00  0.00000000E+00  0.00000000E+00
  0.00000000E+00  0.00000000E+00  0.00000000E+00
  0.00000000E+00  0.00000000E+00  0.00000000E+00
  0.00000000E+00  0.00000000E+00  0.00000000E+00
  0.00000000E+00  0.00000000E+00  0.00000000E+00
  0.00000000E+00  0.00000000E+00  0.00000000E+00
  0.00000000E+00  0.00000000E+00  0.00000000E+00
  0.00000000E+00  0.00000000E+00  0.00000000E+00
  0.00000000E+00  0.00000000E+00  0.00000000E+00
  0.00000000E+00  0.00000000E+00  0.00000000E+00
  0.00000000E+00  0.00000000E+00  0.00000000E+00
  0.00000000E+00  0.00000000E+00  0.00000000E+00
  0.00000000E+00  0.00000000E+00  0.00000000E+00
  0.00000000E+00  0.00000000E+00  0.00000000E+00
  0.00000000E+00  0.00000000E+00  0.00000000E+00
  0.00000000E+00  0.00000000E+00  0.00000000E+00
  0.00000000E+00  0.00000000E+00  0.00000000E+00
  0.00000000E+00  0.00000000E+00  0.00000000E+00
  0.00000000E+00  0.00000000E+00  0.00000000E+00
  0.00000000E+00  0.00000000E+00  0.00000000E+00
  0.00000000E+00  0.00000000E+00  0.00000000E+00
  0.00000000E+00  0.00000000E+00  0.00000000E+00
  0.00000000E+00  0.00000000E+00  0.00000000E+00
  0.00000000E+00  0.00000000E+00  0.00000000E+00
  0.00000000E+00  0.00000000E+00  0.00000000E+00
  0.00000000E+00  0.00000000E+00  0.00000000E+00
  0.00000000E+00  0.00000000E+00  0.00000000E+00
  0.00000000E+00  0.00000000E+00  0.00000000E+00
  0.00000000E+00  0.00000000E+00  0.00000000E+00
  0.00000000E+00  0.00000000E+00  0.00000000E+00
  0.00000000E+00  0.00000000E+00  0.00000000E+00
  0.00000000E+00  0.00000000E+00  0.00000000E+00
  0.00000000E+00  0.00000000E+00  0.00000000E+00
  0.00000000E+00  0.00000000E+00  0.00000000E+00
  0.00000000E+00  0.00000000E+00  0.00000000E+00
  0.00000000E+00  0.00000000E+00  0.00000000E+00
  0.00000000E+00  0.00000000E+00  0.00000000E+00
  0.00000000E+00  0.00000000E+00  0.00000000E+00
  0.00000000E+00  0.00000000E+00  0.00000000E+00
  0.00000000E+00  0.00000000E+00  0.00000000E+00
  0.00000000E+00  0.00000000E+00  0.00000000E+00
  0.00000000E+00  0.00000000E+00  0.00000000E+00
  0.00000000E+00  0.00000000E+00  0.00000000E+00
  0.00000000E+00  0.00000000E+00  0.00000000E+00
  0.00000000E+00  0.00000000E+00  0.00000000E+00
  0.00000000E+00  0.00000000E+00  0.00000000E+00
  0.00000000E+00  0.00000000E+00  0.00000000E+00
  0.00000000E+00  0.00000000E+00  0.00000000E+00
  0.00000000E+00  0.00000000E+00  0.00000000E+00
  0.00000000E+00  0.00000000E+00  0.00000000E+00
  0.00000000E+00  0.00000000E+00  0.00000000E+00
  0.00000000E+00  0.00000000E+00  0.00000000E+00
  0.00000000E+00  0.00000000E+00  0.00000000E+00
  0.00000000E+00  0.00000000E+00  0.00000000E+00
  0.00000000E+00  0.00000000E+00  0.00000000E+00
  0.00000000E+00  0.00000000E+00  0.00000000E+00
  0.00000000E+00  0.00000000E+00  0.00000000E+00
