SrTiFeO                                 
   1.00000000000000     
    11.1989999999999998    0.0000000000000000    0.0000000000000000
     0.0000000000000000   11.1989999999999998    0.0000000000000000
     0.0000000000000000    0.0000000000000000   15.9830000000000005
   Sr   Ti   Fe   O 
    32    31     1    94
Direct
  0.9992597048782453  0.2502818790059937  0.1244919356328969
  0.0053313475503785  0.2499555524998255  0.6284956359337361
  0.0007402951217546  0.7497181209940061  0.1244919356328969
  0.9946686524496215  0.7500444475001745  0.6284956359337361
  0.5004764680000985  0.2511815302278984  0.1239597148741393
  0.4939487890095968  0.2447341131054737  0.6294182746233258
  0.4995235319999014  0.7488184697721015  0.1239597148741393
  0.5060512109904034  0.7552658868945263  0.6294182746233258
  0.0053313475503785  0.2499555524998255  0.3715043640662638
  0.9992597048782453  0.2502818790059937  0.8755080643671032
  0.9946686524496215  0.7500444475001745  0.3715043640662638
  0.0007402951217546  0.7497181209940061  0.8755080643671032
  0.4939487890095968  0.2447341131054737  0.3705817253766745
  0.5004764680000985  0.2511815302278984  0.8760402851258609
  0.5060512109904034  0.7552658868945263  0.3705817253766745
  0.4995235319999014  0.7488184697721015  0.8760402851258609
  0.2488949328628590  0.9989648334802125  0.1249545991946054
  0.2519030848179113  0.0025395098294688  0.6258208024186063
  0.2508310539436173  0.4997799512045493  0.1239076654375277
  0.2493980234775383  0.4953298696654750  0.6286691352733619
  0.7511050671371410  0.0010351665197874  0.1249545991946054
  0.7480969151820887  0.9974604901705313  0.6258208024186063
  0.7491689460563826  0.5002200487954507  0.1239076654375277
  0.7506019765224617  0.5046701303345320  0.6286691352733619
  0.2519030848179113  0.0025395098294688  0.3741791975813935
  0.2488949328628590  0.9989648334802125  0.8750454008053945
  0.2493980234775383  0.4953298696654750  0.3713308647266453
  0.2508310539436173  0.4997799512045493  0.8760923345624723
  0.7480969151820887  0.9974604901705313  0.3741791975813935
  0.7511050671371410  0.0010351665197874  0.8750454008053945
  0.7506019765224617  0.5046701303345320  0.3713308647266453
  0.7491689460563826  0.5002200487954507  0.8760923345624723
  0.0000000000000000 -0.0000000000000000  0.0000000000000000
  0.0000000000000000 -0.0000000000000000  0.5000000000000000
  0.0000000000000000  0.5000000000000000  0.0000000000000000
  0.0000000000000000  0.5000000000000000  0.5000000000000000
  0.5000000000000000 -0.0000000000000000  0.0000000000000000
  0.5000000000000000 -0.0000000000000000  0.5000000000000000
  0.5000000000000000  0.5000000000000000  0.0000000000000000
  0.2499721501314277  0.2494876930733556  0.0000000000000000
  0.2498161732993816  0.2507117454904831  0.5000000000000000
  0.2497936107055102  0.7500913816592769  0.0000000000000000
  0.2383735303798200  0.7541994754600169  0.5000000000000000
  0.7502063892944898  0.2499086183407232  0.0000000000000000
  0.7500278498685724  0.7505123069266446  0.0000000000000000
  0.2497759835122750  0.2495372976639584  0.2481871030947437
  0.2497759835122750  0.2495372976639584  0.7518128969052563
  0.2512776985223119  0.7485415753620520  0.2501723786167953
  0.2512776985223119  0.7485415753620520  0.7498276213831974
  0.7487223014776884  0.2514584246379481  0.2501723786167953
  0.7487223014776884  0.2514584246379481  0.7498276213831974
  0.7502240164877250  0.7504627023360415  0.2481871030947437
  0.7502240164877250  0.7504627023360415  0.7518128969052563
  0.0000000000000000 -0.0000000000000000  0.2515203526458572
  0.0000000000000000 -0.0000000000000000  0.7484796473541426
  0.0000000000000000  0.5000000000000000  0.2495421430473361
  0.0000000000000000  0.5000000000000000  0.7504578569526639
  0.5000000000000000 -0.0000000000000000  0.2485138300627015
  0.5000000000000000 -0.0000000000000000  0.7514861699372984
  0.5000000000000000  0.5000000000000000  0.2510862499764860
  0.5000000000000000  0.5000000000000000  0.7489137500235140
  0.7616264696201800  0.2458005245399831  0.5000000000000000
  0.7501838267006185  0.7492882545095171  0.5000000000000000
  0.5000000000000000  0.5000000000000000  0.5000000000000000
  0.1100611076284020  0.1400292965911679  0.2483385798797607
  0.1100611076284020  0.1400292965911679  0.7516614201202391
  0.1102568883358254  0.6401494286660112  0.2517254309428804
  0.1102568883358254  0.6401494286660112  0.7482745690571198
  0.6087564291782186  0.1412710024794862  0.2500912081775560
  0.6087564291782186  0.1412710024794862  0.7499087918224440
  0.6097263742950217  0.6413074602383717  0.2496291846582489
  0.6097263742950217  0.6413074602383717  0.7503708153417511
  0.3902736257049784  0.3586925397616282  0.2496291846582489
  0.3902736257049784  0.3586925397616282  0.7503708153417511
  0.3912435708217814  0.8587289975205139  0.2500912081775560
  0.3912435708217814  0.8587289975205139  0.7499087918224440
  0.8897431116641746  0.3598505713339888  0.2517254309428804
  0.8897431116641746  0.3598505713339888  0.7482745690571198
  0.8899388923715980  0.8599707034088322  0.2483385798797607
  0.8899388923715980  0.8599707034088322  0.7516614201202391
  0.3596241048737402  0.1094397096228905  0.2509100959755067
  0.3596241048737402  0.1094397096228905  0.7490899040244934
  0.3599295914100547  0.6078256247865540  0.2475635644442752
  0.3599295914100547  0.6078256247865540  0.7524364355557247
  0.8575825163023074  0.1119743172496808  0.2539515369367080
  0.8575825163023074  0.1119743172496808  0.7460484630632919
  0.8602032088297741  0.6106007416549919  0.2495329645493965
  0.8602032088297741  0.6106007416549919  0.7504670354506037
  0.1397967911702259  0.3893992583450081  0.2495329645493965
  0.1397967911702259  0.3893992583450081  0.7504670354506037
  0.1424174836976925  0.8880256827503191  0.2539515369367080
  0.1424174836976925  0.8880256827503191  0.7460484630632919
  0.6400704085899453  0.3921743752134458  0.2475635644442752
  0.6400704085899453  0.3921743752134458  0.7524364355557247
  0.6403758951262598  0.8905602903771095  0.2509100959755067
  0.6403758951262598  0.8905602903771095  0.7490899040244934
  0.3595073921910518  0.3902083353779077  0.0000000000000000
  0.3590663181138463  0.8904481658505129  0.0000000000000000
  0.3664663125046331  0.8767299570621320  0.5000000000000000
  0.8594427051268908  0.3904782978467691  0.0000000000000000
  0.8590063230357855  0.8910946589201573  0.0000000000000000
  0.8570070305852576  0.8931020675844694  0.5000000000000000
  0.1409936769642146  0.1089053410798426  0.0000000000000000
  0.1429929694147425  0.1068979324155306  0.5000000000000000
  0.1405572948731093  0.6095217021532310  0.0000000000000000
  0.1524933516841561  0.6009034157316966  0.5000000000000000
  0.6409336818861538  0.1095518341494872  0.0000000000000000
  0.6335336874953668  0.1232700429378681  0.5000000000000000
  0.6404926078089481  0.6097916646220921  0.0000000000000000
  0.1094265157737676  0.3590899575871175  0.0000000000000000
  0.1050633701513226  0.3559873192342110  0.5000000000000000
  0.1091749675573095  0.8593024467259754  0.0000000000000000
  0.1071817952846765  0.8512141600689258  0.5000000000000000
  0.6100216805909180  0.3593221653157917  0.0000000000000000
  0.6091481525706309  0.8593716607364970  0.0000000000000000
  0.6137491341390585  0.8651403841657607  0.5000000000000000
  0.3908518474293691  0.1406283392635032  0.0000000000000000
  0.3862508658609415  0.1348596158342395  0.5000000000000000
  0.3899783194090819  0.6406778346842082  0.0000000000000000
  0.8908250324426904  0.1406975532740245  0.0000000000000000
  0.8928182047153235  0.1487858399310741  0.5000000000000000
  0.8905734842262324  0.6409100424128825  0.0000000000000000
  0.0000000000000000 -0.0000000000000000  0.1251191151904297
  0.0000000000000000 -0.0000000000000000  0.6280034306797104
  0.0000000000000000  0.5000000000000000  0.1252954624138622
  0.0000000000000000  0.5000000000000000  0.6243083357607732
  0.5000000000000000 -0.0000000000000000  0.1250976672817222
  0.5000000000000000 -0.0000000000000000  0.6248664795102513
  0.5000000000000000  0.5000000000000000  0.1243642106143957
  0.5000000000000000  0.5000000000000000  0.6242496245964386
  0.0000000000000000 -0.0000000000000000  0.3719965693202896
  0.0000000000000000 -0.0000000000000000  0.8748808848095703
  0.0000000000000000  0.5000000000000000  0.3756916642392267
  0.0000000000000000  0.5000000000000000  0.8747045375861376
  0.5000000000000000 -0.0000000000000000  0.3751335204897488
  0.5000000000000000 -0.0000000000000000  0.8749023327182778
  0.5000000000000000  0.5000000000000000  0.8756357893856043
  0.2485001028687185  0.2492074471338884  0.3743887770003236
  0.2504991686209550  0.2494870154265067  0.8753555831104641
  0.2647082206094080  0.7368599375908289  0.3786044912722995
  0.2490684902562035  0.7503699171011486  0.8744310783991521
  0.7509315097437966  0.2496300828988513  0.8744310783991521
  0.7495008313790450  0.7505129845734934  0.8753555831104641
  0.2504991686209550  0.2494870154265067  0.1246444168895359
  0.2485001028687185  0.2492074471338884  0.6256112229996764
  0.2490684902562035  0.7503699171011486  0.1255689216008477
  0.2647082206094080  0.7368599375908289  0.6213955087277004
  0.7509315097437966  0.2496300828988513  0.1255689216008477
  0.7352917793905921  0.2631400624091711  0.6213955087277004
  0.7495008313790450  0.7505129845734934  0.1246444168895359
  0.7514998971312815  0.7507925528661116  0.6256112229996764
  0.7352917793905921  0.2631400624091711  0.3786044912722995
  0.8475066483158439  0.3990965842683033  0.5000000000000000
  0.5000000000000000  0.5000000000000000  0.3757503754035614
  0.3631838507379082  0.3866653651096452  0.5000000000000000
  0.8949366298486774  0.6440126807657890  0.5000000000000000
  0.7514998971312815  0.7507925528661116  0.3743887770003236
  0.6368161492620917  0.6133346348903548  0.5000000000000000
 
  0.00000000E+00  0.00000000E+00  0.00000000E+00
  0.00000000E+00  0.00000000E+00  0.00000000E+00
  0.00000000E+00  0.00000000E+00  0.00000000E+00
  0.00000000E+00  0.00000000E+00  0.00000000E+00
  0.00000000E+00  0.00000000E+00  0.00000000E+00
  0.00000000E+00  0.00000000E+00  0.00000000E+00
  0.00000000E+00  0.00000000E+00  0.00000000E+00
  0.00000000E+00  0.00000000E+00  0.00000000E+00
  0.00000000E+00  0.00000000E+00  0.00000000E+00
  0.00000000E+00  0.00000000E+00  0.00000000E+00
  0.00000000E+00  0.00000000E+00  0.00000000E+00
  0.00000000E+00  0.00000000E+00  0.00000000E+00
  0.00000000E+00  0.00000000E+00  0.00000000E+00
  0.00000000E+00  0.00000000E+00  0.00000000E+00
  0.00000000E+00  0.00000000E+00  0.00000000E+00
  0.00000000E+00  0.00000000E+00  0.00000000E+00
  0.00000000E+00  0.00000000E+00  0.00000000E+00
  0.00000000E+00  0.00000000E+00  0.00000000E+00
  0.00000000E+00  0.00000000E+00  0.00000000E+00
  0.00000000E+00  0.00000000E+00  0.00000000E+00
  0.00000000E+00  0.00000000E+00  0.00000000E+00
  0.00000000E+00  0.00000000E+00  0.00000000E+00
  0.00000000E+00  0.00000000E+00  0.00000000E+00
  0.00000000E+00  0.00000000E+00  0.00000000E+00
  0.00000000E+00  0.00000000E+00  0.00000000E+00
  0.00000000E+00  0.00000000E+00  0.00000000E+00
  0.00000000E+00  0.00000000E+00  0.00000000E+00
  0.00000000E+00  0.00000000E+00  0.00000000E+00
  0.00000000E+00  0.00000000E+00  0.00000000E+00
  0.00000000E+00  0.00000000E+00  0.00000000E+00
  0.00000000E+00  0.00000000E+00  0.00000000E+00
  0.00000000E+00  0.00000000E+00  0.00000000E+00
  0.00000000E+00  0.00000000E+00  0.00000000E+00
  0.00000000E+00  0.00000000E+00  0.00000000E+00
  0.00000000E+00  0.00000000E+00  0.00000000E+00
  0.00000000E+00  0.00000000E+00  0.00000000E+00
  0.00000000E+00  0.00000000E+00  0.00000000E+00
  0.00000000E+00  0.00000000E+00  0.00000000E+00
  0.00000000E+00  0.00000000E+00  0.00000000E+00
  0.00000000E+00  0.00000000E+00  0.00000000E+00
  0.00000000E+00  0.00000000E+00  0.00000000E+00
  0.00000000E+00  0.00000000E+00  0.00000000E+00
  0.00000000E+00  0.00000000E+00  0.00000000E+00
  0.00000000E+00  0.00000000E+00  0.00000000E+00
  0.00000000E+00  0.00000000E+00  0.00000000E+00
  0.00000000E+00  0.00000000E+00  0.00000000E+00
  0.00000000E+00  0.00000000E+00  0.00000000E+00
  0.00000000E+00  0.00000000E+00  0.00000000E+00
  0.00000000E+00  0.00000000E+00  0.00000000E+00
  0.00000000E+00  0.00000000E+00  0.00000000E+00
  0.00000000E+00  0.00000000E+00  0.00000000E+00
  0.00000000E+00  0.00000000E+00  0.00000000E+00
  0.00000000E+00  0.00000000E+00  0.00000000E+00
  0.00000000E+00  0.00000000E+00  0.00000000E+00
  0.00000000E+00  0.00000000E+00  0.00000000E+00
  0.00000000E+00  0.00000000E+00  0.00000000E+00
  0.00000000E+00  0.00000000E+00  0.00000000E+00
  0.00000000E+00  0.00000000E+00  0.00000000E+00
  0.00000000E+00  0.00000000E+00  0.00000000E+00
  0.00000000E+00  0.00000000E+00  0.00000000E+00
  0.00000000E+00  0.00000000E+00  0.00000000E+00
  0.00000000E+00  0.00000000E+00  0.00000000E+00
  0.00000000E+00  0.00000000E+00  0.00000000E+00
  0.00000000E+00  0.00000000E+00  0.00000000E+00
  0.00000000E+00  0.00000000E+00  0.00000000E+00
  0.00000000E+00  0.00000000E+00  0.00000000E+00
  0.00000000E+00  0.00000000E+00  0.00000000E+00
  0.00000000E+00  0.00000000E+00  0.00000000E+00
  0.00000000E+00  0.00000000E+00  0.00000000E+00
  0.00000000E+00  0.00000000E+00  0.00000000E+00
  0.00000000E+00  0.00000000E+00  0.00000000E+00
  0.00000000E+00  0.00000000E+00  0.00000000E+00
  0.00000000E+00  0.00000000E+00  0.00000000E+00
  0.00000000E+00  0.00000000E+00  0.00000000E+00
  0.00000000E+00  0.00000000E+00  0.00000000E+00
  0.00000000E+00  0.00000000E+00  0.00000000E+00
  0.00000000E+00  0.00000000E+00  0.00000000E+00
  0.00000000E+00  0.00000000E+00  0.00000000E+00
  0.00000000E+00  0.00000000E+00  0.00000000E+00
  0.00000000E+00  0.00000000E+00  0.00000000E+00
  0.00000000E+00  0.00000000E+00  0.00000000E+00
  0.00000000E+00  0.00000000E+00  0.00000000E+00
  0.00000000E+00  0.00000000E+00  0.00000000E+00
  0.00000000E+00  0.00000000E+00  0.00000000E+00
  0.00000000E+00  0.00000000E+00  0.00000000E+00
  0.00000000E+00  0.00000000E+00  0.00000000E+00
  0.00000000E+00  0.00000000E+00  0.00000000E+00
  0.00000000E+00  0.00000000E+00  0.00000000E+00
  0.00000000E+00  0.00000000E+00  0.00000000E+00
  0.00000000E+00  0.00000000E+00  0.00000000E+00
  0.00000000E+00  0.00000000E+00  0.00000000E+00
  0.00000000E+00  0.00000000E+00  0.00000000E+00
  0.00000000E+00  0.00000000E+00  0.00000000E+00
  0.00000000E+00  0.00000000E+00  0.00000000E+00
  0.00000000E+00  0.00000000E+00  0.00000000E+00
  0.00000000E+00  0.00000000E+00  0.00000000E+00
  0.00000000E+00  0.00000000E+00  0.00000000E+00
  0.00000000E+00  0.00000000E+00  0.00000000E+00
  0.00000000E+00  0.00000000E+00  0.00000000E+00
  0.00000000E+00  0.00000000E+00  0.00000000E+00
  0.00000000E+00  0.00000000E+00  0.00000000E+00
  0.00000000E+00  0.00000000E+00  0.00000000E+00
  0.00000000E+00  0.00000000E+00  0.00000000E+00
  0.00000000E+00  0.00000000E+00  0.00000000E+00
  0.00000000E+00  0.00000000E+00  0.00000000E+00
  0.00000000E+00  0.00000000E+00  0.00000000E+00
  0.00000000E+00  0.00000000E+00  0.00000000E+00
  0.00000000E+00  0.00000000E+00  0.00000000E+00
  0.00000000E+00  0.00000000E+00  0.00000000E+00
  0.00000000E+00  0.00000000E+00  0.00000000E+00
  0.00000000E+00  0.00000000E+00  0.00000000E+00
  0.00000000E+00  0.00000000E+00  0.00000000E+00
  0.00000000E+00  0.00000000E+00  0.00000000E+00
  0.00000000E+00  0.00000000E+00  0.00000000E+00
  0.00000000E+00  0.00000000E+00  0.00000000E+00
  0.00000000E+00  0.00000000E+00  0.00000000E+00
  0.00000000E+00  0.00000000E+00  0.00000000E+00
  0.00000000E+00  0.00000000E+00  0.00000000E+00
  0.00000000E+00  0.00000000E+00  0.00000000E+00
  0.00000000E+00  0.00000000E+00  0.00000000E+00
  0.00000000E+00  0.00000000E+00  0.00000000E+00
  0.00000000E+00  0.00000000E+00  0.00000000E+00
  0.00000000E+00  0.00000000E+00  0.00000000E+00
  0.00000000E+00  0.00000000E+00  0.00000000E+00
  0.00000000E+00  0.00000000E+00  0.00000000E+00
  0.00000000E+00  0.00000000E+00  0.00000000E+00
  0.00000000E+00  0.00000000E+00  0.00000000E+00
  0.00000000E+00  0.00000000E+00  0.00000000E+00
  0.00000000E+00  0.00000000E+00  0.00000000E+00
  0.00000000E+00  0.00000000E+00  0.00000000E+00
  0.00000000E+00  0.00000000E+00  0.00000000E+00
  0.00000000E+00  0.00000000E+00  0.00000000E+00
  0.00000000E+00  0.00000000E+00  0.00000000E+00
  0.00000000E+00  0.00000000E+00  0.00000000E+00
  0.00000000E+00  0.00000000E+00  0.00000000E+00
  0.00000000E+00  0.00000000E+00  0.00000000E+00
  0.00000000E+00  0.00000000E+00  0.00000000E+00
  0.00000000E+00  0.00000000E+00  0.00000000E+00
  0.00000000E+00  0.00000000E+00  0.00000000E+00
  0.00000000E+00  0.00000000E+00  0.00000000E+00
  0.00000000E+00  0.00000000E+00  0.00000000E+00
  0.00000000E+00  0.00000000E+00  0.00000000E+00
  0.00000000E+00  0.00000000E+00  0.00000000E+00
  0.00000000E+00  0.00000000E+00  0.00000000E+00
  0.00000000E+00  0.00000000E+00  0.00000000E+00
  0.00000000E+00  0.00000000E+00  0.00000000E+00
  0.00000000E+00  0.00000000E+00  0.00000000E+00
  0.00000000E+00  0.00000000E+00  0.00000000E+00
  0.00000000E+00  0.00000000E+00  0.00000000E+00
  0.00000000E+00  0.00000000E+00  0.00000000E+00
  0.00000000E+00  0.00000000E+00  0.00000000E+00
  0.00000000E+00  0.00000000E+00  0.00000000E+00
  0.00000000E+00  0.00000000E+00  0.00000000E+00
  0.00000000E+00  0.00000000E+00  0.00000000E+00
  0.00000000E+00  0.00000000E+00  0.00000000E+00
  0.00000000E+00  0.00000000E+00  0.00000000E+00
  0.00000000E+00  0.00000000E+00  0.00000000E+00
  0.00000000E+00  0.00000000E+00  0.00000000E+00
