SrTiFeO                                 
   1.00000000000000     
    11.1989999999999998    0.0000000000000000    0.0000000000000000
     0.0000000000000000   11.1989999999999998    0.0000000000000000
     0.0000000000000000    0.0000000000000000   15.9830000000000005
   Sr   Ti   Fe   O 
    32    31     1    94
Direct
  0.0001347036943179  0.2502470584207079  0.1249951508985973
  0.0005957129465755  0.2501204046275735  0.6249723304671144
  0.9991955596485936  0.7498062532114051  0.1251400914016499
  0.9958794200035981  0.7483263840949275  0.6259691893037344
  0.4994340024517059  0.2518571353712514  0.1256061800243628
  0.5008700714936452  0.2518341873075418  0.6217290907091345
  0.4986213829306286  0.7500681891667160  0.1232268276567176
  0.5019900034374585  0.7570080124200591  0.6319044419427882
  0.0005957129465755  0.2501204046275735  0.3750276695328856
  0.0001347036943179  0.2502470584207079  0.8750048491014027
  0.9958794200035981  0.7483263840949275  0.3740308106962656
  0.9991955596485936  0.7498062532114051  0.8748599085983501
  0.5008700714936452  0.2518341873075418  0.3782709092908655
  0.4994340024517059  0.2518571353712514  0.8743938199756371
  0.5019900034374585  0.7570080124200591  0.3680955580572118
  0.4986213829306286  0.7500681891667160  0.8767731723432823
  0.2494776921272548  0.9992484644566385  0.1254887223144293
  0.2513438531651851  0.0047619230866979  0.6250217610617457
  0.2508749155992549  0.4997782645909893  0.1237394608437168
  0.2495554324128382  0.4966512184776934  0.6275109236081371
  0.7494464091488733  0.9993995130811550  0.1248563396261753
  0.7503096644186968  0.0031646612707085  0.6249455658879963
  0.7482676749290422  0.5000154945512617  0.1252599397913363
  0.7539612964439190  0.4960314995849635  0.6267779013977436
  0.2513438531651851  0.0047619230866979  0.3749782389382543
  0.2494776921272548  0.9992484644566385  0.8745112776855707
  0.2495554324128382  0.4966512184776934  0.3724890763918630
  0.2508749155992549  0.4997782645909893  0.8762605391562832
  0.7503096644186968  0.0031646612707085  0.3750544341120037
  0.7494464091488733  0.9993995130811550  0.8751436603738247
  0.7539612964439190  0.4960314995849635  0.3732220986022565
  0.7482676749290422  0.5000154945512617  0.8747400602086637
  0.9998633431357110  0.9993723076255482 -0.0000000000000000
  0.9973369887311441  0.0056094891186949  0.5000000000000000
  0.9996379253937738  0.4999928803327351 -0.0000000000000000
  0.0009893008898811  0.4994993745360224  0.5000000000000000
  0.5002449972737842  0.0007115513169495 -0.0000000000000000
  0.5000793549885012  0.9984526408318672  0.5000000000000000
  0.4998639735459955  0.4991159680840100 -0.0000000000000000
  0.2502953091635408  0.2499906653296027 -0.0000000000000000
  0.2502470553871706  0.2525122684811880  0.5000000000000000
  0.2488981982012042  0.7504043809554356 -0.0000000000000000
  0.2390729310263267  0.7565056656928665  0.5000000000000000
  0.7497746591433510  0.2502683411485486 -0.0000000000000000
  0.7503148922307707  0.7505691704857883 -0.0000000000000000
  0.2505748353739141  0.2501818614802016  0.2500421598950916
  0.2505748353739141  0.2501818614802016  0.7499578401049013
  0.2503393242899101  0.7490940221477038  0.2500057881425433
  0.2503393242899101  0.7490940221477038  0.7499942118574567
  0.7500046742911817  0.2496969529353611  0.2500774895095192
  0.7500046742911817  0.2496969529353611  0.7499225104904809
  0.7493490521670687  0.7490474951240036  0.2496558062752023
  0.7493490521670687  0.7490474951240036  0.7503441937247977
  0.0002215286574760  0.9999019452500142  0.2506508399828248
  0.0002215286574760  0.9999019452500142  0.7493491600171751
  0.0007784557313086  0.4997859196038746  0.2496003920291780
  0.0007784557313086  0.4997859196038746  0.7503996079708219
  0.4999082284527457  0.0015653899319485  0.2496843212679329
  0.4999082284527457  0.0015653899319485  0.7503156787320671
  0.5002275306899093  0.5022899701940191  0.2523601825169509
  0.5002275306899093  0.5022899701940191  0.7476398174830491
  0.7484329050220331  0.2518874464129667  0.5000000000000000
  0.7503182958504475  0.7538811938822954  0.5000000000000000
  0.5010232591788623  0.5028335309283255  0.5000000000000000
  0.1094370933687967  0.1398571586071516  0.2479416861253736
  0.1094370933687967  0.1398571586071516  0.7520583138746264
  0.1091408633634643  0.6412530733157564  0.2509622359380442
  0.1091408633634643  0.6412530733157564  0.7490377640619559
  0.6089538306058132  0.1413743459958922  0.2500843448678463
  0.6089538306058132  0.1413743459958922  0.7499156551321536
  0.6089969566391603  0.6417384446770878  0.2430058402449157
  0.6089969566391603  0.6417384446770878  0.7569941597550843
  0.3908500282244137  0.3608426932017896  0.2552012465884073
  0.3908500282244137  0.3608426932017896  0.7447987534115927
  0.3896376339568119  0.8603421313292426  0.2483953689671767
  0.3896376339568119  0.8603421313292426  0.7516046310328233
  0.8900956500037832  0.3600154498519792  0.2503678011915967
  0.8900956500037832  0.3600154498519792  0.7496321988084033
  0.8890948034069615  0.8585388229680376  0.2539894508412333
  0.8890948034069615  0.8585388229680376  0.7460105491587667
  0.3591999887123850  0.1097861978956922  0.2483247332563569
  0.3591999887123850  0.1097861978956922  0.7516752667436430
  0.3587100605626453  0.6095642154904358  0.2458628161629107
  0.3587100605626453  0.6095642154904358  0.7541371838370822
  0.8591872320444475  0.1086826871857174  0.2481720996050266
  0.8591872320444475  0.1086826871857174  0.7518279003949734
  0.8594428526559157  0.6090551393264020  0.2496164495769089
  0.8594428526559157  0.6090551393264020  0.7503835504230911
  0.1406123402467150  0.3903838295002613  0.2483426706500055
  0.1406123402467150  0.3903838295002613  0.7516573293499946
  0.1408839517226790  0.8890455452844651  0.2544784803627870
  0.1408839517226790  0.8890455452844651  0.7455215196372130
  0.6401059904523014  0.3914121182965629  0.2534220158776690
  0.6401059904523014  0.3914121182965629  0.7465779841223310
  0.6399156722010888  0.8902859458282379  0.2526158985553073
  0.6399156722010888  0.8902859458282379  0.7473841014446926
  0.3589019113657947  0.3904241590451871 -0.0000000000000000
  0.3594749323974590  0.8905151198890741 -0.0000000000000000
  0.3599805671749215  0.8832117140534289  0.5000000000000000
  0.8591925645197733  0.3908938286787372 -0.0000000000000000
  0.8590280307136345  0.8916728101032674 -0.0000000000000000
  0.8627416724169117  0.8923799837338052  0.5000000000000000
  0.1407074242474194  0.1091471102106232 -0.0000000000000000
  0.1424382306581024  0.1041354573063846  0.5000000000000000
  0.1405360531630412  0.6092608639937154 -0.0000000000000000
  0.1524749074011613  0.6033534571702501  0.5000000000000000
  0.6415222960820006  0.1091693745415568 -0.0000000000000000
  0.6412099163413442  0.1080871532272501  0.5000000000000000
  0.6401750121932930  0.6101132787221074 -0.0000000000000000
  0.1090577367034904  0.3590128768008765 -0.0000000000000000
  0.1053614445518172  0.3541981985797835  0.5000000000000000
  0.1087165081919141  0.8588363522272361 -0.0000000000000000
  0.1058543807011790  0.8544623419342418  0.5000000000000000
  0.6095462582336182  0.3588477253549381 -0.0000000000000000
  0.6094598097913000  0.8594509339244526 -0.0000000000000000
  0.6035917056048024  0.8589259225594493  0.5000000000000000
  0.3912088034146829  0.1407009767354395 -0.0000000000000000
  0.3896231100711122  0.1393430279412870  0.5000000000000000
  0.3895747290008341  0.6401871647107760 -0.0000000000000000
  0.8911642528564921  0.1406108541474452 -0.0000000000000000
  0.8927857505440351  0.1420147047528128  0.5000000000000000
  0.8905449587929428  0.6410317934514472 -0.0000000000000000
  0.0007750909660165  0.9957939873744381  0.1255054605047675
  0.9998896039178743  0.0021893986420917  0.6252486615636863
  0.9999964062291492  0.5004930514450606  0.1248109444465539
  0.0023233047959323  0.4995479785500961  0.6257330134848046
  0.5016431337134593  0.9998279896156278  0.1248817264721008
  0.4973409903751815  0.0015616493335127  0.6257065084399702
  0.4994279730040979  0.4958096887325804  0.1248941083074989
  0.5018591962811066  0.5208955220184290  0.6233307142499421
  0.9998896039178743  0.0021893986420917  0.3747513384363138
  0.0007750909660165  0.9957939873744381  0.8744945394952326
  0.0023233047959323  0.4995479785500961  0.3742669865151954
  0.9999964062291492  0.5004930514450606  0.8751890555534462
  0.4973409903751815  0.0015616493335127  0.3742934915600297
  0.5016431337134593  0.9998279896156278  0.8751182735278993
  0.4994279730040979  0.4958096887325804  0.8751058916925011
  0.2467767383677645  0.2468430497318049  0.3738425781404864
  0.2522078363047434  0.2517577199423248  0.8750784483550053
  0.2610793530309420  0.7400758554368077  0.3774550834188641
  0.2475852499663435  0.7518776278042780  0.8749026240210882
  0.7492569801939515  0.2516361977296021  0.8748447384469790
  0.7524951850903467  0.7531083456028335  0.8751356735640667
  0.2522078363047434  0.2517577199423248  0.1249215516449947
  0.2467767383677645  0.2468430497318049  0.6261574218595136
  0.2475852499663435  0.7518776278042780  0.1250973759789118
  0.2610793530309420  0.7400758554368077  0.6225449165811359
  0.7492569801939515  0.2516361977296021  0.1251552615530211
  0.7525384121626258  0.2468440834840666  0.6258166968771224
  0.7524951850903467  0.7531083456028335  0.1248643264359333
  0.7405906164467184  0.7367342612932355  0.6245221125844328
  0.7525384121626258  0.2468440834840666  0.3741833031228776
  0.8603609872539654  0.3910105105981461  0.5000000000000000
  0.5018591962811066  0.5208955220184290  0.3766692857500579
  0.3517645683234907  0.3890377582693214  0.5000000000000000
  0.8953595966328519  0.6365082955029335  0.5000000000000000
  0.7405906164467184  0.7367342612932355  0.3754778874155673
  0.6164236044567009  0.3577365249133030  0.5000000000000000
 
  0.00000000E+00  0.00000000E+00  0.00000000E+00
  0.00000000E+00  0.00000000E+00  0.00000000E+00
  0.00000000E+00  0.00000000E+00  0.00000000E+00
  0.00000000E+00  0.00000000E+00  0.00000000E+00
  0.00000000E+00  0.00000000E+00  0.00000000E+00
  0.00000000E+00  0.00000000E+00  0.00000000E+00
  0.00000000E+00  0.00000000E+00  0.00000000E+00
  0.00000000E+00  0.00000000E+00  0.00000000E+00
  0.00000000E+00  0.00000000E+00  0.00000000E+00
  0.00000000E+00  0.00000000E+00  0.00000000E+00
  0.00000000E+00  0.00000000E+00  0.00000000E+00
  0.00000000E+00  0.00000000E+00  0.00000000E+00
  0.00000000E+00  0.00000000E+00  0.00000000E+00
  0.00000000E+00  0.00000000E+00  0.00000000E+00
  0.00000000E+00  0.00000000E+00  0.00000000E+00
  0.00000000E+00  0.00000000E+00  0.00000000E+00
  0.00000000E+00  0.00000000E+00  0.00000000E+00
  0.00000000E+00  0.00000000E+00  0.00000000E+00
  0.00000000E+00  0.00000000E+00  0.00000000E+00
  0.00000000E+00  0.00000000E+00  0.00000000E+00
  0.00000000E+00  0.00000000E+00  0.00000000E+00
  0.00000000E+00  0.00000000E+00  0.00000000E+00
  0.00000000E+00  0.00000000E+00  0.00000000E+00
  0.00000000E+00  0.00000000E+00  0.00000000E+00
  0.00000000E+00  0.00000000E+00  0.00000000E+00
  0.00000000E+00  0.00000000E+00  0.00000000E+00
  0.00000000E+00  0.00000000E+00  0.00000000E+00
  0.00000000E+00  0.00000000E+00  0.00000000E+00
  0.00000000E+00  0.00000000E+00  0.00000000E+00
  0.00000000E+00  0.00000000E+00  0.00000000E+00
  0.00000000E+00  0.00000000E+00  0.00000000E+00
  0.00000000E+00  0.00000000E+00  0.00000000E+00
  0.00000000E+00  0.00000000E+00  0.00000000E+00
  0.00000000E+00  0.00000000E+00  0.00000000E+00
  0.00000000E+00  0.00000000E+00  0.00000000E+00
  0.00000000E+00  0.00000000E+00  0.00000000E+00
  0.00000000E+00  0.00000000E+00  0.00000000E+00
  0.00000000E+00  0.00000000E+00  0.00000000E+00
  0.00000000E+00  0.00000000E+00  0.00000000E+00
  0.00000000E+00  0.00000000E+00  0.00000000E+00
  0.00000000E+00  0.00000000E+00  0.00000000E+00
  0.00000000E+00  0.00000000E+00  0.00000000E+00
  0.00000000E+00  0.00000000E+00  0.00000000E+00
  0.00000000E+00  0.00000000E+00  0.00000000E+00
  0.00000000E+00  0.00000000E+00  0.00000000E+00
  0.00000000E+00  0.00000000E+00  0.00000000E+00
  0.00000000E+00  0.00000000E+00  0.00000000E+00
  0.00000000E+00  0.00000000E+00  0.00000000E+00
  0.00000000E+00  0.00000000E+00  0.00000000E+00
  0.00000000E+00  0.00000000E+00  0.00000000E+00
  0.00000000E+00  0.00000000E+00  0.00000000E+00
  0.00000000E+00  0.00000000E+00  0.00000000E+00
  0.00000000E+00  0.00000000E+00  0.00000000E+00
  0.00000000E+00  0.00000000E+00  0.00000000E+00
  0.00000000E+00  0.00000000E+00  0.00000000E+00
  0.00000000E+00  0.00000000E+00  0.00000000E+00
  0.00000000E+00  0.00000000E+00  0.00000000E+00
  0.00000000E+00  0.00000000E+00  0.00000000E+00
  0.00000000E+00  0.00000000E+00  0.00000000E+00
  0.00000000E+00  0.00000000E+00  0.00000000E+00
  0.00000000E+00  0.00000000E+00  0.00000000E+00
  0.00000000E+00  0.00000000E+00  0.00000000E+00
  0.00000000E+00  0.00000000E+00  0.00000000E+00
  0.00000000E+00  0.00000000E+00  0.00000000E+00
  0.00000000E+00  0.00000000E+00  0.00000000E+00
  0.00000000E+00  0.00000000E+00  0.00000000E+00
  0.00000000E+00  0.00000000E+00  0.00000000E+00
  0.00000000E+00  0.00000000E+00  0.00000000E+00
  0.00000000E+00  0.00000000E+00  0.00000000E+00
  0.00000000E+00  0.00000000E+00  0.00000000E+00
  0.00000000E+00  0.00000000E+00  0.00000000E+00
  0.00000000E+00  0.00000000E+00  0.00000000E+00
  0.00000000E+00  0.00000000E+00  0.00000000E+00
  0.00000000E+00  0.00000000E+00  0.00000000E+00
  0.00000000E+00  0.00000000E+00  0.00000000E+00
  0.00000000E+00  0.00000000E+00  0.00000000E+00
  0.00000000E+00  0.00000000E+00  0.00000000E+00
  0.00000000E+00  0.00000000E+00  0.00000000E+00
  0.00000000E+00  0.00000000E+00  0.00000000E+00
  0.00000000E+00  0.00000000E+00  0.00000000E+00
  0.00000000E+00  0.00000000E+00  0.00000000E+00
  0.00000000E+00  0.00000000E+00  0.00000000E+00
  0.00000000E+00  0.00000000E+00  0.00000000E+00
  0.00000000E+00  0.00000000E+00  0.00000000E+00
  0.00000000E+00  0.00000000E+00  0.00000000E+00
  0.00000000E+00  0.00000000E+00  0.00000000E+00
  0.00000000E+00  0.00000000E+00  0.00000000E+00
  0.00000000E+00  0.00000000E+00  0.00000000E+00
  0.00000000E+00  0.00000000E+00  0.00000000E+00
  0.00000000E+00  0.00000000E+00  0.00000000E+00
  0.00000000E+00  0.00000000E+00  0.00000000E+00
  0.00000000E+00  0.00000000E+00  0.00000000E+00
  0.00000000E+00  0.00000000E+00  0.00000000E+00
  0.00000000E+00  0.00000000E+00  0.00000000E+00
  0.00000000E+00  0.00000000E+00  0.00000000E+00
  0.00000000E+00  0.00000000E+00  0.00000000E+00
  0.00000000E+00  0.00000000E+00  0.00000000E+00
  0.00000000E+00  0.00000000E+00  0.00000000E+00
  0.00000000E+00  0.00000000E+00  0.00000000E+00
  0.00000000E+00  0.00000000E+00  0.00000000E+00
  0.00000000E+00  0.00000000E+00  0.00000000E+00
  0.00000000E+00  0.00000000E+00  0.00000000E+00
  0.00000000E+00  0.00000000E+00  0.00000000E+00
  0.00000000E+00  0.00000000E+00  0.00000000E+00
  0.00000000E+00  0.00000000E+00  0.00000000E+00
  0.00000000E+00  0.00000000E+00  0.00000000E+00
  0.00000000E+00  0.00000000E+00  0.00000000E+00
  0.00000000E+00  0.00000000E+00  0.00000000E+00
  0.00000000E+00  0.00000000E+00  0.00000000E+00
  0.00000000E+00  0.00000000E+00  0.00000000E+00
  0.00000000E+00  0.00000000E+00  0.00000000E+00
  0.00000000E+00  0.00000000E+00  0.00000000E+00
  0.00000000E+00  0.00000000E+00  0.00000000E+00
  0.00000000E+00  0.00000000E+00  0.00000000E+00
  0.00000000E+00  0.00000000E+00  0.00000000E+00
  0.00000000E+00  0.00000000E+00  0.00000000E+00
  0.00000000E+00  0.00000000E+00  0.00000000E+00
  0.00000000E+00  0.00000000E+00  0.00000000E+00
  0.00000000E+00  0.00000000E+00  0.00000000E+00
  0.00000000E+00  0.00000000E+00  0.00000000E+00
  0.00000000E+00  0.00000000E+00  0.00000000E+00
  0.00000000E+00  0.00000000E+00  0.00000000E+00
  0.00000000E+00  0.00000000E+00  0.00000000E+00
  0.00000000E+00  0.00000000E+00  0.00000000E+00
  0.00000000E+00  0.00000000E+00  0.00000000E+00
  0.00000000E+00  0.00000000E+00  0.00000000E+00
  0.00000000E+00  0.00000000E+00  0.00000000E+00
  0.00000000E+00  0.00000000E+00  0.00000000E+00
  0.00000000E+00  0.00000000E+00  0.00000000E+00
  0.00000000E+00  0.00000000E+00  0.00000000E+00
  0.00000000E+00  0.00000000E+00  0.00000000E+00
  0.00000000E+00  0.00000000E+00  0.00000000E+00
  0.00000000E+00  0.00000000E+00  0.00000000E+00
  0.00000000E+00  0.00000000E+00  0.00000000E+00
  0.00000000E+00  0.00000000E+00  0.00000000E+00
  0.00000000E+00  0.00000000E+00  0.00000000E+00
  0.00000000E+00  0.00000000E+00  0.00000000E+00
  0.00000000E+00  0.00000000E+00  0.00000000E+00
  0.00000000E+00  0.00000000E+00  0.00000000E+00
  0.00000000E+00  0.00000000E+00  0.00000000E+00
  0.00000000E+00  0.00000000E+00  0.00000000E+00
  0.00000000E+00  0.00000000E+00  0.00000000E+00
  0.00000000E+00  0.00000000E+00  0.00000000E+00
  0.00000000E+00  0.00000000E+00  0.00000000E+00
  0.00000000E+00  0.00000000E+00  0.00000000E+00
  0.00000000E+00  0.00000000E+00  0.00000000E+00
  0.00000000E+00  0.00000000E+00  0.00000000E+00
  0.00000000E+00  0.00000000E+00  0.00000000E+00
  0.00000000E+00  0.00000000E+00  0.00000000E+00
  0.00000000E+00  0.00000000E+00  0.00000000E+00
  0.00000000E+00  0.00000000E+00  0.00000000E+00
  0.00000000E+00  0.00000000E+00  0.00000000E+00
  0.00000000E+00  0.00000000E+00  0.00000000E+00
  0.00000000E+00  0.00000000E+00  0.00000000E+00
  0.00000000E+00  0.00000000E+00  0.00000000E+00
  0.00000000E+00  0.00000000E+00  0.00000000E+00
  0.00000000E+00  0.00000000E+00  0.00000000E+00
  0.00000000E+00  0.00000000E+00  0.00000000E+00
