Sr   Ti   Fe   O                        
   1.00000000000000     
    11.1989999999999998    0.0000000000000000    0.0000000000000000
     0.0000000000000000   11.1989999999999998    0.0000000000000000
     0.0000000000000000    0.0000000000000000   15.9830000000000005
   Sr   Ti   Fe   O 
    32    31     1    94
Direct
  0.9993753705736853  0.2507534643456774  0.1249284982690518
  0.0041007507235103  0.2501637533034282  0.6244734030457608
  0.9984392211273425  0.7500482615876263  0.1251874646407472
  0.0001090213692449  0.7491181504592155  0.6270561738585791
  0.4991406024646899  0.2522342704935975  0.1248831462752919
  0.4964570168925558  0.2436649266043399  0.6270699255972069
  0.4980631237534771  0.7483729016508951  0.1236606234651416
  0.5020930138102493  0.7561568790542236  0.6312922762260207
  0.0041007507235103  0.2501637533034282  0.3755265969542392
  0.9993753705736853  0.2507534643456774  0.8750715017309482
  0.0001090213692449  0.7491181504592155  0.3729438261414209
  0.9984392211273425  0.7500482615876263  0.8748125353592527
  0.4964570168925558  0.2436649266043399  0.3729300744027931
  0.4991406024646899  0.2522342704935975  0.8751168537247080
  0.5020930138102493  0.7561568790542236  0.3687077237739794
  0.4980631237534771  0.7483729016508951  0.8763393765348584
  0.2485293777666721  0.9990444053551314  0.1254442584059623
  0.2504040965302674  0.0013099864197189  0.6230809414631534
  0.2502818980448000  0.4990542910594840  0.1228843274690227
  0.2510671174366191  0.4940065526397674  0.6294785398483693
  0.7493581273996632  0.0000803238552570  0.1256663393856314
  0.7480412291748985  0.0016991724669615  0.6233957821881744
  0.7472100748628870  0.5005636521104744  0.1245282518183698
  0.7607139463144107  0.4968308846226990  0.6304190645562736
  0.2504040965302674  0.0013099864197189  0.3769190585368466
  0.2485293777666721  0.9990444053551314  0.8745557415940377
  0.2510671174366191  0.4940065526397674  0.3705214601516378
  0.2502818980448000  0.4990542910594840  0.8771156725309773
  0.7480412291748985  0.0016991724669615  0.3766042178118257
  0.7493581273996632  0.0000803238552570  0.8743336606143758
  0.7607139463144107  0.4968308846226990  0.3695809354437335
  0.7472100748628870  0.5005636521104744  0.8754717481816302
  0.9987245974571335  0.9996995229335168  0.0000000000000000
  0.0009744405494921  0.9985271786400701  0.5000000000000000
  0.9991437848378059  0.4999067612944798  0.0000000000000000
  0.0066190346471207  0.4997407280706680  0.5000000000000000
  0.4998641491238859  0.0002389852484432  0.0000000000000000
  0.4975147871968930  0.9975956745161124  0.5000000000000000
  0.4993729222483372  0.4993817758423229  0.0000000000000000
  0.2496375499849409  0.2490120609115487  0.0000000000000000
  0.2509309901730530  0.2508447782518595  0.5000000000000000
  0.2482753414665200  0.7511798807880808  0.0000000000000000
  0.2439539322885463  0.7480171113085682  0.5000000000000000
  0.7496524459356591  0.2500398249732987  0.0000000000000000
  0.7493466436637509  0.7510696583559583  0.0000000000000000
  0.2497810866188663  0.2488178285891441  0.2491899994153637
  0.2497810866188663  0.2488178285891441  0.7508100005846220
  0.2502631237636166  0.7487350341029350  0.2494811275319640
  0.2502631237636166  0.7487350341029350  0.7505188724680290
  0.7487454242118181  0.2511844463910887  0.2500691053728418
  0.7487454242118181  0.2511844463910887  0.7499308946271511
  0.7495076159688948  0.7489481164065784  0.2496601206013738
  0.7495076159688948  0.7489481164065784  0.7503398793986262
  0.9992764110952375  0.0003543433602022  0.2513275573631897
  0.9992764110952375  0.0003543433602022  0.7486724426368103
  0.0014720413360478  0.4999913144538486  0.2488873556477191
  0.0014720413360478  0.4999913144538486  0.7511126443522809
  0.4997474122350967  0.0003238102880344  0.2492552887903514
  0.4997474122350967  0.0003238102880344  0.7507447112096487
  0.4985963654325954  0.5018042308470311  0.2523486376266114
  0.4985963654325954  0.5018042308470311  0.7476513623733886
  0.7602605005126916  0.2515733568107225  0.5000000000000000
  0.7567266773076006  0.7494418607635843  0.5000000000000000
  0.4993939798742061  0.4893401998783741  0.5000000000000000
  0.1084797078222064  0.1397202257262949  0.2480775401215390
  0.1084797078222064  0.1397202257262949  0.7519224598784610
  0.1098090552449743  0.6408072378887467  0.2487666237777505
  0.1098090552449743  0.6408072378887467  0.7512333762222424
  0.6089934956679230  0.1413800536939539  0.2499380399617480
  0.6089934956679230  0.1413800536939539  0.7500619600382520
  0.6093664553861031  0.6409932206592883  0.2451023307902055
  0.6093664553861031  0.6409932206592883  0.7548976692097945
  0.3889335875599395  0.3595254941953596  0.2513663340391303
  0.3889335875599395  0.3595254941953596  0.7486336659608698
  0.3901195923321684  0.8603303176267143  0.2490125217253427
  0.3901195923321684  0.8603303176267143  0.7509874782746573
  0.8890939536311946  0.3609668891045857  0.2516594354505261
  0.8890939536311946  0.3609668891045857  0.7483405645494740
  0.8880287621763586  0.8601749676090951  0.2542923956600630
  0.8880287621763586  0.8601749676090951  0.7457076043399370
  0.3595562674172512  0.1094037190682792  0.2494632185597515
  0.3595562674172512  0.1094037190682792  0.7505367814402485
  0.3579799847991537  0.6109127155222729  0.2410944886848058
  0.3579799847991537  0.6109127155222729  0.7589055113151942
  0.8575205086089031  0.1113621206399022  0.2535803363172778
  0.8575205086089031  0.1113621206399022  0.7464196636827222
  0.8621567542891418  0.6119003148693415  0.2464318553162793
  0.8621567542891418  0.6119003148693415  0.7535681446837136
  0.1396171803830876  0.3889563059438942  0.2475966506063906
  0.1396171803830876  0.3889563059438942  0.7524033493936164
  0.1392268101120583  0.8894111876091627  0.2549053532298168
  0.1392268101120583  0.8894111876091627  0.7450946467701760
  0.6379131927084416  0.3911259966506906  0.2507431170465408
  0.6379131927084416  0.3911259966506906  0.7492568829534592
  0.6398229055390046  0.8899515349215342  0.2534788211238597
  0.6398229055390046  0.8899515349215342  0.7465211788761403
  0.3586854365047622  0.3892253557563238  0.0000000000000000
  0.3588867395558496  0.8914638064234118  0.0000000000000000
  0.3626196848039423  0.8901482481870732  0.5000000000000000
  0.8585511669980029  0.3908923420086124  0.0000000000000000
  0.8577389567245108  0.8921987435345760  0.0000000000000000
  0.8593027671147635  0.8952424827959300  0.5000000000000000
  0.1397805497626686  0.1082904310795420  0.0000000000000000
  0.1372069345403150  0.1102942741973997  0.5000000000000000
  0.1394894500221341  0.6099424649152665  0.0000000000000000
  0.1585105730105268  0.5956766263248848  0.5000000000000000
  0.6415388971070757  0.1091969597340144  0.0000000000000000
  0.6300818958697350  0.1308669821611798  0.5000000000000000
  0.6398790974335287  0.6106842013751872  0.0000000000000000
  0.1091491960396082  0.3588701971978203  0.0000000000000000
  0.1130777886674044  0.3567718076234470  0.5000000000000000
  0.1065858723022742  0.8601627759359440  0.0000000000000000
  0.1089088268972540  0.8623802721984699  0.5000000000000000
  0.6100330016004996  0.3585495846631563  0.0000000000000000
  0.6081929206437703  0.8592719809644356  0.0000000000000000
  0.6078973997343600  0.8625149593763568  0.5000000000000000
  0.3911138857359467  0.1402913630407975  0.0000000000000000
  0.3859927582349653  0.1380700376581410  0.5000000000000000
  0.3878703067068667  0.6405550613108932  0.0000000000000000
  0.8908372704855897  0.1414161315737005  0.0000000000000000
  0.8848162058515748  0.1395435119948542  0.5000000000000000
  0.8896552113927150  0.6410557890258227  0.0000000000000000
  0.9969344827362722  0.9982155779725906  0.1262961539070787
  0.9991320667519840  0.0031656739872292  0.6245282809725031
  0.9999856293987673  0.4986120982341118  0.1243369334645641
  0.0048230499214240  0.5012054227297915  0.6265914792729226
  0.5018387586370118  0.9998658074020859  0.1251024858342892
  0.4995756808706149  0.0031012878298732  0.6258165798602006
  0.4998451562736926  0.4972095406817778  0.1235661709460678
  0.4863774133209404  0.5177364118600392  0.6267525072182453
  0.9991320667519840  0.0031656739872292  0.3754717190274968
  0.9969344827362722  0.9982155779725906  0.8737038460929213
  0.0048230499214240  0.5012054227297915  0.3734085207270774
  0.9999856293987673  0.4986120982341118  0.8756630665354359
  0.4995756808706149  0.0031012878298732  0.3741834201397994
  0.5018387586370118  0.9998658074020859  0.8748975141657108
  0.4998451562736926  0.4972095406817778  0.8764338290539322
  0.2478102441099499  0.2468595748810981  0.3733669389580285
  0.2504671510857006  0.2487111115458774  0.8755084780749517
  0.2609061553219241  0.7386961484648771  0.3752953709243605
  0.2457214237409041  0.7559608442891831  0.8756179203582014
  0.7505312134700900  0.2507236778362028  0.8742266276136853
  0.7505574130978402  0.7540392859261392  0.8750344826983313
  0.2504671510857006  0.2487111115458774  0.1244915219250483
  0.2478102441099499  0.2468595748810981  0.6266330610419644
  0.2457214237409041  0.7559608442891831  0.1243820796417986
  0.2609061553219241  0.7386961484648771  0.6247046290756395
  0.7505312134700900  0.2507236778362028  0.1257733723863147
  0.7414697829200954  0.2594918220378772  0.6227056731259640
  0.7505574130978402  0.7540392859261392  0.1249655173016687
  0.7430990885818476  0.7356518194495674  0.6242901796227102
  0.7414697829200954  0.2594918220378772  0.3772943268740360
  0.8777116325438491  0.3803576869029394  0.5000000000000000
  0.4863774133209404  0.5177364118600392  0.3732474927817547
  0.3584356661287583  0.3861950111128140  0.5000000000000000
  0.9041354806090167  0.6385527000844398  0.5000000000000000
  0.7430990885818476  0.7356518194495674  0.3757098203772898
  0.6640450638024123  0.4822812855783473  0.5000000000000000
 
  0.00000000E+00  0.00000000E+00  0.00000000E+00
  0.00000000E+00  0.00000000E+00  0.00000000E+00
  0.00000000E+00  0.00000000E+00  0.00000000E+00
  0.00000000E+00  0.00000000E+00  0.00000000E+00
  0.00000000E+00  0.00000000E+00  0.00000000E+00
  0.00000000E+00  0.00000000E+00  0.00000000E+00
  0.00000000E+00  0.00000000E+00  0.00000000E+00
  0.00000000E+00  0.00000000E+00  0.00000000E+00
  0.00000000E+00  0.00000000E+00  0.00000000E+00
  0.00000000E+00  0.00000000E+00  0.00000000E+00
  0.00000000E+00  0.00000000E+00  0.00000000E+00
  0.00000000E+00  0.00000000E+00  0.00000000E+00
  0.00000000E+00  0.00000000E+00  0.00000000E+00
  0.00000000E+00  0.00000000E+00  0.00000000E+00
  0.00000000E+00  0.00000000E+00  0.00000000E+00
  0.00000000E+00  0.00000000E+00  0.00000000E+00
  0.00000000E+00  0.00000000E+00  0.00000000E+00
  0.00000000E+00  0.00000000E+00  0.00000000E+00
  0.00000000E+00  0.00000000E+00  0.00000000E+00
  0.00000000E+00  0.00000000E+00  0.00000000E+00
  0.00000000E+00  0.00000000E+00  0.00000000E+00
  0.00000000E+00  0.00000000E+00  0.00000000E+00
  0.00000000E+00  0.00000000E+00  0.00000000E+00
  0.00000000E+00  0.00000000E+00  0.00000000E+00
  0.00000000E+00  0.00000000E+00  0.00000000E+00
  0.00000000E+00  0.00000000E+00  0.00000000E+00
  0.00000000E+00  0.00000000E+00  0.00000000E+00
  0.00000000E+00  0.00000000E+00  0.00000000E+00
  0.00000000E+00  0.00000000E+00  0.00000000E+00
  0.00000000E+00  0.00000000E+00  0.00000000E+00
  0.00000000E+00  0.00000000E+00  0.00000000E+00
  0.00000000E+00  0.00000000E+00  0.00000000E+00
  0.00000000E+00  0.00000000E+00  0.00000000E+00
  0.00000000E+00  0.00000000E+00  0.00000000E+00
  0.00000000E+00  0.00000000E+00  0.00000000E+00
  0.00000000E+00  0.00000000E+00  0.00000000E+00
  0.00000000E+00  0.00000000E+00  0.00000000E+00
  0.00000000E+00  0.00000000E+00  0.00000000E+00
  0.00000000E+00  0.00000000E+00  0.00000000E+00
  0.00000000E+00  0.00000000E+00  0.00000000E+00
  0.00000000E+00  0.00000000E+00  0.00000000E+00
  0.00000000E+00  0.00000000E+00  0.00000000E+00
  0.00000000E+00  0.00000000E+00  0.00000000E+00
  0.00000000E+00  0.00000000E+00  0.00000000E+00
  0.00000000E+00  0.00000000E+00  0.00000000E+00
  0.00000000E+00  0.00000000E+00  0.00000000E+00
  0.00000000E+00  0.00000000E+00  0.00000000E+00
  0.00000000E+00  0.00000000E+00  0.00000000E+00
  0.00000000E+00  0.00000000E+00  0.00000000E+00
  0.00000000E+00  0.00000000E+00  0.00000000E+00
  0.00000000E+00  0.00000000E+00  0.00000000E+00
  0.00000000E+00  0.00000000E+00  0.00000000E+00
  0.00000000E+00  0.00000000E+00  0.00000000E+00
  0.00000000E+00  0.00000000E+00  0.00000000E+00
  0.00000000E+00  0.00000000E+00  0.00000000E+00
  0.00000000E+00  0.00000000E+00  0.00000000E+00
  0.00000000E+00  0.00000000E+00  0.00000000E+00
  0.00000000E+00  0.00000000E+00  0.00000000E+00
  0.00000000E+00  0.00000000E+00  0.00000000E+00
  0.00000000E+00  0.00000000E+00  0.00000000E+00
  0.00000000E+00  0.00000000E+00  0.00000000E+00
  0.00000000E+00  0.00000000E+00  0.00000000E+00
  0.00000000E+00  0.00000000E+00  0.00000000E+00
  0.00000000E+00  0.00000000E+00  0.00000000E+00
  0.00000000E+00  0.00000000E+00  0.00000000E+00
  0.00000000E+00  0.00000000E+00  0.00000000E+00
  0.00000000E+00  0.00000000E+00  0.00000000E+00
  0.00000000E+00  0.00000000E+00  0.00000000E+00
  0.00000000E+00  0.00000000E+00  0.00000000E+00
  0.00000000E+00  0.00000000E+00  0.00000000E+00
  0.00000000E+00  0.00000000E+00  0.00000000E+00
  0.00000000E+00  0.00000000E+00  0.00000000E+00
  0.00000000E+00  0.00000000E+00  0.00000000E+00
  0.00000000E+00  0.00000000E+00  0.00000000E+00
  0.00000000E+00  0.00000000E+00  0.00000000E+00
  0.00000000E+00  0.00000000E+00  0.00000000E+00
  0.00000000E+00  0.00000000E+00  0.00000000E+00
  0.00000000E+00  0.00000000E+00  0.00000000E+00
  0.00000000E+00  0.00000000E+00  0.00000000E+00
  0.00000000E+00  0.00000000E+00  0.00000000E+00
  0.00000000E+00  0.00000000E+00  0.00000000E+00
  0.00000000E+00  0.00000000E+00  0.00000000E+00
  0.00000000E+00  0.00000000E+00  0.00000000E+00
  0.00000000E+00  0.00000000E+00  0.00000000E+00
  0.00000000E+00  0.00000000E+00  0.00000000E+00
  0.00000000E+00  0.00000000E+00  0.00000000E+00
  0.00000000E+00  0.00000000E+00  0.00000000E+00
  0.00000000E+00  0.00000000E+00  0.00000000E+00
  0.00000000E+00  0.00000000E+00  0.00000000E+00
  0.00000000E+00  0.00000000E+00  0.00000000E+00
  0.00000000E+00  0.00000000E+00  0.00000000E+00
  0.00000000E+00  0.00000000E+00  0.00000000E+00
  0.00000000E+00  0.00000000E+00  0.00000000E+00
  0.00000000E+00  0.00000000E+00  0.00000000E+00
  0.00000000E+00  0.00000000E+00  0.00000000E+00
  0.00000000E+00  0.00000000E+00  0.00000000E+00
  0.00000000E+00  0.00000000E+00  0.00000000E+00
  0.00000000E+00  0.00000000E+00  0.00000000E+00
  0.00000000E+00  0.00000000E+00  0.00000000E+00
  0.00000000E+00  0.00000000E+00  0.00000000E+00
  0.00000000E+00  0.00000000E+00  0.00000000E+00
  0.00000000E+00  0.00000000E+00  0.00000000E+00
  0.00000000E+00  0.00000000E+00  0.00000000E+00
  0.00000000E+00  0.00000000E+00  0.00000000E+00
  0.00000000E+00  0.00000000E+00  0.00000000E+00
  0.00000000E+00  0.00000000E+00  0.00000000E+00
  0.00000000E+00  0.00000000E+00  0.00000000E+00
  0.00000000E+00  0.00000000E+00  0.00000000E+00
  0.00000000E+00  0.00000000E+00  0.00000000E+00
  0.00000000E+00  0.00000000E+00  0.00000000E+00
  0.00000000E+00  0.00000000E+00  0.00000000E+00
  0.00000000E+00  0.00000000E+00  0.00000000E+00
  0.00000000E+00  0.00000000E+00  0.00000000E+00
  0.00000000E+00  0.00000000E+00  0.00000000E+00
  0.00000000E+00  0.00000000E+00  0.00000000E+00
  0.00000000E+00  0.00000000E+00  0.00000000E+00
  0.00000000E+00  0.00000000E+00  0.00000000E+00
  0.00000000E+00  0.00000000E+00  0.00000000E+00
  0.00000000E+00  0.00000000E+00  0.00000000E+00
  0.00000000E+00  0.00000000E+00  0.00000000E+00
  0.00000000E+00  0.00000000E+00  0.00000000E+00
  0.00000000E+00  0.00000000E+00  0.00000000E+00
  0.00000000E+00  0.00000000E+00  0.00000000E+00
  0.00000000E+00  0.00000000E+00  0.00000000E+00
  0.00000000E+00  0.00000000E+00  0.00000000E+00
  0.00000000E+00  0.00000000E+00  0.00000000E+00
  0.00000000E+00  0.00000000E+00  0.00000000E+00
  0.00000000E+00  0.00000000E+00  0.00000000E+00
  0.00000000E+00  0.00000000E+00  0.00000000E+00
  0.00000000E+00  0.00000000E+00  0.00000000E+00
  0.00000000E+00  0.00000000E+00  0.00000000E+00
  0.00000000E+00  0.00000000E+00  0.00000000E+00
  0.00000000E+00  0.00000000E+00  0.00000000E+00
  0.00000000E+00  0.00000000E+00  0.00000000E+00
  0.00000000E+00  0.00000000E+00  0.00000000E+00
  0.00000000E+00  0.00000000E+00  0.00000000E+00
  0.00000000E+00  0.00000000E+00  0.00000000E+00
  0.00000000E+00  0.00000000E+00  0.00000000E+00
  0.00000000E+00  0.00000000E+00  0.00000000E+00
  0.00000000E+00  0.00000000E+00  0.00000000E+00
  0.00000000E+00  0.00000000E+00  0.00000000E+00
  0.00000000E+00  0.00000000E+00  0.00000000E+00
  0.00000000E+00  0.00000000E+00  0.00000000E+00
  0.00000000E+00  0.00000000E+00  0.00000000E+00
  0.00000000E+00  0.00000000E+00  0.00000000E+00
  0.00000000E+00  0.00000000E+00  0.00000000E+00
  0.00000000E+00  0.00000000E+00  0.00000000E+00
  0.00000000E+00  0.00000000E+00  0.00000000E+00
  0.00000000E+00  0.00000000E+00  0.00000000E+00
  0.00000000E+00  0.00000000E+00  0.00000000E+00
  0.00000000E+00  0.00000000E+00  0.00000000E+00
  0.00000000E+00  0.00000000E+00  0.00000000E+00
  0.00000000E+00  0.00000000E+00  0.00000000E+00
  0.00000000E+00  0.00000000E+00  0.00000000E+00
  0.00000000E+00  0.00000000E+00  0.00000000E+00
  0.00000000E+00  0.00000000E+00  0.00000000E+00
  0.00000000E+00  0.00000000E+00  0.00000000E+00
  0.00000000E+00  0.00000000E+00  0.00000000E+00
