SrTiFeO                                 
   1.00000000000000     
    11.1989999999999998    0.0000000000000000    0.0000000000000000
     0.0000000000000000   11.1989999999999998    0.0000000000000000
     0.0000000000000000    0.0000000000000000   15.9830000000000005
   Sr   Ti   Fe   O 
    32    30     2    95
Direct
 -0.0001522195234352  0.2501522195234352  0.1249454058474514
  0.0004864633417758  0.2495135366582241  0.6247111790517447
 -0.0015444678512506  0.7502227454993606  0.1256155393938550
  0.0008770865714777  0.7481869164791259  0.6237287931691472
  0.4997772545006391  0.2515444678512505  0.1256155393938550
  0.5018130835208741  0.2491229134285223  0.6237287931691472
  0.5000596654962062  0.7499403345037938  0.1239830124332184
  0.4986153726077075  0.7513846273922927  0.6275800270064887
  0.0004864633417758  0.2495135366582241  0.3752888209482554
 -0.0001522195234352  0.2501522195234352  0.8750545941525484
  0.0008770865714777  0.7481869164791259  0.3762712068308528
 -0.0015444678512506  0.7502227454993606  0.8743844606061452
  0.5018130835208741  0.2491229134285223  0.3762712068308528
  0.4997772545006391  0.2515444678512505  0.8743844606061452
  0.4986153726077075  0.7513846273922927  0.3724199729935112
  0.5000596654962062  0.7499403345037938  0.8760169875667817
  0.2501515926944726 -0.0001515926944726  0.1250767690724714
  0.2501935935177068 -0.0001935935177068  0.6252534009203203
  0.2511631587717080  0.5005278554529198  0.1249534282600000
  0.2476565441336348  0.4997552153443800  0.6253684548221468
  0.7494721445470801 -0.0011631587717080  0.1249534282600000
  0.7502447846556201  0.0023434558663652  0.6253684548221468
  0.7487469213769480  0.5012530786230520  0.1247958272982997
  0.7541153049537194  0.4958846950462806  0.6276116506185790
  0.2501935935177068 -0.0001935935177068  0.3747465990796794
  0.2501515926944726 -0.0001515926944726  0.8749232309275283
  0.2476565441336348  0.4997552153443800  0.3746315451778533
  0.2511631587717080  0.5005278554529198  0.8750465717400001
  0.7502447846556201  0.0023434558663652  0.3746315451778533
  0.7494721445470801 -0.0011631587717080  0.8750465717400001
  0.7541153049537194  0.4958846950462806  0.3723883493814213
  0.7487469213769480  0.5012530786230520  0.8752041727017003
 -0.0003661935047318 -0.0004689680959479 -0.0000000000000000
  0.0018774334967127  0.0010753083252294  0.5000000000000000
  0.0000212228242472  0.4997636481587427 -0.0000000000000000
 -0.0012534757986110  0.5000676493305058  0.5000000000000000
  0.5001023919753355  0.0003854745727149 -0.0000000000000000
  0.5005574719515097 -0.0025234455234855  0.5000000000000000
  0.4994330291495360  0.4994958309714786 -0.0000000000000000
  0.2504689680959480  0.2503661935047319 -0.0000000000000000
  0.2489246916747705  0.2481225665032873  0.5000000000000000
  0.2496145254272850  0.7498976080246645 -0.0000000000000000
  0.2525234455234855  0.7494425280484903  0.5000000000000000
  0.7502363518412573  0.2499787771757528 -0.0000000000000000
  0.7505041690285215  0.7505669708504640 -0.0000000000000000
  0.2502599590777877  0.2500134753866446  0.2503914088920144
  0.2502599590777877  0.2500134753866446  0.7496085911079853
  0.2497047434195225  0.7499196803653239  0.2499631592273572
  0.2497047434195225  0.7499196803653239  0.7500368407726428
  0.7500887537092826  0.2495066820220747  0.2495654833945813
  0.7500887537092826  0.2495066820220747  0.7504345166054189
  0.7489408340300614  0.7488572685915305  0.2523561234775604
  0.7489408340300614  0.7488572685915305  0.7476438765224391
 -0.0000134753866446 -0.0002599590777877  0.2503914088920144
 -0.0000134753866446 -0.0002599590777877  0.7496085911079853
  0.0004933179779253  0.4999112462907174  0.2495654833945813
  0.0004933179779253  0.4999112462907174  0.7504345166054189
  0.5000803196346760  0.0002952565804776  0.2499631592273572
  0.5000803196346760  0.0002952565804776  0.7500368407726428
  0.5011427314084694  0.5010591659699386  0.2523561234775604
  0.5011427314084694  0.5010591659699386  0.7476438765224391
  0.7499323506694942  0.2512534757986110  0.5000000000000000
  0.4875161628798820  0.4921493987036992  0.5000000000000000
  0.7578506012963008  0.7624838371201178  0.5000000000000000
  0.1091854772458795  0.1408145227541204  0.2483053176675642
  0.1091854772458795  0.1408145227541204  0.7516946823324360
  0.1088566176417496  0.6410392271971570  0.2500088474551708
  0.1088566176417496  0.6410392271971570  0.7499911525448293
  0.6089607728028430  0.1411433823582505  0.2500088474551708
  0.6089607728028430  0.1411433823582505  0.7499911525448293
  0.6089665962757762  0.6410334037242238  0.2442383286606951
  0.6089665962757762  0.6410334037242238  0.7557616713393049
  0.3915529237575687  0.3604908542578824  0.2555618133794708
  0.3915529237575687  0.3604908542578824  0.7444381866205291
  0.3900140957301515  0.8599859042698482  0.2495948575444590
  0.3900140957301515  0.8599859042698482  0.7504051424555411
  0.8907098235877555  0.3592901764122442  0.2512578063175934
  0.8907098235877555  0.3592901764122442  0.7487421936824069
  0.8895091457421178  0.8584470762424316  0.2555618133794708
  0.8895091457421178  0.8584470762424316  0.7444381866205291
  0.3594403637745885  0.1096927706370135  0.2496483588849772
  0.3594403637745885  0.1096927706370135  0.7503516411150225
  0.3591995880735493  0.6093637943393490  0.2516293777073446
  0.3591995880735493  0.6093637943393490  0.7483706222926554
  0.8589151492466370  0.1086502222772701  0.2496811471240377
  0.8589151492466370  0.1086502222772701  0.7503188528759621
  0.8593079852002006  0.6085889660640409  0.2496323365800352
  0.8593079852002006  0.6085889660640409  0.7503676634199649
  0.1413497777227299  0.3910848507533627  0.2496811471240377
  0.1413497777227299  0.3910848507533627  0.7503188528759621
  0.1403072293629866  0.8905596362254112  0.2496483588849772
  0.1403072293629866  0.8905596362254112  0.7503516411150225
  0.6414110339359591  0.3906920147997996  0.2496323365800352
  0.6414110339359591  0.3906920147997996  0.7503676634199649
  0.6406362056606510  0.8908004119264507  0.2516293777073446
  0.6406362056606510  0.8908004119264507  0.7483706222926554
  0.3586353141848191  0.3908167793772080 -0.0000000000000000
  0.3592078684202339  0.8907921315797659 -0.0000000000000000
  0.3572157504458564  0.8927842495541435  0.5000000000000000
  0.8591532549041639  0.3908467450958361 -0.0000000000000000
  0.8591832206227921  0.8913646858151809 -0.0000000000000000
  0.8605144497119955  0.8944698855610390  0.5000000000000000
  0.1408495627429076  0.1091504372570924 -0.0000000000000000
  0.1414371769188239  0.1085628230811760  0.5000000000000000
  0.1407812335920287  0.6088300517606522 -0.0000000000000000
  0.1390343531967419  0.6106497560576070  0.5000000000000000
  0.6411699482393478  0.1092187664079711 -0.0000000000000000
  0.6393502439423930  0.1109656468032582  0.5000000000000000
  0.6399929258479149  0.6100070741520851 -0.0000000000000000
  0.1091018380870258  0.3585704114750076 -0.0000000000000000
  0.1093262001237426  0.3592337964713236  0.5000000000000000
  0.1090872691251045  0.8589041261314035 -0.0000000000000000
  0.1086895393376694  0.8591001137561712  0.5000000000000000
  0.6094197378995909  0.3591898142429805 -0.0000000000000000
  0.6094018231145920  0.8595886415829851 -0.0000000000000000
  0.6054028968379204  0.8543334819413462  0.5000000000000000
  0.3910958738685966  0.1409127308748956 -0.0000000000000000
  0.3908998862438285  0.1413104606623306  0.5000000000000000
  0.3904113584170149  0.6405981768854080 -0.0000000000000000
  0.8914295885249924  0.1408981619129742 -0.0000000000000000
  0.8907662035286762  0.1406737998762574  0.5000000000000000
  0.8908101857570198  0.6405802621004091 -0.0000000000000000
 -0.0017948821451866 -0.0025781502390986  0.1253538418063134
  0.0020576869379669  0.0025382510134404  0.6250179199429130
  0.0000051236894505  0.4991368450431248  0.1249671516059596
  0.0013057194895162  0.5004219802781382  0.6251975103465576
  0.5006564316599824 -0.0002785556885817  0.1250552307144080
  0.4995662547412824  0.0011397336315742  0.6250215260578392
  0.4974703106691021  0.4974347174296106  0.1253090873012859
  0.5133448718412593  0.5115457254260042  0.6226786440988262
  0.0020576869379669  0.0025382510134404  0.3749820800570869
 -0.0017948821451866 -0.0025781502390986  0.8746461581936864
  0.0013057194895162  0.5004219802781382  0.3748024896534426
  0.0000051236894505  0.4991368450431248  0.8750328483940402
  0.4995662547412824  0.0011397336315742  0.3749784739421609
  0.5006564316599824 -0.0002785556885817  0.8749447692855920
  0.4974703106691021  0.4974347174296106  0.8746909126987142
  0.2474617489865596  0.2479423130620331  0.3749820800570869
  0.2525781502390987  0.2517948821451867  0.8746461581936864
  0.2488602663684258  0.7504337452587178  0.3749784739421609
  0.2502785556885817  0.7493435683400179  0.8749447692855920
  0.7508631549568752  0.2499948763105496  0.8750328483940402
  0.7525652825703895  0.7525296893308980  0.8746909126987142
  0.2525781502390987  0.2517948821451867  0.1253538418063134
  0.2474617489865596  0.2479423130620331  0.6250179199429130
  0.2502785556885817  0.7493435683400179  0.1250552307144080
  0.2488602663684258  0.7504337452587178  0.6250215260578392
  0.7508631549568752  0.2499948763105496  0.1249671516059596
  0.7495780197218619  0.2486942805104837  0.6251975103465576
  0.7525652825703895  0.7525296893308980  0.1253090873012859
  0.7384542745739958  0.7366551281587407  0.6226786440988262
  0.7495780197218619  0.2486942805104837  0.3748024896534426
  0.8628083861912417  0.3871916138087584  0.5000000000000000
  0.3956665180586540  0.6445971031620796  0.5000000000000000
  0.5133448718412593  0.5115457254260042  0.3773213559011740
  0.3555301144389612  0.3894855502880045  0.5000000000000000
  0.8796469724009270  0.6328572871290578  0.5000000000000000
  0.7384542745739958  0.7366551281587407  0.3773213559011740
  0.6171427128709422  0.3703530275990730  0.5000000000000000
 
  0.00000000E+00  0.00000000E+00  0.00000000E+00
  0.00000000E+00  0.00000000E+00  0.00000000E+00
  0.00000000E+00  0.00000000E+00  0.00000000E+00
  0.00000000E+00  0.00000000E+00  0.00000000E+00
  0.00000000E+00  0.00000000E+00  0.00000000E+00
  0.00000000E+00  0.00000000E+00  0.00000000E+00
  0.00000000E+00  0.00000000E+00  0.00000000E+00
  0.00000000E+00  0.00000000E+00  0.00000000E+00
  0.00000000E+00  0.00000000E+00  0.00000000E+00
  0.00000000E+00  0.00000000E+00  0.00000000E+00
  0.00000000E+00  0.00000000E+00  0.00000000E+00
  0.00000000E+00  0.00000000E+00  0.00000000E+00
  0.00000000E+00  0.00000000E+00  0.00000000E+00
  0.00000000E+00  0.00000000E+00  0.00000000E+00
  0.00000000E+00  0.00000000E+00  0.00000000E+00
  0.00000000E+00  0.00000000E+00  0.00000000E+00
  0.00000000E+00  0.00000000E+00  0.00000000E+00
  0.00000000E+00  0.00000000E+00  0.00000000E+00
  0.00000000E+00  0.00000000E+00  0.00000000E+00
  0.00000000E+00  0.00000000E+00  0.00000000E+00
  0.00000000E+00  0.00000000E+00  0.00000000E+00
  0.00000000E+00  0.00000000E+00  0.00000000E+00
  0.00000000E+00  0.00000000E+00  0.00000000E+00
  0.00000000E+00  0.00000000E+00  0.00000000E+00
  0.00000000E+00  0.00000000E+00  0.00000000E+00
  0.00000000E+00  0.00000000E+00  0.00000000E+00
  0.00000000E+00  0.00000000E+00  0.00000000E+00
  0.00000000E+00  0.00000000E+00  0.00000000E+00
  0.00000000E+00  0.00000000E+00  0.00000000E+00
  0.00000000E+00  0.00000000E+00  0.00000000E+00
  0.00000000E+00  0.00000000E+00  0.00000000E+00
  0.00000000E+00  0.00000000E+00  0.00000000E+00
  0.00000000E+00  0.00000000E+00  0.00000000E+00
  0.00000000E+00  0.00000000E+00  0.00000000E+00
  0.00000000E+00  0.00000000E+00  0.00000000E+00
  0.00000000E+00  0.00000000E+00  0.00000000E+00
  0.00000000E+00  0.00000000E+00  0.00000000E+00
  0.00000000E+00  0.00000000E+00  0.00000000E+00
  0.00000000E+00  0.00000000E+00  0.00000000E+00
  0.00000000E+00  0.00000000E+00  0.00000000E+00
  0.00000000E+00  0.00000000E+00  0.00000000E+00
  0.00000000E+00  0.00000000E+00  0.00000000E+00
  0.00000000E+00  0.00000000E+00  0.00000000E+00
  0.00000000E+00  0.00000000E+00  0.00000000E+00
  0.00000000E+00  0.00000000E+00  0.00000000E+00
  0.00000000E+00  0.00000000E+00  0.00000000E+00
  0.00000000E+00  0.00000000E+00  0.00000000E+00
  0.00000000E+00  0.00000000E+00  0.00000000E+00
  0.00000000E+00  0.00000000E+00  0.00000000E+00
  0.00000000E+00  0.00000000E+00  0.00000000E+00
  0.00000000E+00  0.00000000E+00  0.00000000E+00
  0.00000000E+00  0.00000000E+00  0.00000000E+00
  0.00000000E+00  0.00000000E+00  0.00000000E+00
  0.00000000E+00  0.00000000E+00  0.00000000E+00
  0.00000000E+00  0.00000000E+00  0.00000000E+00
  0.00000000E+00  0.00000000E+00  0.00000000E+00
  0.00000000E+00  0.00000000E+00  0.00000000E+00
  0.00000000E+00  0.00000000E+00  0.00000000E+00
  0.00000000E+00  0.00000000E+00  0.00000000E+00
  0.00000000E+00  0.00000000E+00  0.00000000E+00
  0.00000000E+00  0.00000000E+00  0.00000000E+00
  0.00000000E+00  0.00000000E+00  0.00000000E+00
  0.00000000E+00  0.00000000E+00  0.00000000E+00
  0.00000000E+00  0.00000000E+00  0.00000000E+00
  0.00000000E+00  0.00000000E+00  0.00000000E+00
  0.00000000E+00  0.00000000E+00  0.00000000E+00
  0.00000000E+00  0.00000000E+00  0.00000000E+00
  0.00000000E+00  0.00000000E+00  0.00000000E+00
  0.00000000E+00  0.00000000E+00  0.00000000E+00
  0.00000000E+00  0.00000000E+00  0.00000000E+00
  0.00000000E+00  0.00000000E+00  0.00000000E+00
  0.00000000E+00  0.00000000E+00  0.00000000E+00
  0.00000000E+00  0.00000000E+00  0.00000000E+00
  0.00000000E+00  0.00000000E+00  0.00000000E+00
  0.00000000E+00  0.00000000E+00  0.00000000E+00
  0.00000000E+00  0.00000000E+00  0.00000000E+00
  0.00000000E+00  0.00000000E+00  0.00000000E+00
  0.00000000E+00  0.00000000E+00  0.00000000E+00
  0.00000000E+00  0.00000000E+00  0.00000000E+00
  0.00000000E+00  0.00000000E+00  0.00000000E+00
  0.00000000E+00  0.00000000E+00  0.00000000E+00
  0.00000000E+00  0.00000000E+00  0.00000000E+00
  0.00000000E+00  0.00000000E+00  0.00000000E+00
  0.00000000E+00  0.00000000E+00  0.00000000E+00
  0.00000000E+00  0.00000000E+00  0.00000000E+00
  0.00000000E+00  0.00000000E+00  0.00000000E+00
  0.00000000E+00  0.00000000E+00  0.00000000E+00
  0.00000000E+00  0.00000000E+00  0.00000000E+00
  0.00000000E+00  0.00000000E+00  0.00000000E+00
  0.00000000E+00  0.00000000E+00  0.00000000E+00
  0.00000000E+00  0.00000000E+00  0.00000000E+00
  0.00000000E+00  0.00000000E+00  0.00000000E+00
  0.00000000E+00  0.00000000E+00  0.00000000E+00
  0.00000000E+00  0.00000000E+00  0.00000000E+00
  0.00000000E+00  0.00000000E+00  0.00000000E+00
  0.00000000E+00  0.00000000E+00  0.00000000E+00
  0.00000000E+00  0.00000000E+00  0.00000000E+00
  0.00000000E+00  0.00000000E+00  0.00000000E+00
  0.00000000E+00  0.00000000E+00  0.00000000E+00
  0.00000000E+00  0.00000000E+00  0.00000000E+00
  0.00000000E+00  0.00000000E+00  0.00000000E+00
  0.00000000E+00  0.00000000E+00  0.00000000E+00
  0.00000000E+00  0.00000000E+00  0.00000000E+00
  0.00000000E+00  0.00000000E+00  0.00000000E+00
  0.00000000E+00  0.00000000E+00  0.00000000E+00
  0.00000000E+00  0.00000000E+00  0.00000000E+00
  0.00000000E+00  0.00000000E+00  0.00000000E+00
  0.00000000E+00  0.00000000E+00  0.00000000E+00
  0.00000000E+00  0.00000000E+00  0.00000000E+00
  0.00000000E+00  0.00000000E+00  0.00000000E+00
  0.00000000E+00  0.00000000E+00  0.00000000E+00
  0.00000000E+00  0.00000000E+00  0.00000000E+00
  0.00000000E+00  0.00000000E+00  0.00000000E+00
  0.00000000E+00  0.00000000E+00  0.00000000E+00
  0.00000000E+00  0.00000000E+00  0.00000000E+00
  0.00000000E+00  0.00000000E+00  0.00000000E+00
  0.00000000E+00  0.00000000E+00  0.00000000E+00
  0.00000000E+00  0.00000000E+00  0.00000000E+00
  0.00000000E+00  0.00000000E+00  0.00000000E+00
  0.00000000E+00  0.00000000E+00  0.00000000E+00
  0.00000000E+00  0.00000000E+00  0.00000000E+00
  0.00000000E+00  0.00000000E+00  0.00000000E+00
  0.00000000E+00  0.00000000E+00  0.00000000E+00
  0.00000000E+00  0.00000000E+00  0.00000000E+00
  0.00000000E+00  0.00000000E+00  0.00000000E+00
  0.00000000E+00  0.00000000E+00  0.00000000E+00
  0.00000000E+00  0.00000000E+00  0.00000000E+00
  0.00000000E+00  0.00000000E+00  0.00000000E+00
  0.00000000E+00  0.00000000E+00  0.00000000E+00
  0.00000000E+00  0.00000000E+00  0.00000000E+00
  0.00000000E+00  0.00000000E+00  0.00000000E+00
  0.00000000E+00  0.00000000E+00  0.00000000E+00
  0.00000000E+00  0.00000000E+00  0.00000000E+00
  0.00000000E+00  0.00000000E+00  0.00000000E+00
  0.00000000E+00  0.00000000E+00  0.00000000E+00
  0.00000000E+00  0.00000000E+00  0.00000000E+00
  0.00000000E+00  0.00000000E+00  0.00000000E+00
  0.00000000E+00  0.00000000E+00  0.00000000E+00
  0.00000000E+00  0.00000000E+00  0.00000000E+00
  0.00000000E+00  0.00000000E+00  0.00000000E+00
  0.00000000E+00  0.00000000E+00  0.00000000E+00
  0.00000000E+00  0.00000000E+00  0.00000000E+00
  0.00000000E+00  0.00000000E+00  0.00000000E+00
  0.00000000E+00  0.00000000E+00  0.00000000E+00
  0.00000000E+00  0.00000000E+00  0.00000000E+00
  0.00000000E+00  0.00000000E+00  0.00000000E+00
  0.00000000E+00  0.00000000E+00  0.00000000E+00
  0.00000000E+00  0.00000000E+00  0.00000000E+00
  0.00000000E+00  0.00000000E+00  0.00000000E+00
  0.00000000E+00  0.00000000E+00  0.00000000E+00
  0.00000000E+00  0.00000000E+00  0.00000000E+00
  0.00000000E+00  0.00000000E+00  0.00000000E+00
  0.00000000E+00  0.00000000E+00  0.00000000E+00
  0.00000000E+00  0.00000000E+00  0.00000000E+00
  0.00000000E+00  0.00000000E+00  0.00000000E+00
  0.00000000E+00  0.00000000E+00  0.00000000E+00
  0.00000000E+00  0.00000000E+00  0.00000000E+00
  0.00000000E+00  0.00000000E+00  0.00000000E+00
  0.00000000E+00  0.00000000E+00  0.00000000E+00
