SrTiFeO                                 
   1.00000000000000     
    11.1989999999999998    0.0000000000000000    0.0000000000000000
     0.0000000000000000   11.1989999999999998    0.0000000000000000
     0.0000000000000000    0.0000000000000000   15.9830000000000005
   Sr   Ti   Fe   O 
    32    31     1    94
Direct
  0.9995284566853728  0.2508914441871247  0.1247985700604110
  0.0031448355679501  0.2501745984231614  0.6255339928166367
  0.0049800243948797  0.7502482216647036  0.1236048042718926
  0.9975887235876252  0.7491184561399362  0.6238872983793327
  0.5005354436637106  0.2499532183779949  0.1247771878020686
  0.4958846521128281  0.2461226993717539  0.6269906785353255
  0.4952026311808395  0.7499733002954269  0.1227994968864860
  0.5030339655219790  0.7526815367342075  0.6246751369828201
  0.0050844613472741  0.2504260351289989  0.3746346604303054
  0.9997544365232294  0.2505706853040224  0.8750204113382368
  0.0095015658058478  0.7494760127236227  0.3749168432149864
  0.0011667348642344  0.7494925729280744  0.8738301094359626
  0.4942003204827420  0.2456628101709290  0.3733729583832174
  0.5004688490947333  0.2502451965331226  0.8752499642459128
  0.4908780006322909  0.7554263899684197  0.3748949411303933
  0.4988021787375033  0.7501395265507680  0.8743371179831509
  0.2488910087071932  0.9997253591603847  0.1250176232107135
  0.2494903326850680  0.9995878793458260  0.6244895040077578
  0.2515205911399843  0.5004921264280484  0.1252474260959855
  0.2482162825989105  0.4983406916803013  0.6243250363991008
  0.7499063729673487  0.0057288604862615  0.1237530150048425
  0.7493718036710764  0.9953625776525065  0.6236182532228717
  0.7505827251637119  0.4956345367482178  0.1222440917695941
  0.7510671207611596  0.5030752692299814  0.6264745689448666
  0.2495933168075276  0.0018695087532076  0.3759519398969285
  0.2494122675566385  0.9998042661249259  0.8749138212225137
  0.2495288989887767  0.4967197826349917  0.3758116933000925
  0.2509266915224772  0.5001015499974573  0.8746137135913744
  0.7478247895824073  0.0093215753367778  0.3757542556002336
  0.7508613787835566  0.0018300473304977  0.8737321119048553
  0.7513685975173555  0.4928551466707343  0.3727836559316371
  0.7500603938449000  0.4993425602603969  0.8750257122279932
  0.9991174289458820  0.9998143931831804  0.9999569411055025
  0.9990198041368720  0.9968441429188006  0.4990238039348777
 -0.0000234961898882  0.5004968199056509 -0.0001294064380866
  0.9979733133635795  0.5025920840296266  0.4988223097939275
  0.5000990548158711  0.9996179017326178  0.9997671507470692
  0.5003541874868448  0.9983612663814064  0.4993341792057616
  0.5002798731022322  0.5008137062544209  1.0000038775443041
  0.2500427163398193  0.2498800405471154  0.0003941621678614
  0.2496921971175295  0.2490137359232438  0.5007761627178737
  0.2501495937139859  0.7496896629654458  0.9994057176053934
  0.2482787572702905  0.7508831186587532  0.5008127513887886
  0.7505052507931722  0.2495983650661225  0.9994908294935493
  0.7499585639889351  0.7505114469435333  0.9948983399442299
  0.2496105675182678  0.2499619136193757  0.2480006304400070
  0.2497345736484762  0.2497735686942356  0.7500605323221389
  0.2503010803870816  0.7497431906046165  0.2499286630175267
  0.2500079934430832  0.7494800917925494  0.7492700374679170
  0.7495071760789914  0.2509319654090774  0.2498546006414730
  0.7490770038643203  0.2504776361142608  0.7497147927519036
  0.7497731349955686  0.7503176299413805  0.2409824438018747
  0.7495938926495952  0.7500336146509676  0.7485616930795830
  0.9997114580816070  0.0005710760868492  0.2515441424542310
  0.9992687880774874  0.9994041425794384  0.7494089131939781
  0.0009948116741532  0.4999301833418715  0.2506103147798985
  0.9994362739325283  0.5003428487358017  0.7499023285139448
  0.4991764204375617  0.0000889386797850  0.2501318633633707
  0.5002952171456851  0.9991720437523630  0.7502981768204240
  0.5008008126764583  0.4988992100528172  0.2515599943529076
  0.5008718652687838  0.4995753455410061  0.7499449147779845
  0.7560939324605392  0.2471006431792482  0.5011626638276542
  0.4988692359761622  0.5067638585477197  0.4994050313409629
  0.7515099994577784  0.7492520576468766  0.5026779782654768
  0.1100045892132108  0.1400726916308761  0.2461411023258841
  0.1087173036842085  0.1405112029452401  0.7497702370634954
  0.1117003096662165  0.6386209551890528  0.2493515766821279
  0.1090289788591117  0.6406643922871581  0.7493609428801211
  0.6110225321306132  0.1385324141376750  0.2497318252368317
  0.6084492114083251  0.1409786878019753  0.7504217241946040
  0.6160868937541604  0.6417218266970995  0.2647763957484368
  0.6077596501967695  0.6405066868892990  0.7519488494713993
  0.3901724102938186  0.3600707460851648  0.2467445114440427
  0.3906847259023791  0.3586727389863657  0.7504235400734103
  0.3894457437606068  0.8605234639456605  0.2487744259269875
  0.3912147800074842  0.8585693147176049  0.7494812474839484
  0.8887921416824042  0.3616393376072384  0.2512484379767616
  0.8907489364839045  0.3591113826871296  0.7486835428375640
  0.8839446844268051  0.8592981228367315  0.2629726749137220
  0.8909383883741750  0.8594645714600376  0.7522085188141359
  0.3601382484691496  0.1103438466092155  0.2472397328469568
  0.3593200184166258  0.1089624981596321  0.7485777543481685
  0.3632120916044660  0.6104864046363963  0.2542752562998657
  0.3597926562972334  0.6078574353446274  0.7462584566188065
  0.8600232401621140  0.1119096203309336  0.2533640800558068
  0.8579590762550944  0.1099746204857485  0.7452087973776940
  0.8599365796019441  0.6162141732847152  0.2610176059252787
  0.8591543270235785  0.6090203793743052  0.7525069087751808
  0.1402075534195514  0.3896815564932490  0.2466000445061000
  0.1402498680963306  0.3906667039765984  0.7495795070057070
  0.1377804239397027  0.8880750944582306  0.2493469929808109
  0.1405995230522837  0.8908840978640915  0.7504894911135886
  0.6404772163615532  0.3904719258505094  0.2450436474871504
  0.6410118684055074  0.3911231061691456  0.7544866661161405
  0.6411026900823948  0.8850261151008685  0.2621873483480107
  0.6407952418311891  0.8916157625510777  0.7530788374286400
  0.3603562374139221  0.3906104724735460  0.0019668532064256
  0.3593365763405265  0.8904845014012955  0.0010839385183401
  0.3601157420506085  0.8891997548466812  0.4999108226639697
  0.8596773590244232  0.3905516321727574  0.9997100159654367
  0.8576781916152176  0.8908398458787382  0.0001585836481233
  0.8615249884098404  0.8959027188791425  0.4893846812912211
  0.1397137469346935  0.1090448544929137  0.0018211208309292
  0.1403092225641309  0.1108392677418444  0.5017844694674283
  0.1403919716849169  0.6093774827551397  0.0009762937506372
  0.1423976217344422  0.6089991250594099  0.4993926292558631
  0.6405111481278039  0.1094380354939913  0.9997215121184818
  0.6339123689170244  0.1205252325757862  0.5001321850410599
  0.6417387192629072  0.6095264112481319  0.0000729764964698
  0.1094222193559314  0.3600222312362799  0.0015496857879233
  0.1114882161194104  0.3603846210634628  0.5014546050971455
  0.1092157368413834  0.8594970641424700  0.9997888297256248
  0.1100812281801627  0.8592095876260543  0.5000167022500698
  0.6101985293318097  0.3602405641400832  0.0011905054512704
  0.6089824747869040  0.8581774733280326 -0.0001568387407716
  0.6108335449572045  0.8647563545498472  0.4896661965809362
  0.3906970070005445  0.1399351770282565  0.0018420620401480
  0.3871890574268961  0.1377085392477176  0.5017115254549280
  0.3907440894210245  0.6408294427699888  0.9998633502398444
  0.8907825043846361  0.1404133340006853  0.0010855043420699
  0.8917478061247959  0.1430538861995436  0.4998062097366016
  0.8906313977738801  0.6420294913179083  0.0002914056677310
  0.9935757365267956  0.9945565400284283  0.1267693717290508
  0.9971709793668958  0.9960928212813435  0.6241457565276685
  0.9938241666550420  0.5037707711205766  0.1262217285950334
  0.9973602547101991  0.5039489198336612  0.6242272915384944
  0.5061425836886849  0.9957245783454617  0.1261173917151023
  0.5043794796630267  0.9957160706031716  0.6246742662896589
  0.5028859086481177  0.5086212604102474  0.1268155666306719
  0.5104861721708717  0.4924622815715922  0.6233528036666101
  0.0093405891317374  0.0073301914649042  0.3743108042154557
  0.9981411758813673  0.0023776617511904  0.8751260506242862
  0.0075386974607551  0.4927361383560144  0.3739744160770135
  0.0008456749190601  0.4995164192955595  0.8753986097164751
  0.4931318362676112  0.0059771652515857  0.3739377032862518
  0.4977361642002756  0.0006403897313684  0.8755687625035882
  0.4974039953276933  0.5003252448177165  0.8757237889553812
  0.2493892743846301  0.2501925757082112  0.3735737226692197
  0.2499646110968331  0.2493246116800669  0.8757956081438941
  0.2500941302180336  0.7513316501623107  0.3751921809459994
  0.2509699740157224  0.7482375049350876  0.8745413038884582
  0.7522560028795074  0.2479314258841704  0.8747712039182916
  0.7497548260201002  0.7496250506727568  0.8759059644852012
  0.2502633351234174  0.2498384331726786  0.1241385869599216
  0.2492090341502860  0.2506762454590245  0.6262161149473976
  0.2511903796748891  0.7480882619865763  0.1252737453704460
  0.2492799685973483  0.7506477328261311  0.6244267688162756
  0.7520797833607570  0.2482193649534530  0.1251447672277468
  0.7394152317999197  0.2593450321021808  0.6230872935146754
  0.7487603277656618  0.7500307458785733  0.1259442355679039
  0.7475692800625984  0.7506121499582135  0.6302613839083783
  0.7399708882757070  0.2573265379078046  0.3767662054087431
  0.8550592766176778  0.3927297943111352  0.5000296232314032
  0.3912459878393278  0.6407074156235252  0.4999894533886108
  0.5020144788614714  0.4828249518829405  0.3760597298516636
  0.3672987007182760  0.3838260747760726  0.5017060282111333
  0.8938036863690785  0.6397299752848721  0.4889523081662797
  0.6428384637422958  0.5967579468851251  0.4926758244595089
 
  0.00000000E+00  0.00000000E+00  0.00000000E+00
  0.00000000E+00  0.00000000E+00  0.00000000E+00
  0.00000000E+00  0.00000000E+00  0.00000000E+00
  0.00000000E+00  0.00000000E+00  0.00000000E+00
  0.00000000E+00  0.00000000E+00  0.00000000E+00
  0.00000000E+00  0.00000000E+00  0.00000000E+00
  0.00000000E+00  0.00000000E+00  0.00000000E+00
  0.00000000E+00  0.00000000E+00  0.00000000E+00
  0.00000000E+00  0.00000000E+00  0.00000000E+00
  0.00000000E+00  0.00000000E+00  0.00000000E+00
  0.00000000E+00  0.00000000E+00  0.00000000E+00
  0.00000000E+00  0.00000000E+00  0.00000000E+00
  0.00000000E+00  0.00000000E+00  0.00000000E+00
  0.00000000E+00  0.00000000E+00  0.00000000E+00
  0.00000000E+00  0.00000000E+00  0.00000000E+00
  0.00000000E+00  0.00000000E+00  0.00000000E+00
  0.00000000E+00  0.00000000E+00  0.00000000E+00
  0.00000000E+00  0.00000000E+00  0.00000000E+00
  0.00000000E+00  0.00000000E+00  0.00000000E+00
  0.00000000E+00  0.00000000E+00  0.00000000E+00
  0.00000000E+00  0.00000000E+00  0.00000000E+00
  0.00000000E+00  0.00000000E+00  0.00000000E+00
  0.00000000E+00  0.00000000E+00  0.00000000E+00
  0.00000000E+00  0.00000000E+00  0.00000000E+00
  0.00000000E+00  0.00000000E+00  0.00000000E+00
  0.00000000E+00  0.00000000E+00  0.00000000E+00
  0.00000000E+00  0.00000000E+00  0.00000000E+00
  0.00000000E+00  0.00000000E+00  0.00000000E+00
  0.00000000E+00  0.00000000E+00  0.00000000E+00
  0.00000000E+00  0.00000000E+00  0.00000000E+00
  0.00000000E+00  0.00000000E+00  0.00000000E+00
  0.00000000E+00  0.00000000E+00  0.00000000E+00
  0.00000000E+00  0.00000000E+00  0.00000000E+00
  0.00000000E+00  0.00000000E+00  0.00000000E+00
  0.00000000E+00  0.00000000E+00  0.00000000E+00
  0.00000000E+00  0.00000000E+00  0.00000000E+00
  0.00000000E+00  0.00000000E+00  0.00000000E+00
  0.00000000E+00  0.00000000E+00  0.00000000E+00
  0.00000000E+00  0.00000000E+00  0.00000000E+00
  0.00000000E+00  0.00000000E+00  0.00000000E+00
  0.00000000E+00  0.00000000E+00  0.00000000E+00
  0.00000000E+00  0.00000000E+00  0.00000000E+00
  0.00000000E+00  0.00000000E+00  0.00000000E+00
  0.00000000E+00  0.00000000E+00  0.00000000E+00
  0.00000000E+00  0.00000000E+00  0.00000000E+00
  0.00000000E+00  0.00000000E+00  0.00000000E+00
  0.00000000E+00  0.00000000E+00  0.00000000E+00
  0.00000000E+00  0.00000000E+00  0.00000000E+00
  0.00000000E+00  0.00000000E+00  0.00000000E+00
  0.00000000E+00  0.00000000E+00  0.00000000E+00
  0.00000000E+00  0.00000000E+00  0.00000000E+00
  0.00000000E+00  0.00000000E+00  0.00000000E+00
  0.00000000E+00  0.00000000E+00  0.00000000E+00
  0.00000000E+00  0.00000000E+00  0.00000000E+00
  0.00000000E+00  0.00000000E+00  0.00000000E+00
  0.00000000E+00  0.00000000E+00  0.00000000E+00
  0.00000000E+00  0.00000000E+00  0.00000000E+00
  0.00000000E+00  0.00000000E+00  0.00000000E+00
  0.00000000E+00  0.00000000E+00  0.00000000E+00
  0.00000000E+00  0.00000000E+00  0.00000000E+00
  0.00000000E+00  0.00000000E+00  0.00000000E+00
  0.00000000E+00  0.00000000E+00  0.00000000E+00
  0.00000000E+00  0.00000000E+00  0.00000000E+00
  0.00000000E+00  0.00000000E+00  0.00000000E+00
  0.00000000E+00  0.00000000E+00  0.00000000E+00
  0.00000000E+00  0.00000000E+00  0.00000000E+00
  0.00000000E+00  0.00000000E+00  0.00000000E+00
  0.00000000E+00  0.00000000E+00  0.00000000E+00
  0.00000000E+00  0.00000000E+00  0.00000000E+00
  0.00000000E+00  0.00000000E+00  0.00000000E+00
  0.00000000E+00  0.00000000E+00  0.00000000E+00
  0.00000000E+00  0.00000000E+00  0.00000000E+00
  0.00000000E+00  0.00000000E+00  0.00000000E+00
  0.00000000E+00  0.00000000E+00  0.00000000E+00
  0.00000000E+00  0.00000000E+00  0.00000000E+00
  0.00000000E+00  0.00000000E+00  0.00000000E+00
  0.00000000E+00  0.00000000E+00  0.00000000E+00
  0.00000000E+00  0.00000000E+00  0.00000000E+00
  0.00000000E+00  0.00000000E+00  0.00000000E+00
  0.00000000E+00  0.00000000E+00  0.00000000E+00
  0.00000000E+00  0.00000000E+00  0.00000000E+00
  0.00000000E+00  0.00000000E+00  0.00000000E+00
  0.00000000E+00  0.00000000E+00  0.00000000E+00
  0.00000000E+00  0.00000000E+00  0.00000000E+00
  0.00000000E+00  0.00000000E+00  0.00000000E+00
  0.00000000E+00  0.00000000E+00  0.00000000E+00
  0.00000000E+00  0.00000000E+00  0.00000000E+00
  0.00000000E+00  0.00000000E+00  0.00000000E+00
  0.00000000E+00  0.00000000E+00  0.00000000E+00
  0.00000000E+00  0.00000000E+00  0.00000000E+00
  0.00000000E+00  0.00000000E+00  0.00000000E+00
  0.00000000E+00  0.00000000E+00  0.00000000E+00
  0.00000000E+00  0.00000000E+00  0.00000000E+00
  0.00000000E+00  0.00000000E+00  0.00000000E+00
  0.00000000E+00  0.00000000E+00  0.00000000E+00
  0.00000000E+00  0.00000000E+00  0.00000000E+00
  0.00000000E+00  0.00000000E+00  0.00000000E+00
  0.00000000E+00  0.00000000E+00  0.00000000E+00
  0.00000000E+00  0.00000000E+00  0.00000000E+00
  0.00000000E+00  0.00000000E+00  0.00000000E+00
  0.00000000E+00  0.00000000E+00  0.00000000E+00
  0.00000000E+00  0.00000000E+00  0.00000000E+00
  0.00000000E+00  0.00000000E+00  0.00000000E+00
  0.00000000E+00  0.00000000E+00  0.00000000E+00
  0.00000000E+00  0.00000000E+00  0.00000000E+00
  0.00000000E+00  0.00000000E+00  0.00000000E+00
  0.00000000E+00  0.00000000E+00  0.00000000E+00
  0.00000000E+00  0.00000000E+00  0.00000000E+00
  0.00000000E+00  0.00000000E+00  0.00000000E+00
  0.00000000E+00  0.00000000E+00  0.00000000E+00
  0.00000000E+00  0.00000000E+00  0.00000000E+00
  0.00000000E+00  0.00000000E+00  0.00000000E+00
  0.00000000E+00  0.00000000E+00  0.00000000E+00
  0.00000000E+00  0.00000000E+00  0.00000000E+00
  0.00000000E+00  0.00000000E+00  0.00000000E+00
  0.00000000E+00  0.00000000E+00  0.00000000E+00
  0.00000000E+00  0.00000000E+00  0.00000000E+00
  0.00000000E+00  0.00000000E+00  0.00000000E+00
  0.00000000E+00  0.00000000E+00  0.00000000E+00
  0.00000000E+00  0.00000000E+00  0.00000000E+00
  0.00000000E+00  0.00000000E+00  0.00000000E+00
  0.00000000E+00  0.00000000E+00  0.00000000E+00
  0.00000000E+00  0.00000000E+00  0.00000000E+00
  0.00000000E+00  0.00000000E+00  0.00000000E+00
  0.00000000E+00  0.00000000E+00  0.00000000E+00
  0.00000000E+00  0.00000000E+00  0.00000000E+00
  0.00000000E+00  0.00000000E+00  0.00000000E+00
  0.00000000E+00  0.00000000E+00  0.00000000E+00
  0.00000000E+00  0.00000000E+00  0.00000000E+00
  0.00000000E+00  0.00000000E+00  0.00000000E+00
  0.00000000E+00  0.00000000E+00  0.00000000E+00
  0.00000000E+00  0.00000000E+00  0.00000000E+00
  0.00000000E+00  0.00000000E+00  0.00000000E+00
  0.00000000E+00  0.00000000E+00  0.00000000E+00
  0.00000000E+00  0.00000000E+00  0.00000000E+00
  0.00000000E+00  0.00000000E+00  0.00000000E+00
  0.00000000E+00  0.00000000E+00  0.00000000E+00
  0.00000000E+00  0.00000000E+00  0.00000000E+00
  0.00000000E+00  0.00000000E+00  0.00000000E+00
  0.00000000E+00  0.00000000E+00  0.00000000E+00
  0.00000000E+00  0.00000000E+00  0.00000000E+00
  0.00000000E+00  0.00000000E+00  0.00000000E+00
  0.00000000E+00  0.00000000E+00  0.00000000E+00
  0.00000000E+00  0.00000000E+00  0.00000000E+00
  0.00000000E+00  0.00000000E+00  0.00000000E+00
  0.00000000E+00  0.00000000E+00  0.00000000E+00
  0.00000000E+00  0.00000000E+00  0.00000000E+00
  0.00000000E+00  0.00000000E+00  0.00000000E+00
  0.00000000E+00  0.00000000E+00  0.00000000E+00
  0.00000000E+00  0.00000000E+00  0.00000000E+00
  0.00000000E+00  0.00000000E+00  0.00000000E+00
  0.00000000E+00  0.00000000E+00  0.00000000E+00
  0.00000000E+00  0.00000000E+00  0.00000000E+00
  0.00000000E+00  0.00000000E+00  0.00000000E+00
  0.00000000E+00  0.00000000E+00  0.00000000E+00
  0.00000000E+00  0.00000000E+00  0.00000000E+00
  0.00000000E+00  0.00000000E+00  0.00000000E+00
  0.00000000E+00  0.00000000E+00  0.00000000E+00
