SrTiFeO                                 
   1.00000000000000     
    11.1989999999999998    0.0000000000000000    0.0000000000000000
     0.0000000000000000   11.1989999999999998    0.0000000000000000
     0.0000000000000000    0.0000000000000000   15.9830000000000005
   Sr   Ti   Fe   O 
    32    30     2    94
Direct
  0.0004440294924148  0.2501639384161812  0.1250848681388938
  0.0024598555484108  0.2493548266480211  0.6233898245645108
  0.9994052613979666  0.7504167141591316  0.1269396848038260
  0.0073632298112718  0.7483456481717050  0.6226944239333473
  0.4993720218582421  0.2513790243863743  0.1259666505038534
  0.5002235784439556  0.2511574715753568  0.6216012450334470
  0.4972519816574214  0.7510755168273194  0.1237717145266195
  0.4865442867942468  0.7509896928295747  0.6275196791460654
  0.0011804784537237  0.2478824540707793  0.3766135453085275
  0.0000807536634669  0.2511574940083632  0.8749830735914691
  0.0029979262767794  0.7493838588873908  0.3759826911817109
  0.0043338571519452  0.7507728358967719  0.8769369653289696
  0.5007656997621636  0.2518313606486508  0.3778714598829802
  0.4991978389875819  0.2524109002213757  0.8735352085931659
  0.4971535948950309  0.7506495895150312  0.3723148764627968
  0.4957092945582489  0.7489772770219455  0.8763686737553014
  0.2497497146147586  0.0006855770460634  0.1255813148333548
  0.2492868463490118  0.0022216199088649  0.6238951846904435
  0.2509667447992415  0.4993630729364240  0.1251885176468404
  0.2515548792180454  0.4983256382831515  0.6223831507224988
  0.7498417771205372  0.9999810569335572  0.1260045171397204
  0.7520029929429416  0.0097704810366068  0.6252827155914173
  0.7477340443388664  0.4994312592036260  0.1252724852882543
  0.7539273592292403  0.4850972516686139  0.6267938079679775
  0.2491487090223734  1.0008473816959846  0.3763482980184892
  0.2498416625582980  0.0011139236319531  0.8746992223449185
  0.2493892160155917  0.4992040182467241  0.3771114785732881
  0.2522827170326255  0.5005154027806183  0.8745739648872282
  0.7519262639118786  0.0022167573633328  0.3752407930458397
  0.7500280194656410  0.0047243319103436  0.8769994178775369
  0.7531021056432302  0.4931426649438583  0.3717995793507071
  0.7490976752194409  0.4966466405478276  0.8767792448634175
  0.9992133985606785  0.9995024151109535  0.0000850297867007
  1.0001347173505786  0.9998626581525915  0.5013535187592537
 -0.0004048862024182  0.5005306670005518  1.0002000569695533
  0.9971160677577262  0.5000208764893219  0.5010624147005528
  0.5003634577148230  0.0000908166261053  0.0000532249369487
  0.5011149813898775  0.9962680458817819  0.5010586554379370
  0.4997237481585127  0.4999702214661693  1.0000942124932359
  0.2506082656835400  0.2506623466992197  0.9995116017496237
  0.2501397462316456  0.2497531908446675  0.4995901894013118
  0.2496050363952715  0.7500693416494167  0.0004256946857092
  0.2517968858832084  0.7502084388722698  0.4991269371074677
  0.7501434445597600  0.2500604963533927  0.0005554464587017
  0.7496433298124849  0.2499847090366912  0.4993248616551316
  0.7504380061134681  0.7509813525574816  0.0055515290996918
  0.2505563413786192  0.2500349100415180  0.2513020510763371
  0.2501796193839693  0.2503195143742195  0.7501001935340839
  0.2492587790627168  0.7495241891504866  0.2499664171573720
  0.2489906373254680  0.7502062275135115  0.7503772834178088
  0.7499372262073177  0.2488228560086955  0.2498175061718139
  0.7503629729426545  0.2494305102816093  0.7509620235020800
  0.7478421519712416  0.7474692744090208  0.2522364606093875
  0.7509848949612339  0.7511971467482650  0.7602615132334732
  0.9995014531299701  0.9990513815252048  0.2505987365988745
  0.0008172051131208  0.0006255085350073  0.7493029572042255
  0.9995521169129653  0.5001299184441280  0.2499748453825585
  0.0011719835822921  0.5003087691209174  0.7494303256689600
  0.5004549430463276  0.9994879418637256  0.2505400719472380
  0.4999967032517743  0.0007798894544123  0.7493454400060111
  0.5009220509166474  0.5014803514958134  0.2516599839027974
  0.5019033688292769  0.5009818789628296  0.7462317533940171
  0.4949219301158045  0.4969753300150663  0.4986499102168614
  0.7551450411472911  0.7590155154114693  0.4931941015631573
  0.1089178405199796  0.1396103913443484  0.2482809555383421
  0.1105378882616104  0.1403461164634656  0.7559885590884573
  0.1080827049870221  0.6409777782118102  0.2497748180054329
  0.1095850010492313  0.6406527732830953  0.7512776809228610
  0.6088900645736349  0.1400437883396313  0.2499580996023888
  0.6110610121555788  0.1393911869342977  0.7504144907784446
  0.6082656761714383  0.6405454215306332  0.2372581807504797
  0.3907025938334493  0.3597259901600554  0.2543296965890602
  0.3909633717390658  0.3617273858648349  0.7455039922523428
  0.3897501590386926  0.8593940586758624  0.2493174871985003
  0.3890818199671072  0.8612687670133119  0.7514088778947229
  0.8906827894178365  0.3588099122891782  0.2521864587458050
  0.8888182730357015  0.3621655943318809  0.7486316350135793
  0.8894149341806262  0.8572888255264567  0.2549331392285010
  0.8859047027198217  0.8591527550101903  0.7367725215194545
  0.3599396154517510  0.1088614867638172  0.2507181129945016
  0.3609943978469986  0.1108324778513018  0.7525878162087090
  0.3578624436848595  0.6094246047138751  0.2503638016020941
  0.3612088991368611  0.6118959692165348  0.7482817341303747
  0.8585392920610787  0.1078472263169978  0.2491051079035380
  0.8608453369036061  0.1106478440995038  0.7518285913089997
  0.8586012106879902  0.6074658953478177  0.2456870229226965
  0.8580923235126695  0.6150815980900731  0.7382995719024420
  0.1400251121250702  0.3910960922264851  0.2518504850761171
  0.1405322791545128  0.3910076649058991  0.7534650575426508
  0.1394960465329255  0.8902423809096007  0.2489615785886650
  0.1388292651939756  0.8893196125745271  0.7514259601825267
  0.6412659307828829  0.3890787900893810  0.2483355577344787
  0.6408407030799955  0.8903506450854041  0.2504761067760432
  0.6425836800624349  0.8866828159601763  0.7390078413763677
  0.3592657927312202  0.3909176776461189  0.9979167881426673
  0.3595339199194071  0.8906331643954182  0.9991620879534535
  0.3578270708048811  0.8926138586625628  0.5002935704101886
  0.8592677507983350  0.3908917399538294  0.0001265065240263
  0.8649095080203052  0.3840955937727685  0.4996911322280443
  0.8581419634007185  0.8917845747944227  0.9994759813607740
  0.8645794422200743  0.8930584923959014  0.5131104724968680
  0.1400816255132996  0.1095583344426382  0.9988808660129656
  0.1396289883819540  0.1102398565652748  0.4983675327487341
  0.1402079764281608  0.6092157723113129  0.9987764118525974
  0.1331175460187038  0.6144804716613371  0.5003197175001982
  0.6411560189445352  0.1092272177946404  0.0004398952403925
  0.6398625845848229  0.1084263881405622  0.5001850334443766
  0.6415007202538353  0.6105022117150072  0.0007121079674124
  0.1091182999862825  0.3598231297374015  0.9980285047663792
  0.1087669528010149  0.3614973806136567  0.4974174238005512
  0.1092934020011770  0.8591627953956540  0.0002828828766746
  0.1104217633570117  0.8616013107051876  0.4997938732789197
  0.6100521174120445  0.3594659805766633  0.9987415123672126
  0.6093756515181891  0.8584664524637095  0.9997414361005880
  0.6059899291427668  0.8502429191252642  0.5100416553539507
  0.3913201894738533  0.1400392052092014  0.9987618101852795
  0.3908312470459385  0.1388980682632659  0.4989246256476735
  0.3902005965513134  0.6409337285083053 -0.0001120104419306
  0.3882054007318648  0.6463757792740281  0.4983939192548605
  0.8910866116408427  0.1406834967711040  0.9991893748949348
  0.8899761798966297  0.1390835792359931  0.5005413223209438
  0.8908905588950778  0.6417764397074855  1.0010116754392127
  0.9977275628397421  0.9975921975023777  0.1248113422349478
  0.0094154142382731  0.0096495019965577  0.6271602413151012
  0.0017028239423318  0.4975481699353794  0.1246237286762453
  0.0077919415250894  0.4945677123697402  0.6259471527631171
  0.4998883156194323 -0.0007108927225235  0.1247006813050099
  0.4951204301884847  0.0049831342035699  0.6257748915403891
  0.4957059640759059  0.4947337616592857  0.1231125611090862
  0.9974370955060666  0.9992095707286511  0.3752106979733320
  0.9953831062126097  0.9930750031795104  0.8744005248660042
  0.9944934978991269  0.5081297972985692  0.3759301966749036
  0.9928745399427861  0.5041179860803391  0.8738465391514543
  0.5036681959976059  0.9951807325921302  0.3759100320523910
  0.5061415990062581  0.9961123031357249  0.8739918093715388
  0.5019167659497277  0.5041900365041854  0.8738930302954261
  0.2473545144002671  0.2469397608109386  0.3739323811349293
  0.2540219557799794  0.2521147190523287  0.8751709517345132
  0.2467130535649954  0.7516966702959395  0.3740544283529421
  0.2502822259400321  0.7494019938918921  0.8752690718977602
  0.7500372966620489  0.2461500760346370  0.3742316960104609
  0.7515313048608725  0.2496012142639755  0.8755673492483855
  0.7349594627887884  0.7292582106359543  0.3714946976735164
  0.7545493881842378  0.7526656755455965  0.8753867204630147
  0.2518036901139337  0.2518458320637538  0.1247519092395825
  0.2448698251699624  0.2464026540375693  0.6264257949112650
  0.2495638040559376  0.7494745965820910  0.1245600423097228
  0.2484257913491104  0.7514860224528005  0.6256684754193710
  0.7514431473873041  0.2496205724593349  0.1247595192617139
  0.7501833769727105  0.2484811279156973  0.6261133595802912
  0.7542399855488021  0.7555807906428527  0.1245372929664567
  0.6412075176383552  0.3894084446200235  0.7529467973534499
  0.6149152138312705  0.6455291240876899  0.7452068006426371
  0.5140910259730392  0.5133776664922571  0.3715136776473644
  0.6212656236985705  0.3648971970696852  0.5000153891919386
  0.3531870782869349  0.3845275370924957  0.5004298366584619
  0.8697167660010532  0.6289841644038225  0.5151613058917242
  0.5139454875832529  0.5075030945979652  0.6263687985487085
 
  0.00000000E+00  0.00000000E+00  0.00000000E+00
  0.00000000E+00  0.00000000E+00  0.00000000E+00
  0.00000000E+00  0.00000000E+00  0.00000000E+00
  0.00000000E+00  0.00000000E+00  0.00000000E+00
  0.00000000E+00  0.00000000E+00  0.00000000E+00
  0.00000000E+00  0.00000000E+00  0.00000000E+00
  0.00000000E+00  0.00000000E+00  0.00000000E+00
  0.00000000E+00  0.00000000E+00  0.00000000E+00
  0.00000000E+00  0.00000000E+00  0.00000000E+00
  0.00000000E+00  0.00000000E+00  0.00000000E+00
  0.00000000E+00  0.00000000E+00  0.00000000E+00
  0.00000000E+00  0.00000000E+00  0.00000000E+00
  0.00000000E+00  0.00000000E+00  0.00000000E+00
  0.00000000E+00  0.00000000E+00  0.00000000E+00
  0.00000000E+00  0.00000000E+00  0.00000000E+00
  0.00000000E+00  0.00000000E+00  0.00000000E+00
  0.00000000E+00  0.00000000E+00  0.00000000E+00
  0.00000000E+00  0.00000000E+00  0.00000000E+00
  0.00000000E+00  0.00000000E+00  0.00000000E+00
  0.00000000E+00  0.00000000E+00  0.00000000E+00
  0.00000000E+00  0.00000000E+00  0.00000000E+00
  0.00000000E+00  0.00000000E+00  0.00000000E+00
  0.00000000E+00  0.00000000E+00  0.00000000E+00
  0.00000000E+00  0.00000000E+00  0.00000000E+00
  0.00000000E+00  0.00000000E+00  0.00000000E+00
  0.00000000E+00  0.00000000E+00  0.00000000E+00
  0.00000000E+00  0.00000000E+00  0.00000000E+00
  0.00000000E+00  0.00000000E+00  0.00000000E+00
  0.00000000E+00  0.00000000E+00  0.00000000E+00
  0.00000000E+00  0.00000000E+00  0.00000000E+00
  0.00000000E+00  0.00000000E+00  0.00000000E+00
  0.00000000E+00  0.00000000E+00  0.00000000E+00
  0.00000000E+00  0.00000000E+00  0.00000000E+00
  0.00000000E+00  0.00000000E+00  0.00000000E+00
  0.00000000E+00  0.00000000E+00  0.00000000E+00
  0.00000000E+00  0.00000000E+00  0.00000000E+00
  0.00000000E+00  0.00000000E+00  0.00000000E+00
  0.00000000E+00  0.00000000E+00  0.00000000E+00
  0.00000000E+00  0.00000000E+00  0.00000000E+00
  0.00000000E+00  0.00000000E+00  0.00000000E+00
  0.00000000E+00  0.00000000E+00  0.00000000E+00
  0.00000000E+00  0.00000000E+00  0.00000000E+00
  0.00000000E+00  0.00000000E+00  0.00000000E+00
  0.00000000E+00  0.00000000E+00  0.00000000E+00
  0.00000000E+00  0.00000000E+00  0.00000000E+00
  0.00000000E+00  0.00000000E+00  0.00000000E+00
  0.00000000E+00  0.00000000E+00  0.00000000E+00
  0.00000000E+00  0.00000000E+00  0.00000000E+00
  0.00000000E+00  0.00000000E+00  0.00000000E+00
  0.00000000E+00  0.00000000E+00  0.00000000E+00
  0.00000000E+00  0.00000000E+00  0.00000000E+00
  0.00000000E+00  0.00000000E+00  0.00000000E+00
  0.00000000E+00  0.00000000E+00  0.00000000E+00
  0.00000000E+00  0.00000000E+00  0.00000000E+00
  0.00000000E+00  0.00000000E+00  0.00000000E+00
  0.00000000E+00  0.00000000E+00  0.00000000E+00
  0.00000000E+00  0.00000000E+00  0.00000000E+00
  0.00000000E+00  0.00000000E+00  0.00000000E+00
  0.00000000E+00  0.00000000E+00  0.00000000E+00
  0.00000000E+00  0.00000000E+00  0.00000000E+00
  0.00000000E+00  0.00000000E+00  0.00000000E+00
  0.00000000E+00  0.00000000E+00  0.00000000E+00
  0.00000000E+00  0.00000000E+00  0.00000000E+00
  0.00000000E+00  0.00000000E+00  0.00000000E+00
  0.00000000E+00  0.00000000E+00  0.00000000E+00
  0.00000000E+00  0.00000000E+00  0.00000000E+00
  0.00000000E+00  0.00000000E+00  0.00000000E+00
  0.00000000E+00  0.00000000E+00  0.00000000E+00
  0.00000000E+00  0.00000000E+00  0.00000000E+00
  0.00000000E+00  0.00000000E+00  0.00000000E+00
  0.00000000E+00  0.00000000E+00  0.00000000E+00
  0.00000000E+00  0.00000000E+00  0.00000000E+00
  0.00000000E+00  0.00000000E+00  0.00000000E+00
  0.00000000E+00  0.00000000E+00  0.00000000E+00
  0.00000000E+00  0.00000000E+00  0.00000000E+00
  0.00000000E+00  0.00000000E+00  0.00000000E+00
  0.00000000E+00  0.00000000E+00  0.00000000E+00
  0.00000000E+00  0.00000000E+00  0.00000000E+00
  0.00000000E+00  0.00000000E+00  0.00000000E+00
  0.00000000E+00  0.00000000E+00  0.00000000E+00
  0.00000000E+00  0.00000000E+00  0.00000000E+00
  0.00000000E+00  0.00000000E+00  0.00000000E+00
  0.00000000E+00  0.00000000E+00  0.00000000E+00
  0.00000000E+00  0.00000000E+00  0.00000000E+00
  0.00000000E+00  0.00000000E+00  0.00000000E+00
  0.00000000E+00  0.00000000E+00  0.00000000E+00
  0.00000000E+00  0.00000000E+00  0.00000000E+00
  0.00000000E+00  0.00000000E+00  0.00000000E+00
  0.00000000E+00  0.00000000E+00  0.00000000E+00
  0.00000000E+00  0.00000000E+00  0.00000000E+00
  0.00000000E+00  0.00000000E+00  0.00000000E+00
  0.00000000E+00  0.00000000E+00  0.00000000E+00
  0.00000000E+00  0.00000000E+00  0.00000000E+00
  0.00000000E+00  0.00000000E+00  0.00000000E+00
  0.00000000E+00  0.00000000E+00  0.00000000E+00
  0.00000000E+00  0.00000000E+00  0.00000000E+00
  0.00000000E+00  0.00000000E+00  0.00000000E+00
  0.00000000E+00  0.00000000E+00  0.00000000E+00
  0.00000000E+00  0.00000000E+00  0.00000000E+00
  0.00000000E+00  0.00000000E+00  0.00000000E+00
  0.00000000E+00  0.00000000E+00  0.00000000E+00
  0.00000000E+00  0.00000000E+00  0.00000000E+00
  0.00000000E+00  0.00000000E+00  0.00000000E+00
  0.00000000E+00  0.00000000E+00  0.00000000E+00
  0.00000000E+00  0.00000000E+00  0.00000000E+00
  0.00000000E+00  0.00000000E+00  0.00000000E+00
  0.00000000E+00  0.00000000E+00  0.00000000E+00
  0.00000000E+00  0.00000000E+00  0.00000000E+00
  0.00000000E+00  0.00000000E+00  0.00000000E+00
  0.00000000E+00  0.00000000E+00  0.00000000E+00
  0.00000000E+00  0.00000000E+00  0.00000000E+00
  0.00000000E+00  0.00000000E+00  0.00000000E+00
  0.00000000E+00  0.00000000E+00  0.00000000E+00
  0.00000000E+00  0.00000000E+00  0.00000000E+00
  0.00000000E+00  0.00000000E+00  0.00000000E+00
  0.00000000E+00  0.00000000E+00  0.00000000E+00
  0.00000000E+00  0.00000000E+00  0.00000000E+00
  0.00000000E+00  0.00000000E+00  0.00000000E+00
  0.00000000E+00  0.00000000E+00  0.00000000E+00
  0.00000000E+00  0.00000000E+00  0.00000000E+00
  0.00000000E+00  0.00000000E+00  0.00000000E+00
  0.00000000E+00  0.00000000E+00  0.00000000E+00
  0.00000000E+00  0.00000000E+00  0.00000000E+00
  0.00000000E+00  0.00000000E+00  0.00000000E+00
  0.00000000E+00  0.00000000E+00  0.00000000E+00
  0.00000000E+00  0.00000000E+00  0.00000000E+00
  0.00000000E+00  0.00000000E+00  0.00000000E+00
  0.00000000E+00  0.00000000E+00  0.00000000E+00
  0.00000000E+00  0.00000000E+00  0.00000000E+00
  0.00000000E+00  0.00000000E+00  0.00000000E+00
  0.00000000E+00  0.00000000E+00  0.00000000E+00
  0.00000000E+00  0.00000000E+00  0.00000000E+00
  0.00000000E+00  0.00000000E+00  0.00000000E+00
  0.00000000E+00  0.00000000E+00  0.00000000E+00
  0.00000000E+00  0.00000000E+00  0.00000000E+00
  0.00000000E+00  0.00000000E+00  0.00000000E+00
  0.00000000E+00  0.00000000E+00  0.00000000E+00
  0.00000000E+00  0.00000000E+00  0.00000000E+00
  0.00000000E+00  0.00000000E+00  0.00000000E+00
  0.00000000E+00  0.00000000E+00  0.00000000E+00
  0.00000000E+00  0.00000000E+00  0.00000000E+00
  0.00000000E+00  0.00000000E+00  0.00000000E+00
  0.00000000E+00  0.00000000E+00  0.00000000E+00
  0.00000000E+00  0.00000000E+00  0.00000000E+00
  0.00000000E+00  0.00000000E+00  0.00000000E+00
  0.00000000E+00  0.00000000E+00  0.00000000E+00
  0.00000000E+00  0.00000000E+00  0.00000000E+00
  0.00000000E+00  0.00000000E+00  0.00000000E+00
  0.00000000E+00  0.00000000E+00  0.00000000E+00
  0.00000000E+00  0.00000000E+00  0.00000000E+00
  0.00000000E+00  0.00000000E+00  0.00000000E+00
  0.00000000E+00  0.00000000E+00  0.00000000E+00
  0.00000000E+00  0.00000000E+00  0.00000000E+00
  0.00000000E+00  0.00000000E+00  0.00000000E+00
  0.00000000E+00  0.00000000E+00  0.00000000E+00
  0.00000000E+00  0.00000000E+00  0.00000000E+00
  0.00000000E+00  0.00000000E+00  0.00000000E+00
  0.00000000E+00  0.00000000E+00  0.00000000E+00
