SrTiFeO                                 
   1.00000000000000     
    11.1989999999999998    0.0000000000000000    0.0000000000000000
     0.0000000000000000   11.1989999999999998    0.0000000000000000
     0.0000000000000000    0.0000000000000000   15.9830000000000005
   Sr   Ti   Fe   O 
    32    30     2    94
Direct
  0.0001628063825687  0.2498371936174313  0.1256428425830287
  0.0007057420064315  0.2492942579935686  0.6227352150563036
  0.0007852044203983  0.7499180684956631  0.1267965260911102
  0.0090165188031648  0.7513899230371448  0.6224331902737511
  0.5000819315043369  0.2492147955796017  0.1267965260911102
  0.4986100769628551  0.2409834811968352  0.6224331902737511
  0.4983803526659605  0.7516196473340396  0.1271066390989738
  0.4962294860899600  0.7537705139100400  0.6194415111753149
  0.9994562861424326  0.2505437138575676  0.3769632622588381
  0.9993788155866776  0.2506211844133225  0.8751028446672210
  0.9983005536530967  0.7490223670064231  0.3773919125593591
  0.0045623849313070  0.7506164161649157  0.8751082114945440
  0.5009776329935769  0.2516994463469034  0.3773919125593591
  0.4993835838350845  0.2454376150686929  0.8751082114945440
  0.5045601355154885  0.7454398644845115  0.3817180317193689
  0.4951181624733771  0.7548818375266230  0.8792209302241909
  0.2494062153455044  0.0005937846544956  0.1257111261048930
  0.2490441869332198  0.0009558130667803  0.6222812448134183
  0.2492286965780194  0.4994891705201145  0.1267117438495070
  0.2407048077237025  0.4980053603650790  0.6235198538599651
  0.7505108294798853  0.0007713034219806  0.1267117438495070
  0.7519946396349209  0.0092951922762975  0.6235198538599651
  0.7503122701325864  0.4996877298674138  0.1276704205843935
  0.7537319989177067  0.4962680010822934  0.6201569028471083
  0.2504200805690456  0.9995799194309544  0.3766635417151382
  0.2492794129695789  0.0007205870304211  0.8744307055290542
  0.2527299604262289  0.4994624307239173  0.3782159236401587
  0.2458200737380224  0.5003950380746375  0.8761522553996329
  0.7505375692760828  0.9972700395737712  0.3782159236401587
  0.7496049619253625  0.0041799262619776  0.8761522553996329
  0.7431663661835226  0.5068336338164774  0.3834444987639313
  0.7543268257972843  0.4956731742027156  0.8774628845977510
  0.9990435705443507  0.9995046377895529  0.9994941714189088
  0.9991305559479755  0.9994720127902662  0.5004851794518159
  0.9995712669397151  0.5008090571835654  0.0007294710801066
  0.9985019442034865  0.5017009569379037  0.5000447188064020
  0.5003925140620046  0.9997651967138782  0.0007394103092117
  0.5014839696778721  0.9987414370194629  0.4998842457753820
  0.5003248684683224  0.5000507282732465  0.0051588543496354
  0.2504953622104469  0.2509564294556493  0.9994941714189088
  0.2505279872097338  0.2508694440520246  0.5004851794518159
  0.2502348032861217  0.7496074859379954  0.0007394103092117
  0.2512585629805369  0.7485160303221279  0.4998842457753820
  0.7491909428164346  0.2504287330602850  0.0007294710801066
  0.7482990430620963  0.2514980557965134  0.5000447188064020
  0.7499492717267535  0.7496751315316776  0.0051588543496354
  0.2505939896092397  0.2506694824158997  0.2513389903761832
  0.2491567702337508  0.2497462954796919  0.7497592217778000
  0.2506648497366954  0.7494481136193882  0.2512480271152728
  0.2507590318013925  0.7504086321431245  0.7486595783889866
  0.7498022530140196  0.2509760988379691  0.2513074195378049
  0.7502451832291790  0.2501667236028293  0.7491412875250710
  0.7489974171189422  0.7490139713434276  0.2525342068665135
  0.7490360317695864  0.7487453387290240  0.7572042081900535
  0.9993305175841002  0.9994060103907600  0.2513389903761832
  0.0002537045203081  0.0008432297662492  0.7497592217778000
  0.9990239011620310  0.5001977469859804  0.2513074195378049
  0.9998332763971706  0.4997548167708209  0.7491412875250710
  0.5005518863806118  0.9993351502633047  0.2512480271152728
  0.4995913678568755  0.9992409681986074  0.7486595783889866
  0.5009860286565724  0.5010025828810578  0.2525342068665135
  0.5012546612709760  0.5009639682304136  0.7572042081900535
  0.4976021459254762  0.4979450584754500  0.5022580242559740
  0.7520549415245499  0.7523978540745239  0.5022580242559740
  0.1092401247415404  0.1407598752584596  0.2514726202312006
  0.1105833894595009  0.1394166105404991  0.7573791545087207
  0.1087293492480996  0.6414350752539589  0.2496651174153189
  0.1124699970256481  0.6379517037874192  0.7502102150089192
  0.6085649247460411  0.1412706507519004  0.2496651174153189
  0.6120482962125808  0.1375300029743519  0.7502102150089192
  0.6085612881740539  0.6414387118259461  0.2422667914967485
  0.3912979839164994  0.3586058507574759  0.2487298440445936
  0.3928223385604884  0.3659083182628611  0.7382623463745189
  0.3913197867774570  0.8586802132225430  0.2505335170302504
  0.3895733409373275  0.8604266590626726  0.7513548409747554
  0.8923415747285440  0.3576584252714560  0.2486501897839437
  0.8884726376907478  0.3615273623092522  0.7517228017018066
  0.8913941492425242  0.8587020160835005  0.2487298440445936
  0.8840916817371389  0.8571776614395115  0.7382623463745189
  0.3588511553331173  0.1087805492207817  0.2498941481850213
  0.3619891128969903  0.1115650453016855  0.7532965187492626
  0.3577262417455838  0.6085859916854868  0.2475458500909067
  0.3668696181492553  0.6091860718171864  0.7370137003855430
  0.8586105855857925  0.1088579753594824  0.2503625431153947
  0.8604367966151895  0.1102460422156979  0.7534620081159403
  0.8595541547557231  0.6079612582191538  0.2476747654107745
  0.8589551532228337  0.6143520599758041  0.7398367257339750
  0.1411420246405176  0.3913894144142075  0.2503625431153947
  0.1397539577843021  0.3895632033848104  0.7534620081159403
  0.1412194507792183  0.8911488446668826  0.2498941481850213
  0.1384349546983145  0.8880108871030097  0.7532965187492626
  0.6420387417808462  0.3904458452442769  0.2476747654107745
  0.6414140083145132  0.8922737582544161  0.2475458500909067
  0.6408139281828136  0.8831303818507448  0.7370137003855430
  0.3597681845799650  0.3920997970317815  0.9982328890726743
  0.3599739420976787  0.8900260579023210  0.9971908901135507
  0.3614191650509243  0.8885808349490760  0.4997647908018844
  0.8592781863422647  0.3907218136577354  0.9998250862682262
  0.8614440897808988  0.3885559102191011  0.4990111335543843
  0.8579002029682183  0.8902318154200352  0.9982328890726743
  0.8645585386112098  0.8917317641240433  0.5126291441066047
  0.1392226603300036  0.1107773396699963  0.9951618610824718
  0.1392316353386896  0.1107683646613104  0.4963928266188091
  0.1406233266949192  0.6096283183697720  0.9990820887084330
  0.1381208004149666  0.6109204128174953  0.5000691721353854
  0.6403716816302280  0.1093766733050808  0.9990820887084330
  0.6390795871825047  0.1118791995850334  0.5000691721353854
  0.6418681345053051  0.6081318654946949  0.9992226280086303
  0.1096387749423120  0.3608109251217314  0.9966755408539510
  0.1105175897993943  0.3601908685572607  0.4989432757518753
  0.1103244195561192  0.8593690945171013  0.9979908744005237
  0.1113875799115744  0.8618312920473068  0.4983427629255437
  0.6082015796136963  0.3593024535838202  0.9983886194664839
  0.6092157417278494  0.8581628671686701  0.0001061977617152
  0.6116992385019958  0.8679116867246969  0.5076126804620756
  0.3906309054828986  0.1396755804438808  0.9979908744005237
  0.3881687079526930  0.1386124200884256  0.4983427629255437
  0.3918371328313299  0.6407842582721506  0.0001061977617152
  0.3820883132753032  0.6383007614980042  0.5076126804620756
  0.8891890748782686  0.1403612250576880  0.9966755408539510
  0.8898091314427395  0.1394824102006058  0.4989432757518753
  0.8906975464161799  0.6417984203863037  0.9983886194664839
  0.0003980940245457  0.0012060502840628  0.1234141286790295
  0.0085337882182719  0.0081657376417793  0.6274062912762567
  0.0012209523046047  0.4996661735035667  0.1238712069557395
  0.0055022992521794  0.4929932316057328  0.6262133768088539
  0.4985218441570043  0.0001045926492721  0.1239682352614948
  0.4931291599917575  0.0061774298445645  0.6258955557229999
  0.4992857911905067  0.4977639762032930  0.1231672261814698
  0.9949939240656986  0.9959050658695838  0.3748615602314629
  0.9941730509951252  0.9920661038950768  0.8739592448920027
  0.9980292596446624  0.5027859827141428  0.3750244764555938
  0.9947240783307161  0.5048234164453831  0.8738472066842016
  0.5024605991234301  0.9981429667183022  0.3748971487173278
  0.5069148512977520  0.9952257723057610  0.8735559403594273
  0.5031816685858036  0.5055985587549940  0.8722933077930513
  0.2540949341304162  0.2550060759343014  0.3748615602314629
  0.2579338961049231  0.2558269490048750  0.8739592448920027
  0.2518570332816977  0.7475394008765699  0.3748971487173278
  0.2547742276942389  0.7430851487022480  0.8735559403594273
  0.7472140172858572  0.2519707403553376  0.3750244764555938
  0.7451765835546169  0.2552759216692838  0.8738472066842016
  0.7435019410718610  0.7429200883521990  0.3700225244756272
  0.7444014412450060  0.7468183314141964  0.8722933077930513
  0.2487939497159372  0.2496019059754543  0.1234141286790295
  0.2418342623582208  0.2414662117817281  0.6274062912762567
  0.2498954073507280  0.7514781558429958  0.1239682352614948
  0.2438225701554355  0.7568708400082423  0.6258955557229999
  0.7503338264964331  0.2487790476953953  0.1238712069557395
  0.7570067683942669  0.2444977007478206  0.6262133768088539
  0.7522360237967070  0.7507142088094932  0.1231672261814698
  0.6356479400241959  0.3910448467771662  0.7398367257339750
  0.6138659643560592  0.6361340356439408  0.7296479069113643
  0.5070799116478010  0.5064980589281390  0.3700225244756272
  0.6124701190140885  0.3573060501440115  0.5088857166456073
  0.3582682358759566  0.3854414613887904  0.5126291441066047
  0.8926939498559884  0.6375298809859115  0.5088857166456073
  0.6357698253394133  0.6142301746605867  0.5213967435568577
 
  0.00000000E+00  0.00000000E+00  0.00000000E+00
  0.00000000E+00  0.00000000E+00  0.00000000E+00
  0.00000000E+00  0.00000000E+00  0.00000000E+00
  0.00000000E+00  0.00000000E+00  0.00000000E+00
  0.00000000E+00  0.00000000E+00  0.00000000E+00
  0.00000000E+00  0.00000000E+00  0.00000000E+00
  0.00000000E+00  0.00000000E+00  0.00000000E+00
  0.00000000E+00  0.00000000E+00  0.00000000E+00
  0.00000000E+00  0.00000000E+00  0.00000000E+00
  0.00000000E+00  0.00000000E+00  0.00000000E+00
  0.00000000E+00  0.00000000E+00  0.00000000E+00
  0.00000000E+00  0.00000000E+00  0.00000000E+00
  0.00000000E+00  0.00000000E+00  0.00000000E+00
  0.00000000E+00  0.00000000E+00  0.00000000E+00
  0.00000000E+00  0.00000000E+00  0.00000000E+00
  0.00000000E+00  0.00000000E+00  0.00000000E+00
  0.00000000E+00  0.00000000E+00  0.00000000E+00
  0.00000000E+00  0.00000000E+00  0.00000000E+00
  0.00000000E+00  0.00000000E+00  0.00000000E+00
  0.00000000E+00  0.00000000E+00  0.00000000E+00
  0.00000000E+00  0.00000000E+00  0.00000000E+00
  0.00000000E+00  0.00000000E+00  0.00000000E+00
  0.00000000E+00  0.00000000E+00  0.00000000E+00
  0.00000000E+00  0.00000000E+00  0.00000000E+00
  0.00000000E+00  0.00000000E+00  0.00000000E+00
  0.00000000E+00  0.00000000E+00  0.00000000E+00
  0.00000000E+00  0.00000000E+00  0.00000000E+00
  0.00000000E+00  0.00000000E+00  0.00000000E+00
  0.00000000E+00  0.00000000E+00  0.00000000E+00
  0.00000000E+00  0.00000000E+00  0.00000000E+00
  0.00000000E+00  0.00000000E+00  0.00000000E+00
  0.00000000E+00  0.00000000E+00  0.00000000E+00
  0.00000000E+00  0.00000000E+00  0.00000000E+00
  0.00000000E+00  0.00000000E+00  0.00000000E+00
  0.00000000E+00  0.00000000E+00  0.00000000E+00
  0.00000000E+00  0.00000000E+00  0.00000000E+00
  0.00000000E+00  0.00000000E+00  0.00000000E+00
  0.00000000E+00  0.00000000E+00  0.00000000E+00
  0.00000000E+00  0.00000000E+00  0.00000000E+00
  0.00000000E+00  0.00000000E+00  0.00000000E+00
  0.00000000E+00  0.00000000E+00  0.00000000E+00
  0.00000000E+00  0.00000000E+00  0.00000000E+00
  0.00000000E+00  0.00000000E+00  0.00000000E+00
  0.00000000E+00  0.00000000E+00  0.00000000E+00
  0.00000000E+00  0.00000000E+00  0.00000000E+00
  0.00000000E+00  0.00000000E+00  0.00000000E+00
  0.00000000E+00  0.00000000E+00  0.00000000E+00
  0.00000000E+00  0.00000000E+00  0.00000000E+00
  0.00000000E+00  0.00000000E+00  0.00000000E+00
  0.00000000E+00  0.00000000E+00  0.00000000E+00
  0.00000000E+00  0.00000000E+00  0.00000000E+00
  0.00000000E+00  0.00000000E+00  0.00000000E+00
  0.00000000E+00  0.00000000E+00  0.00000000E+00
  0.00000000E+00  0.00000000E+00  0.00000000E+00
  0.00000000E+00  0.00000000E+00  0.00000000E+00
  0.00000000E+00  0.00000000E+00  0.00000000E+00
  0.00000000E+00  0.00000000E+00  0.00000000E+00
  0.00000000E+00  0.00000000E+00  0.00000000E+00
  0.00000000E+00  0.00000000E+00  0.00000000E+00
  0.00000000E+00  0.00000000E+00  0.00000000E+00
  0.00000000E+00  0.00000000E+00  0.00000000E+00
  0.00000000E+00  0.00000000E+00  0.00000000E+00
  0.00000000E+00  0.00000000E+00  0.00000000E+00
  0.00000000E+00  0.00000000E+00  0.00000000E+00
  0.00000000E+00  0.00000000E+00  0.00000000E+00
  0.00000000E+00  0.00000000E+00  0.00000000E+00
  0.00000000E+00  0.00000000E+00  0.00000000E+00
  0.00000000E+00  0.00000000E+00  0.00000000E+00
  0.00000000E+00  0.00000000E+00  0.00000000E+00
  0.00000000E+00  0.00000000E+00  0.00000000E+00
  0.00000000E+00  0.00000000E+00  0.00000000E+00
  0.00000000E+00  0.00000000E+00  0.00000000E+00
  0.00000000E+00  0.00000000E+00  0.00000000E+00
  0.00000000E+00  0.00000000E+00  0.00000000E+00
  0.00000000E+00  0.00000000E+00  0.00000000E+00
  0.00000000E+00  0.00000000E+00  0.00000000E+00
  0.00000000E+00  0.00000000E+00  0.00000000E+00
  0.00000000E+00  0.00000000E+00  0.00000000E+00
  0.00000000E+00  0.00000000E+00  0.00000000E+00
  0.00000000E+00  0.00000000E+00  0.00000000E+00
  0.00000000E+00  0.00000000E+00  0.00000000E+00
  0.00000000E+00  0.00000000E+00  0.00000000E+00
  0.00000000E+00  0.00000000E+00  0.00000000E+00
  0.00000000E+00  0.00000000E+00  0.00000000E+00
  0.00000000E+00  0.00000000E+00  0.00000000E+00
  0.00000000E+00  0.00000000E+00  0.00000000E+00
  0.00000000E+00  0.00000000E+00  0.00000000E+00
  0.00000000E+00  0.00000000E+00  0.00000000E+00
  0.00000000E+00  0.00000000E+00  0.00000000E+00
  0.00000000E+00  0.00000000E+00  0.00000000E+00
  0.00000000E+00  0.00000000E+00  0.00000000E+00
  0.00000000E+00  0.00000000E+00  0.00000000E+00
  0.00000000E+00  0.00000000E+00  0.00000000E+00
  0.00000000E+00  0.00000000E+00  0.00000000E+00
  0.00000000E+00  0.00000000E+00  0.00000000E+00
  0.00000000E+00  0.00000000E+00  0.00000000E+00
  0.00000000E+00  0.00000000E+00  0.00000000E+00
  0.00000000E+00  0.00000000E+00  0.00000000E+00
  0.00000000E+00  0.00000000E+00  0.00000000E+00
  0.00000000E+00  0.00000000E+00  0.00000000E+00
  0.00000000E+00  0.00000000E+00  0.00000000E+00
  0.00000000E+00  0.00000000E+00  0.00000000E+00
  0.00000000E+00  0.00000000E+00  0.00000000E+00
  0.00000000E+00  0.00000000E+00  0.00000000E+00
  0.00000000E+00  0.00000000E+00  0.00000000E+00
  0.00000000E+00  0.00000000E+00  0.00000000E+00
  0.00000000E+00  0.00000000E+00  0.00000000E+00
  0.00000000E+00  0.00000000E+00  0.00000000E+00
  0.00000000E+00  0.00000000E+00  0.00000000E+00
  0.00000000E+00  0.00000000E+00  0.00000000E+00
  0.00000000E+00  0.00000000E+00  0.00000000E+00
  0.00000000E+00  0.00000000E+00  0.00000000E+00
  0.00000000E+00  0.00000000E+00  0.00000000E+00
  0.00000000E+00  0.00000000E+00  0.00000000E+00
  0.00000000E+00  0.00000000E+00  0.00000000E+00
  0.00000000E+00  0.00000000E+00  0.00000000E+00
  0.00000000E+00  0.00000000E+00  0.00000000E+00
  0.00000000E+00  0.00000000E+00  0.00000000E+00
  0.00000000E+00  0.00000000E+00  0.00000000E+00
  0.00000000E+00  0.00000000E+00  0.00000000E+00
  0.00000000E+00  0.00000000E+00  0.00000000E+00
  0.00000000E+00  0.00000000E+00  0.00000000E+00
  0.00000000E+00  0.00000000E+00  0.00000000E+00
  0.00000000E+00  0.00000000E+00  0.00000000E+00
  0.00000000E+00  0.00000000E+00  0.00000000E+00
  0.00000000E+00  0.00000000E+00  0.00000000E+00
  0.00000000E+00  0.00000000E+00  0.00000000E+00
  0.00000000E+00  0.00000000E+00  0.00000000E+00
  0.00000000E+00  0.00000000E+00  0.00000000E+00
  0.00000000E+00  0.00000000E+00  0.00000000E+00
  0.00000000E+00  0.00000000E+00  0.00000000E+00
  0.00000000E+00  0.00000000E+00  0.00000000E+00
  0.00000000E+00  0.00000000E+00  0.00000000E+00
  0.00000000E+00  0.00000000E+00  0.00000000E+00
  0.00000000E+00  0.00000000E+00  0.00000000E+00
  0.00000000E+00  0.00000000E+00  0.00000000E+00
  0.00000000E+00  0.00000000E+00  0.00000000E+00
  0.00000000E+00  0.00000000E+00  0.00000000E+00
  0.00000000E+00  0.00000000E+00  0.00000000E+00
  0.00000000E+00  0.00000000E+00  0.00000000E+00
  0.00000000E+00  0.00000000E+00  0.00000000E+00
  0.00000000E+00  0.00000000E+00  0.00000000E+00
  0.00000000E+00  0.00000000E+00  0.00000000E+00
  0.00000000E+00  0.00000000E+00  0.00000000E+00
  0.00000000E+00  0.00000000E+00  0.00000000E+00
  0.00000000E+00  0.00000000E+00  0.00000000E+00
  0.00000000E+00  0.00000000E+00  0.00000000E+00
  0.00000000E+00  0.00000000E+00  0.00000000E+00
  0.00000000E+00  0.00000000E+00  0.00000000E+00
  0.00000000E+00  0.00000000E+00  0.00000000E+00
  0.00000000E+00  0.00000000E+00  0.00000000E+00
  0.00000000E+00  0.00000000E+00  0.00000000E+00
  0.00000000E+00  0.00000000E+00  0.00000000E+00
  0.00000000E+00  0.00000000E+00  0.00000000E+00
  0.00000000E+00  0.00000000E+00  0.00000000E+00
  0.00000000E+00  0.00000000E+00  0.00000000E+00
  0.00000000E+00  0.00000000E+00  0.00000000E+00
  0.00000000E+00  0.00000000E+00  0.00000000E+00
