SrTiFeO                                 
   1.00000000000000     
    11.1989999999999998    0.0000000000000000    0.0000000000000000
     0.0000000000000000   11.1989999999999998    0.0000000000000000
     0.0000000000000000    0.0000000000000000   15.9830000000000005
   Sr   Ti   Fe   O 
    32    31     1    94
Direct
  0.9993740950929397  0.2502342290522214  0.1243780117291283
  0.9999880079306163  0.2445932194533884  0.6276642194461399
  0.9984246747815058  0.7499163002708952  0.1251045967056102
  0.0043254374323664  0.7535364600422790  0.6272108550470180
  0.4999953005514197  0.2506821001152558  0.1251797451517744
  0.5029712391251117  0.2459286428381470  0.6262418986314463
  0.5005045310277400  0.7502776945529774  0.1237227957496561
  0.4993968181897879  0.7528153236914361  0.6277869516165789
  0.9999880079306163  0.2445932194533884  0.3723357805538601
  0.9993740950929397  0.2502342290522214  0.8756219882708718
  0.0043254374323664  0.7535364600422790  0.3727891449529820
  0.9984246747815058  0.7499163002708952  0.8748954032943899
  0.5029712391251117  0.2459286428381470  0.3737581013685537
  0.4999953005514197  0.2506821001152558  0.8748202548482256
  0.4993968181897879  0.7528153236914361  0.3722130483834210
  0.5005045310277400  0.7502776945529774  0.8762772042503439
  0.2498710520186743  0.9995210921317842  0.1249188949800864
  0.2502147341310188  0.9991382268795717  0.6263313360387134
  0.2494906796026062  0.5004855808402502  0.1248133852140445
  0.2479891145172868  0.5026545589742796  0.6281427080050961
  0.7493735549936327  0.9984380295358349  0.1254192414701463
  0.7511103292890525  0.9983646054861932  0.6225405219790592
  0.7487358173685603  0.4998327817674755  0.1232088508191571
  0.7521422001669338  0.4935955863597163  0.6314545463992328
  0.2502147341310188  0.9991382268795717  0.3736686639612866
  0.2498710520186743  0.9995210921317842  0.8750811050199135
  0.2479891145172868  0.5026545589742796  0.3718572919949039
  0.2494906796026062  0.5004855808402502  0.8751866147859555
  0.7511103292890525  0.9983646054861932  0.3774594780209408
  0.7493735549936327  0.9984380295358349  0.8745807585298537
  0.7521422001669338  0.4935955863597163  0.3685454536007671
  0.7487358173685603  0.4998327817674755  0.8767911491808429
  0.9996695210368051  0.9994863697173746 -0.0000000000000000
  0.9985783504246359  0.9983992699498502  0.5000000000000000
  0.0003922815240352  0.4994342987682970 -0.0000000000000000
  0.0059505395268885  0.4892135972930755  0.5000000000000000
  0.5002913510173985  0.9999682207616395 -0.0000000000000000
  0.5011536282457643  0.9971788549352846  0.5000000000000000
  0.4990240659663765  0.4996242126730056 -0.0000000000000000
  0.2500942665529179  0.2506023430290035 -0.0000000000000000
  0.2513789875077680  0.2414815220152085  0.5000000000000000
  0.2496364604364237  0.7500516246468127 -0.0000000000000000
  0.2509568200491320  0.7523145593310018  0.5000000000000000
  0.7502643592690887  0.2492850384116623 -0.0000000000000000
  0.7498451059581264  0.7508755362959431 -0.0000000000000000
  0.2504286995153843  0.2500830390733861  0.2503748767548151
  0.2504286995153843  0.2500830390733861  0.7496251232451850
  0.2504665457056105  0.7499944847809502  0.2493268788234233
  0.2504665457056105  0.7499944847809502  0.7506731211765767
  0.7500345139759089  0.2486660210522817  0.2493979499347585
  0.7500345139759089  0.2486660210522817  0.7506020500652414
  0.7501597946207316  0.7477914118656204  0.2523603976122594
  0.7501597946207316  0.7477914118656204  0.7476396023877406
  0.9998270977246640  0.9997842399191855  0.2498892294573647
  0.9998270977246640  0.9997842399191855  0.7501107705426353
  0.9992479374288734  0.5005772480265820  0.2492857291839714
  0.9992479374288734  0.5005772480265820  0.7507142708160286
  0.5005814779486112  0.9997765127368451  0.2500278734780982
  0.5005814779486112  0.9997765127368451  0.7499721265219018
  0.5005014721764857  0.5008015231393788  0.2497910792951517
  0.5005014721764857  0.5008015231393788  0.7502089207048482
  0.7506145033728899  0.2511625434222445  0.5000000000000000
  0.4885340324852674  0.4935864503858052  0.5000000000000000
  0.7497816540229985  0.7479101372112561  0.5000000000000000
  0.1100902455184722  0.1405941202631291  0.2480438471604246
  0.1100902455184722  0.1405941202631291  0.7519561528395755
  0.1095589637377078  0.6399609864584487  0.2504146023657124
  0.1095589637377078  0.6399609864584487  0.7495853976342874
  0.6098024895331742  0.1398630251611369  0.2491185050110788
  0.6098024895331742  0.1398630251611369  0.7508814949889212
  0.6088823212104578  0.6404904808480391  0.2461277395181081
  0.6088823212104578  0.6404904808480391  0.7538722604818920
  0.3905021566894723  0.3612045320236102  0.2549253988767287
  0.3905021566894723  0.3612045320236102  0.7450746011232714
  0.3899343143160887  0.8601499490562394  0.2495830525614206
  0.3899343143160887  0.8601499490562394  0.7504169474385795
  0.8901590897146308  0.3599495531353922  0.2522688208996154
  0.8901590897146308  0.3599495531353922  0.7477311791003846
  0.8897420619551873  0.8586714666434834  0.2540185852460963
  0.8897420619551873  0.8586714666434834  0.7459814147539038
  0.3597562293239766  0.1106780792389839  0.2485669237123309
  0.3597562293239766  0.1106780792389839  0.7514330762876691
  0.3594559304633531  0.6091634441684203  0.2509300476147407
  0.3594559304633531  0.6091634441684203  0.7490699523852593
  0.8596068526237985  0.1090349771638698  0.2510199402144280
  0.8596068526237985  0.1090349771638698  0.7489800597855649
  0.8593905157849201  0.6082398184802595  0.2442068597010958
  0.8593905157849201  0.6082398184802595  0.7557931402989042
  0.1390338230821458  0.3909331293964025  0.2541629715713475
  0.1390338230821458  0.3909331293964025  0.7458370284286524
  0.1395101009292068  0.8894017754479384  0.2508326469695455
  0.1395101009292068  0.8894017754479384  0.7491673530304546
  0.6393090693807247  0.3895393210824219  0.2491326633962715
  0.6393090693807247  0.3895393210824219  0.7508673366037286
  0.6406114866309900  0.8888265380882048  0.2556359568433434
  0.6406114866309900  0.8888265380882048  0.7443640431566566
  0.3588276190688032  0.3908980762015176 -0.0000000000000000
  0.3592929671566283  0.8908943295060994 -0.0000000000000000
  0.3546643736143803  0.8953411505481741  0.5000000000000000
  0.8598784144418933  0.3904146964614641 -0.0000000000000000
  0.8593256440209329  0.8908679444289690 -0.0000000000000000
  0.8660893411889482  0.8935945433770940  0.5000000000000000
  0.1410323142526097  0.1096446774398435 -0.0000000000000000
  0.1445991428066629  0.1080618167532612  0.5000000000000000
  0.1403031025671239  0.6090603434033991 -0.0000000000000000
  0.1337491281800317  0.6126306782611087  0.5000000000000000
  0.6408028396082990  0.1093202175421282 -0.0000000000000000
  0.6406027513023553  0.1121674668539701  0.5000000000000000
  0.6396373555635995  0.6099964058663214 -0.0000000000000000
  0.1094183095818231  0.3584725147444174 -0.0000000000000000
  0.1063259390045092  0.3561374270913329  0.5000000000000000
  0.1091610829881818  0.8593238261275046 -0.0000000000000000
  0.1102993999537756  0.8590400710741368  0.5000000000000000
  0.6097248624073076  0.3597499769366960 -0.0000000000000000
  0.6090903269028186  0.8594641813968301 -0.0000000000000000
  0.6014371390506815  0.8612425765089072  0.5000000000000000
  0.3906173403177269  0.1408214741721176 -0.0000000000000000
  0.3938692225970099  0.1473536729103863  0.5000000000000000
  0.3904041213150145  0.6404841158893871 -0.0000000000000000
  0.8913319511289325  0.1404117722277895 -0.0000000000000000
  0.8927374200005904  0.1451942377895316  0.5000000000000000
  0.8900155804973845  0.6398181096780273 -0.0000000000000000
  0.9987369434327598  0.9979791417937471  0.1253888690269159
  0.0029522752847332  0.0036098190867294  0.6253682278333214
  0.0025203580324325  0.4971724851518770  0.1252213239881636
  0.9914369605172952  0.5115435917868234  0.6223002918637877
  0.5020480529859986  0.9982041700413797  0.1253384595396294
  0.4968423502721658  0.0037057831670912  0.6253531035472341
  0.4976480477040457  0.4979113116131615  0.1252916238601883
  0.5095854637741192  0.5103815899258377  0.6221670520790633
  0.0029522752847332  0.0036098190867294  0.3746317721666786
  0.9987369434327598  0.9979791417937471  0.8746111309730841
  0.9914369605172952  0.5115435917868234  0.3776997081362123
  0.0025203580324325  0.4971724851518770  0.8747786760118365
  0.4968423502721658  0.0037057831670912  0.3746468964527660
  0.5020480529859986  0.9982041700413797  0.8746615404603706
  0.4976480477040457  0.4979113116131615  0.8747083761398117
  0.2490450016129545  0.2487710451362529  0.3756217827772577
  0.2511114799558372  0.2540988582175164  0.8743191643792783
  0.2507267513382736  0.7489807148753274  0.3752477363869515
  0.2497804345031298  0.7497122664809791  0.8748555181140637
  0.7515390642774419  0.2499392580912409  0.8748492617603522
  0.7498261782505914  0.7540061725543413  0.8747488467679633
  0.2511114799558372  0.2540988582175164  0.1256808356207218
  0.2490450016129545  0.2487710451362529  0.6243782172227424
  0.2497804345031298  0.7497122664809791  0.1251444818859363
  0.2507267513382736  0.7489807148753274  0.6247522636130414
  0.7515390642774419  0.2499392580912409  0.1251507382396477
  0.7488731502484195  0.2502949149259872  0.6248273617888630
  0.7498261782505914  0.7540061725543413  0.1252511532320367
  0.7520380646542595  0.7293095843551406  0.6228365705098460
  0.7488731502484195  0.2502949149259872  0.3751726382111369
  0.8559095507030611  0.3987892206489736  0.5000000000000000
  0.3982108464750830  0.6458192140360932  0.5000000000000000
  0.5095854637741192  0.5103815899258377  0.3778329479209367
  0.3528787126985195  0.3964132086077803  0.5000000000000000
  0.7520380646542595  0.7293095843551406  0.3771634294901611
  0.6111745671002040  0.3683758417785756  0.5000000000000000
 
  0.00000000E+00  0.00000000E+00  0.00000000E+00
  0.00000000E+00  0.00000000E+00  0.00000000E+00
  0.00000000E+00  0.00000000E+00  0.00000000E+00
  0.00000000E+00  0.00000000E+00  0.00000000E+00
  0.00000000E+00  0.00000000E+00  0.00000000E+00
  0.00000000E+00  0.00000000E+00  0.00000000E+00
  0.00000000E+00  0.00000000E+00  0.00000000E+00
  0.00000000E+00  0.00000000E+00  0.00000000E+00
  0.00000000E+00  0.00000000E+00  0.00000000E+00
  0.00000000E+00  0.00000000E+00  0.00000000E+00
  0.00000000E+00  0.00000000E+00  0.00000000E+00
  0.00000000E+00  0.00000000E+00  0.00000000E+00
  0.00000000E+00  0.00000000E+00  0.00000000E+00
  0.00000000E+00  0.00000000E+00  0.00000000E+00
  0.00000000E+00  0.00000000E+00  0.00000000E+00
  0.00000000E+00  0.00000000E+00  0.00000000E+00
  0.00000000E+00  0.00000000E+00  0.00000000E+00
  0.00000000E+00  0.00000000E+00  0.00000000E+00
  0.00000000E+00  0.00000000E+00  0.00000000E+00
  0.00000000E+00  0.00000000E+00  0.00000000E+00
  0.00000000E+00  0.00000000E+00  0.00000000E+00
  0.00000000E+00  0.00000000E+00  0.00000000E+00
  0.00000000E+00  0.00000000E+00  0.00000000E+00
  0.00000000E+00  0.00000000E+00  0.00000000E+00
  0.00000000E+00  0.00000000E+00  0.00000000E+00
  0.00000000E+00  0.00000000E+00  0.00000000E+00
  0.00000000E+00  0.00000000E+00  0.00000000E+00
  0.00000000E+00  0.00000000E+00  0.00000000E+00
  0.00000000E+00  0.00000000E+00  0.00000000E+00
  0.00000000E+00  0.00000000E+00  0.00000000E+00
  0.00000000E+00  0.00000000E+00  0.00000000E+00
  0.00000000E+00  0.00000000E+00  0.00000000E+00
  0.00000000E+00  0.00000000E+00  0.00000000E+00
  0.00000000E+00  0.00000000E+00  0.00000000E+00
  0.00000000E+00  0.00000000E+00  0.00000000E+00
  0.00000000E+00  0.00000000E+00  0.00000000E+00
  0.00000000E+00  0.00000000E+00  0.00000000E+00
  0.00000000E+00  0.00000000E+00  0.00000000E+00
  0.00000000E+00  0.00000000E+00  0.00000000E+00
  0.00000000E+00  0.00000000E+00  0.00000000E+00
  0.00000000E+00  0.00000000E+00  0.00000000E+00
  0.00000000E+00  0.00000000E+00  0.00000000E+00
  0.00000000E+00  0.00000000E+00  0.00000000E+00
  0.00000000E+00  0.00000000E+00  0.00000000E+00
  0.00000000E+00  0.00000000E+00  0.00000000E+00
  0.00000000E+00  0.00000000E+00  0.00000000E+00
  0.00000000E+00  0.00000000E+00  0.00000000E+00
  0.00000000E+00  0.00000000E+00  0.00000000E+00
  0.00000000E+00  0.00000000E+00  0.00000000E+00
  0.00000000E+00  0.00000000E+00  0.00000000E+00
  0.00000000E+00  0.00000000E+00  0.00000000E+00
  0.00000000E+00  0.00000000E+00  0.00000000E+00
  0.00000000E+00  0.00000000E+00  0.00000000E+00
  0.00000000E+00  0.00000000E+00  0.00000000E+00
  0.00000000E+00  0.00000000E+00  0.00000000E+00
  0.00000000E+00  0.00000000E+00  0.00000000E+00
  0.00000000E+00  0.00000000E+00  0.00000000E+00
  0.00000000E+00  0.00000000E+00  0.00000000E+00
  0.00000000E+00  0.00000000E+00  0.00000000E+00
  0.00000000E+00  0.00000000E+00  0.00000000E+00
  0.00000000E+00  0.00000000E+00  0.00000000E+00
  0.00000000E+00  0.00000000E+00  0.00000000E+00
  0.00000000E+00  0.00000000E+00  0.00000000E+00
  0.00000000E+00  0.00000000E+00  0.00000000E+00
  0.00000000E+00  0.00000000E+00  0.00000000E+00
  0.00000000E+00  0.00000000E+00  0.00000000E+00
  0.00000000E+00  0.00000000E+00  0.00000000E+00
  0.00000000E+00  0.00000000E+00  0.00000000E+00
  0.00000000E+00  0.00000000E+00  0.00000000E+00
  0.00000000E+00  0.00000000E+00  0.00000000E+00
  0.00000000E+00  0.00000000E+00  0.00000000E+00
  0.00000000E+00  0.00000000E+00  0.00000000E+00
  0.00000000E+00  0.00000000E+00  0.00000000E+00
  0.00000000E+00  0.00000000E+00  0.00000000E+00
  0.00000000E+00  0.00000000E+00  0.00000000E+00
  0.00000000E+00  0.00000000E+00  0.00000000E+00
  0.00000000E+00  0.00000000E+00  0.00000000E+00
  0.00000000E+00  0.00000000E+00  0.00000000E+00
  0.00000000E+00  0.00000000E+00  0.00000000E+00
  0.00000000E+00  0.00000000E+00  0.00000000E+00
  0.00000000E+00  0.00000000E+00  0.00000000E+00
  0.00000000E+00  0.00000000E+00  0.00000000E+00
  0.00000000E+00  0.00000000E+00  0.00000000E+00
  0.00000000E+00  0.00000000E+00  0.00000000E+00
  0.00000000E+00  0.00000000E+00  0.00000000E+00
  0.00000000E+00  0.00000000E+00  0.00000000E+00
  0.00000000E+00  0.00000000E+00  0.00000000E+00
  0.00000000E+00  0.00000000E+00  0.00000000E+00
  0.00000000E+00  0.00000000E+00  0.00000000E+00
  0.00000000E+00  0.00000000E+00  0.00000000E+00
  0.00000000E+00  0.00000000E+00  0.00000000E+00
  0.00000000E+00  0.00000000E+00  0.00000000E+00
  0.00000000E+00  0.00000000E+00  0.00000000E+00
  0.00000000E+00  0.00000000E+00  0.00000000E+00
  0.00000000E+00  0.00000000E+00  0.00000000E+00
  0.00000000E+00  0.00000000E+00  0.00000000E+00
  0.00000000E+00  0.00000000E+00  0.00000000E+00
  0.00000000E+00  0.00000000E+00  0.00000000E+00
  0.00000000E+00  0.00000000E+00  0.00000000E+00
  0.00000000E+00  0.00000000E+00  0.00000000E+00
  0.00000000E+00  0.00000000E+00  0.00000000E+00
  0.00000000E+00  0.00000000E+00  0.00000000E+00
  0.00000000E+00  0.00000000E+00  0.00000000E+00
  0.00000000E+00  0.00000000E+00  0.00000000E+00
  0.00000000E+00  0.00000000E+00  0.00000000E+00
  0.00000000E+00  0.00000000E+00  0.00000000E+00
  0.00000000E+00  0.00000000E+00  0.00000000E+00
  0.00000000E+00  0.00000000E+00  0.00000000E+00
  0.00000000E+00  0.00000000E+00  0.00000000E+00
  0.00000000E+00  0.00000000E+00  0.00000000E+00
  0.00000000E+00  0.00000000E+00  0.00000000E+00
  0.00000000E+00  0.00000000E+00  0.00000000E+00
  0.00000000E+00  0.00000000E+00  0.00000000E+00
  0.00000000E+00  0.00000000E+00  0.00000000E+00
  0.00000000E+00  0.00000000E+00  0.00000000E+00
  0.00000000E+00  0.00000000E+00  0.00000000E+00
  0.00000000E+00  0.00000000E+00  0.00000000E+00
  0.00000000E+00  0.00000000E+00  0.00000000E+00
  0.00000000E+00  0.00000000E+00  0.00000000E+00
  0.00000000E+00  0.00000000E+00  0.00000000E+00
  0.00000000E+00  0.00000000E+00  0.00000000E+00
  0.00000000E+00  0.00000000E+00  0.00000000E+00
  0.00000000E+00  0.00000000E+00  0.00000000E+00
  0.00000000E+00  0.00000000E+00  0.00000000E+00
  0.00000000E+00  0.00000000E+00  0.00000000E+00
  0.00000000E+00  0.00000000E+00  0.00000000E+00
  0.00000000E+00  0.00000000E+00  0.00000000E+00
  0.00000000E+00  0.00000000E+00  0.00000000E+00
  0.00000000E+00  0.00000000E+00  0.00000000E+00
  0.00000000E+00  0.00000000E+00  0.00000000E+00
  0.00000000E+00  0.00000000E+00  0.00000000E+00
  0.00000000E+00  0.00000000E+00  0.00000000E+00
  0.00000000E+00  0.00000000E+00  0.00000000E+00
  0.00000000E+00  0.00000000E+00  0.00000000E+00
  0.00000000E+00  0.00000000E+00  0.00000000E+00
  0.00000000E+00  0.00000000E+00  0.00000000E+00
  0.00000000E+00  0.00000000E+00  0.00000000E+00
  0.00000000E+00  0.00000000E+00  0.00000000E+00
  0.00000000E+00  0.00000000E+00  0.00000000E+00
  0.00000000E+00  0.00000000E+00  0.00000000E+00
  0.00000000E+00  0.00000000E+00  0.00000000E+00
  0.00000000E+00  0.00000000E+00  0.00000000E+00
  0.00000000E+00  0.00000000E+00  0.00000000E+00
  0.00000000E+00  0.00000000E+00  0.00000000E+00
  0.00000000E+00  0.00000000E+00  0.00000000E+00
  0.00000000E+00  0.00000000E+00  0.00000000E+00
  0.00000000E+00  0.00000000E+00  0.00000000E+00
  0.00000000E+00  0.00000000E+00  0.00000000E+00
  0.00000000E+00  0.00000000E+00  0.00000000E+00
  0.00000000E+00  0.00000000E+00  0.00000000E+00
  0.00000000E+00  0.00000000E+00  0.00000000E+00
  0.00000000E+00  0.00000000E+00  0.00000000E+00
  0.00000000E+00  0.00000000E+00  0.00000000E+00
  0.00000000E+00  0.00000000E+00  0.00000000E+00
  0.00000000E+00  0.00000000E+00  0.00000000E+00
  0.00000000E+00  0.00000000E+00  0.00000000E+00
  0.00000000E+00  0.00000000E+00  0.00000000E+00
  0.00000000E+00  0.00000000E+00  0.00000000E+00
