SrTiFeO                                 
   1.00000000000000     
    11.1989999999999998    0.0000000000000000    0.0000000000000000
     0.0000000000000000   11.1989999999999998    0.0000000000000000
     0.0000000000000000    0.0000000000000000   15.9830000000000005
   Sr   Ti   Fe   O 
    32    31     1    94
Direct
  0.9989637592405503  0.2507055596533493  0.1240976702463495
  0.0030176667189720  0.2441965540606490  0.6292414098810702
  0.9993120498906467  0.7494572064732846  0.1243926611824193
  0.0044089371421901  0.7556134779704052  0.6299849872274885
  0.5008118351928988  0.2502289744234192  0.1243049966932070
  0.4973647243869069  0.2460516255528540  0.6283391235801913
  0.5012352536572205  0.7495629714133289  0.1246363191811446
  0.5004171636464915  0.7533468896584173  0.6260404014182197
  0.0030176667189720  0.2441965540606490  0.3707585901189300
  0.9989637592405503  0.2507055596533493  0.8759023297536505
  0.0044089371421901  0.7556134779704052  0.3700150127725115
  0.9993120498906467  0.7494572064732846  0.8756073388175808
  0.4973647243869069  0.2460516255528540  0.3716608764198092
  0.5008118351928988  0.2502289744234192  0.8756950033067931
  0.5004171636464915  0.7533468896584173  0.3739595985817801
  0.5012352536572205  0.7495629714133289  0.8753636808188555
  0.2497107854794557  0.9995233952299197  0.1247937651102246
  0.2500830012721547  0.9999782838740328  0.6257194765996401
  0.2500159596636392  0.5003609027841788  0.1251640826984206
  0.2531171529045710  0.5006227096678825  0.6255650200517456
  0.7500136565716479  0.9991134165920693  0.1256015079770470
  0.7502181510840313  0.9945162145228942  0.6232167472075252
  0.7495370973135206  0.5002060772989039  0.1227105335268459
  0.7487353947122001  0.5000090323709379  0.6313448518138139
  0.2500830012721547  0.9999782838740328  0.3742805234003598
  0.2497107854794557  0.9995233952299197  0.8752062348897754
  0.2531171529045710  0.5006227096678825  0.3744349799482534
  0.2500159596636392  0.5003609027841788  0.8748359173015793
  0.7502181510840313  0.9945162145228942  0.3767832527924748
  0.7500136565716479  0.9991134165920693  0.8743984920229529
  0.7487353947122001  0.5000090323709379  0.3686551481861860
  0.7495370973135206  0.5002060772989039  0.8772894664731545
  0.9999035170422725  0.0003041478311080 -0.0000000000000000
  1.0005265391169487  0.9973638902942807  0.5000000000000000
  0.0007444129991733  0.4994466534923144 -0.0000000000000000
  0.0060385640564814  0.4871186148621591  0.5000000000000000
  0.5000399542874294  0.9996112041277373 -0.0000000000000000
  0.5002300640301355  0.9985749160742546  0.5000000000000000
  0.4993246140245497  0.5004651765025014 -0.0000000000000000
  0.2497203475464614  0.2502226923350226 -0.0000000000000000
  0.2555262218775284  0.2450832773286857  0.5000000000000000
  0.2503164682537143  0.7499977277022424 -0.0000000000000000
  0.2480816953764683  0.7527668212454819  0.5000000000000000
  0.7504168345490342  0.2491105192603369 -0.0000000000000000
  0.7495081554047972  0.7506791699130494 -0.0000000000000000
  0.2500317112924269  0.2501578149428199  0.2495131911276249
  0.2500317112924269  0.2501578149428199  0.7504868088723754
  0.2509742074839992  0.7497044327789907  0.2497199592262025
  0.2509742074839992  0.7497044327789907  0.7502800407737974
  0.7491172331141763  0.2502006437640472  0.2498933277919596
  0.7491172331141763  0.2502006437640472  0.7501066722080406
  0.7511089211010927  0.7487158596512709  0.2516325987648388
  0.7511089211010927  0.7487158596512709  0.7483674012351614
  0.9997648524080812  0.0004469176341569  0.2493490742814300
  0.9997648524080812  0.0004469176341569  0.7506509257185698
  0.9992894332143919  0.5007418192781083  0.2495884739095269
  0.9992894332143919  0.5007418192781083  0.7504115260904731
  0.5003667722799348  0.9997862534170860  0.2499113963214957
  0.5003667722799348  0.9997862534170860  0.7500886036785044
  0.5004399714565854  0.4991933647690402  0.2495298949035508
  0.5004399714565854  0.4991933647690402  0.7504701050964486
  0.7570207350971215  0.2473303227555665  0.5000000000000000
  0.4991433186442230  0.5063841961208613  0.5000000000000000
  0.7441408995588454  0.7496902059189556  0.5000000000000000
  0.1094905239297837  0.1411422227446378  0.2483304974670320
  0.1094905239297837  0.1411422227446378  0.7516695025329679
  0.1096577450992809  0.6401542480176886  0.2502083608814168
  0.1096577450992809  0.6401542480176886  0.7497916391185832
  0.6091001752676078  0.1405968613889358  0.2495785548042367
  0.6091001752676078  0.1405968613889358  0.7504214451957633
  0.6090702549218524  0.6400630003611912  0.2517862342442151
  0.6090702549218524  0.6400630003611912  0.7482137657557845
  0.3899603243895429  0.3590087681637343  0.2489448788947552
  0.3899603243895429  0.3590087681637343  0.7510551211052447
  0.3911339815522459  0.8590068026142985  0.2503277148915283
  0.3911339815522459  0.8590068026142985  0.7496722851084716
  0.8909432518538726  0.3595032918731902  0.2527115678988657
  0.8909432518538726  0.3595032918731902  0.7472884321011344
  0.8908643700197254  0.8602875516214638  0.2486761965286839
  0.8908643700197254  0.8602875516214638  0.7513238034713161
  0.3590108351425945  0.1098847792480134  0.2495486994159964
  0.3590108351425945  0.1098847792480134  0.7504513005840033
  0.3601400688365629  0.6083794839091559  0.2529060814381844
  0.3601400688365629  0.6083794839091559  0.7470939185618155
  0.8587517681025797  0.1103659709720806  0.2544833432838438
  0.8587517681025797  0.1103659709720806  0.7455166567161557
  0.8599911400485200  0.6088817511854787  0.2436162615930703
  0.8599911400485200  0.6088817511854787  0.7563837384069297
  0.1392677499236974  0.3915354470982601  0.2553870563088080
  0.1392677499236974  0.3915354470982601  0.7446129436911924
  0.1399753816572034  0.8898446340540914  0.2508472011879679
  0.1399753816572034  0.8898446340540914  0.7491527988120321
  0.6403613754735668  0.3904645251366631  0.2453101699828283
  0.6403613754735668  0.3904645251366631  0.7546898300171719
  0.6408642064339630  0.8895279175875276  0.2540283746893389
  0.6408642064339630  0.8895279175875276  0.7459716253106614
  0.3591881293587357  0.3907241760552872 -0.0000000000000000
  0.3590377194902855  0.8911469975816385 -0.0000000000000000
  0.3564408569145506  0.8921079147323363  0.5000000000000000
  0.8599647539303265  0.3903198911523533 -0.0000000000000000
  0.8594554962937783  0.8906889523749042 -0.0000000000000000
  0.8658443113836344  0.8940122750707579  0.5000000000000000
  0.1412671814856870  0.1092506170727942 -0.0000000000000000
  0.1432728242926552  0.1096914009967884  0.5000000000000000
  0.1405195665201110  0.6091887668650008 -0.0000000000000000
  0.1284068997428120  0.6138560557957146  0.5000000000000000
  0.6405219165236880  0.1093911906337157 -0.0000000000000000
  0.6373824667888781  0.1193414939716652  0.5000000000000000
  0.6400813456334585  0.6096387235775610 -0.0000000000000000
  0.1092781781773780  0.3586500136880054 -0.0000000000000000
  0.1063736038320369  0.3567781132363109  0.5000000000000000
  0.1093870276812666  0.8595890116508388 -0.0000000000000000
  0.1098965468303951  0.8597636678359739  0.5000000000000000
  0.6099780323617237  0.3599061047918727 -0.0000000000000000
  0.6087309312390572  0.8595882043969748 -0.0000000000000000
  0.6038587782315961  0.8654058656432557  0.5000000000000000
  0.3903480897176114  0.1409689523684595 -0.0000000000000000
  0.3913424878844984  0.1417465499187001  0.5000000000000000
  0.3906064217854600  0.6410219615682704 -0.0000000000000000
  0.8912082191355738  0.1406252157897522 -0.0000000000000000
  0.8949229786924100  0.1473892284911049  0.5000000000000000
  0.8904009055621518  0.6397460475303676 -0.0000000000000000
  0.9991389178257398  0.0014332179279712  0.1251611443460617
  0.0024900916709626  0.0022548746279428  0.6254352095736153
  0.0028015997475643  0.4969688895961989  0.1254448846937468
  0.9878983110150057  0.5137065632681650  0.6211349214080308
  0.5009337922242223  0.9990306543323966  0.1253858569689793
  0.4978215546203414  0.0022721885668972  0.6252312570585641
  0.4983475807923853  0.5017351745044394  0.1250018873570582
  0.5040832353327148  0.4895701914851683  0.6241323438705624
  0.0024900916709626  0.0022548746279428  0.3745647904263844
  0.9991389178257398  0.0014332179279712  0.8748388556539386
  0.9878983110150057  0.5137065632681650  0.3788650785919689
  0.0028015997475643  0.4969688895961989  0.8745551153062526
  0.4978215546203414  0.0022721885668972  0.3747687429414364
  0.5009337922242223  0.9990306543323966  0.8746141430310209
  0.4983475807923853  0.5017351745044394  0.8749981126429424
  0.2496512585177664  0.2493599031824299  0.3749327854398581
  0.2483430648711339  0.2523839180650850  0.8747873409809566
  0.2500096266619360  0.7493852182781211  0.3755848216365953
  0.2507843349912878  0.7491490310863690  0.8745046615363978
  0.7525060478627723  0.2481834913486980  0.8745457535138061
  0.7476923664799491  0.7516201942298925  0.8752796848183891
  0.2483430648711339  0.2523839180650850  0.1252126590190435
  0.2496512585177664  0.2493599031824299  0.6250672145601419
  0.2507843349912878  0.7491490310863690  0.1254953384636025
  0.2500096266619360  0.7493852182781211  0.6244151783634043
  0.7525060478627723  0.2481834913486980  0.1254542464861934
  0.7404491987963758  0.2593014476834539  0.6227016335252998
  0.7476923664799491  0.7516201942298925  0.1247203151816112
  0.7624720138815761  0.7404817965704277  0.6259145683288270
  0.7404491987963758  0.2593014476834539  0.3772983664746931
  0.8502239590718009  0.4031305446862566  0.5000000000000000
  0.3886671303220854  0.6404353672856222  0.5000000000000000
  0.5040832353327148  0.4895701914851683  0.3758676561294378
  0.3619831137216164  0.3869071785035186  0.5000000000000000
  0.7624720138815761  0.7404817965704277  0.3740854316711729
  0.6466041071853514  0.5889911639453534  0.5000000000000000
 
  0.00000000E+00  0.00000000E+00  0.00000000E+00
  0.00000000E+00  0.00000000E+00  0.00000000E+00
  0.00000000E+00  0.00000000E+00  0.00000000E+00
  0.00000000E+00  0.00000000E+00  0.00000000E+00
  0.00000000E+00  0.00000000E+00  0.00000000E+00
  0.00000000E+00  0.00000000E+00  0.00000000E+00
  0.00000000E+00  0.00000000E+00  0.00000000E+00
  0.00000000E+00  0.00000000E+00  0.00000000E+00
  0.00000000E+00  0.00000000E+00  0.00000000E+00
  0.00000000E+00  0.00000000E+00  0.00000000E+00
  0.00000000E+00  0.00000000E+00  0.00000000E+00
  0.00000000E+00  0.00000000E+00  0.00000000E+00
  0.00000000E+00  0.00000000E+00  0.00000000E+00
  0.00000000E+00  0.00000000E+00  0.00000000E+00
  0.00000000E+00  0.00000000E+00  0.00000000E+00
  0.00000000E+00  0.00000000E+00  0.00000000E+00
  0.00000000E+00  0.00000000E+00  0.00000000E+00
  0.00000000E+00  0.00000000E+00  0.00000000E+00
  0.00000000E+00  0.00000000E+00  0.00000000E+00
  0.00000000E+00  0.00000000E+00  0.00000000E+00
  0.00000000E+00  0.00000000E+00  0.00000000E+00
  0.00000000E+00  0.00000000E+00  0.00000000E+00
  0.00000000E+00  0.00000000E+00  0.00000000E+00
  0.00000000E+00  0.00000000E+00  0.00000000E+00
  0.00000000E+00  0.00000000E+00  0.00000000E+00
  0.00000000E+00  0.00000000E+00  0.00000000E+00
  0.00000000E+00  0.00000000E+00  0.00000000E+00
  0.00000000E+00  0.00000000E+00  0.00000000E+00
  0.00000000E+00  0.00000000E+00  0.00000000E+00
  0.00000000E+00  0.00000000E+00  0.00000000E+00
  0.00000000E+00  0.00000000E+00  0.00000000E+00
  0.00000000E+00  0.00000000E+00  0.00000000E+00
  0.00000000E+00  0.00000000E+00  0.00000000E+00
  0.00000000E+00  0.00000000E+00  0.00000000E+00
  0.00000000E+00  0.00000000E+00  0.00000000E+00
  0.00000000E+00  0.00000000E+00  0.00000000E+00
  0.00000000E+00  0.00000000E+00  0.00000000E+00
  0.00000000E+00  0.00000000E+00  0.00000000E+00
  0.00000000E+00  0.00000000E+00  0.00000000E+00
  0.00000000E+00  0.00000000E+00  0.00000000E+00
  0.00000000E+00  0.00000000E+00  0.00000000E+00
  0.00000000E+00  0.00000000E+00  0.00000000E+00
  0.00000000E+00  0.00000000E+00  0.00000000E+00
  0.00000000E+00  0.00000000E+00  0.00000000E+00
  0.00000000E+00  0.00000000E+00  0.00000000E+00
  0.00000000E+00  0.00000000E+00  0.00000000E+00
  0.00000000E+00  0.00000000E+00  0.00000000E+00
  0.00000000E+00  0.00000000E+00  0.00000000E+00
  0.00000000E+00  0.00000000E+00  0.00000000E+00
  0.00000000E+00  0.00000000E+00  0.00000000E+00
  0.00000000E+00  0.00000000E+00  0.00000000E+00
  0.00000000E+00  0.00000000E+00  0.00000000E+00
  0.00000000E+00  0.00000000E+00  0.00000000E+00
  0.00000000E+00  0.00000000E+00  0.00000000E+00
  0.00000000E+00  0.00000000E+00  0.00000000E+00
  0.00000000E+00  0.00000000E+00  0.00000000E+00
  0.00000000E+00  0.00000000E+00  0.00000000E+00
  0.00000000E+00  0.00000000E+00  0.00000000E+00
  0.00000000E+00  0.00000000E+00  0.00000000E+00
  0.00000000E+00  0.00000000E+00  0.00000000E+00
  0.00000000E+00  0.00000000E+00  0.00000000E+00
  0.00000000E+00  0.00000000E+00  0.00000000E+00
  0.00000000E+00  0.00000000E+00  0.00000000E+00
  0.00000000E+00  0.00000000E+00  0.00000000E+00
  0.00000000E+00  0.00000000E+00  0.00000000E+00
  0.00000000E+00  0.00000000E+00  0.00000000E+00
  0.00000000E+00  0.00000000E+00  0.00000000E+00
  0.00000000E+00  0.00000000E+00  0.00000000E+00
  0.00000000E+00  0.00000000E+00  0.00000000E+00
  0.00000000E+00  0.00000000E+00  0.00000000E+00
  0.00000000E+00  0.00000000E+00  0.00000000E+00
  0.00000000E+00  0.00000000E+00  0.00000000E+00
  0.00000000E+00  0.00000000E+00  0.00000000E+00
  0.00000000E+00  0.00000000E+00  0.00000000E+00
  0.00000000E+00  0.00000000E+00  0.00000000E+00
  0.00000000E+00  0.00000000E+00  0.00000000E+00
  0.00000000E+00  0.00000000E+00  0.00000000E+00
  0.00000000E+00  0.00000000E+00  0.00000000E+00
  0.00000000E+00  0.00000000E+00  0.00000000E+00
  0.00000000E+00  0.00000000E+00  0.00000000E+00
  0.00000000E+00  0.00000000E+00  0.00000000E+00
  0.00000000E+00  0.00000000E+00  0.00000000E+00
  0.00000000E+00  0.00000000E+00  0.00000000E+00
  0.00000000E+00  0.00000000E+00  0.00000000E+00
  0.00000000E+00  0.00000000E+00  0.00000000E+00
  0.00000000E+00  0.00000000E+00  0.00000000E+00
  0.00000000E+00  0.00000000E+00  0.00000000E+00
  0.00000000E+00  0.00000000E+00  0.00000000E+00
  0.00000000E+00  0.00000000E+00  0.00000000E+00
  0.00000000E+00  0.00000000E+00  0.00000000E+00
  0.00000000E+00  0.00000000E+00  0.00000000E+00
  0.00000000E+00  0.00000000E+00  0.00000000E+00
  0.00000000E+00  0.00000000E+00  0.00000000E+00
  0.00000000E+00  0.00000000E+00  0.00000000E+00
  0.00000000E+00  0.00000000E+00  0.00000000E+00
  0.00000000E+00  0.00000000E+00  0.00000000E+00
  0.00000000E+00  0.00000000E+00  0.00000000E+00
  0.00000000E+00  0.00000000E+00  0.00000000E+00
  0.00000000E+00  0.00000000E+00  0.00000000E+00
  0.00000000E+00  0.00000000E+00  0.00000000E+00
  0.00000000E+00  0.00000000E+00  0.00000000E+00
  0.00000000E+00  0.00000000E+00  0.00000000E+00
  0.00000000E+00  0.00000000E+00  0.00000000E+00
  0.00000000E+00  0.00000000E+00  0.00000000E+00
  0.00000000E+00  0.00000000E+00  0.00000000E+00
  0.00000000E+00  0.00000000E+00  0.00000000E+00
  0.00000000E+00  0.00000000E+00  0.00000000E+00
  0.00000000E+00  0.00000000E+00  0.00000000E+00
  0.00000000E+00  0.00000000E+00  0.00000000E+00
  0.00000000E+00  0.00000000E+00  0.00000000E+00
  0.00000000E+00  0.00000000E+00  0.00000000E+00
  0.00000000E+00  0.00000000E+00  0.00000000E+00
  0.00000000E+00  0.00000000E+00  0.00000000E+00
  0.00000000E+00  0.00000000E+00  0.00000000E+00
  0.00000000E+00  0.00000000E+00  0.00000000E+00
  0.00000000E+00  0.00000000E+00  0.00000000E+00
  0.00000000E+00  0.00000000E+00  0.00000000E+00
  0.00000000E+00  0.00000000E+00  0.00000000E+00
  0.00000000E+00  0.00000000E+00  0.00000000E+00
  0.00000000E+00  0.00000000E+00  0.00000000E+00
  0.00000000E+00  0.00000000E+00  0.00000000E+00
  0.00000000E+00  0.00000000E+00  0.00000000E+00
  0.00000000E+00  0.00000000E+00  0.00000000E+00
  0.00000000E+00  0.00000000E+00  0.00000000E+00
  0.00000000E+00  0.00000000E+00  0.00000000E+00
  0.00000000E+00  0.00000000E+00  0.00000000E+00
  0.00000000E+00  0.00000000E+00  0.00000000E+00
  0.00000000E+00  0.00000000E+00  0.00000000E+00
  0.00000000E+00  0.00000000E+00  0.00000000E+00
  0.00000000E+00  0.00000000E+00  0.00000000E+00
  0.00000000E+00  0.00000000E+00  0.00000000E+00
  0.00000000E+00  0.00000000E+00  0.00000000E+00
  0.00000000E+00  0.00000000E+00  0.00000000E+00
  0.00000000E+00  0.00000000E+00  0.00000000E+00
  0.00000000E+00  0.00000000E+00  0.00000000E+00
  0.00000000E+00  0.00000000E+00  0.00000000E+00
  0.00000000E+00  0.00000000E+00  0.00000000E+00
  0.00000000E+00  0.00000000E+00  0.00000000E+00
  0.00000000E+00  0.00000000E+00  0.00000000E+00
  0.00000000E+00  0.00000000E+00  0.00000000E+00
  0.00000000E+00  0.00000000E+00  0.00000000E+00
  0.00000000E+00  0.00000000E+00  0.00000000E+00
  0.00000000E+00  0.00000000E+00  0.00000000E+00
  0.00000000E+00  0.00000000E+00  0.00000000E+00
  0.00000000E+00  0.00000000E+00  0.00000000E+00
  0.00000000E+00  0.00000000E+00  0.00000000E+00
  0.00000000E+00  0.00000000E+00  0.00000000E+00
  0.00000000E+00  0.00000000E+00  0.00000000E+00
  0.00000000E+00  0.00000000E+00  0.00000000E+00
  0.00000000E+00  0.00000000E+00  0.00000000E+00
  0.00000000E+00  0.00000000E+00  0.00000000E+00
  0.00000000E+00  0.00000000E+00  0.00000000E+00
  0.00000000E+00  0.00000000E+00  0.00000000E+00
  0.00000000E+00  0.00000000E+00  0.00000000E+00
  0.00000000E+00  0.00000000E+00  0.00000000E+00
  0.00000000E+00  0.00000000E+00  0.00000000E+00
  0.00000000E+00  0.00000000E+00  0.00000000E+00
  0.00000000E+00  0.00000000E+00  0.00000000E+00
