SrTiFeO                                 
   1.00000000000000     
    11.1989999999999998    0.0000000000000000    0.0000000000000000
     0.0000000000000000   11.1989999999999998    0.0000000000000000
     0.0000000000000000    0.0000000000000000   15.9830000000000005
   Sr   Ti   Fe   O 
    32    31     1    94
Direct
  1.0001741826025912  0.2499194512378357  0.1255315093854806
  0.0007274192624646  0.2484387672677409  0.6237408572988886
  0.0010507645346711  0.7499307010874813  0.1248340690038858
  0.0079294523545179  0.7514702377957693  0.6230958777752427
  0.5000068103413958  0.2493393571758631  0.1262563047008714
  0.4992861554598195  0.2411253382297671  0.6231735336131811
  0.4987843082833179  0.7512262019092830  0.1257992252427159
  0.4936841724612887  0.7586296433181766  0.6233632772473554
  0.0004701956620148  0.2494121938912426  0.3765974727520264
  0.9996113784316154  0.2507739747502280  0.8750489300594210
  0.0025994029963179  0.7490069082751075  0.3751758896529949
  0.0027301413129615  0.7503840854438776  0.8744814696892047
  0.5000211759751648  0.2520498363179416  0.3773298800437750
  0.4997963403130759  0.2454033405877107  0.8755671301718131
  0.4971900976893742  0.7494443732479108  0.3753474623998955
  0.4976633284041535  0.7552647408208537  0.8783088318855738
  0.2500408215411726  0.0006948514592924  0.1251752203143686
  0.2486744648125600  0.0011298434386001  0.6230759201189963
  0.2491280811504545  0.4994246929644329  0.1264041256709404
  0.2416652828262000  0.4983280164208085  0.6237230268052657
  0.7498937295722744  0.0006198824783131  0.1250158125914659
  0.7513996078444269  0.0073828669240077  0.6241204421810681
  0.7513101540350878  0.4996435069216150  0.1258140433033036
  0.7587964800334165  0.4933118237229548  0.6241564662667080
  0.2502865173523828  0.0002204255269046  0.3759523518626423
  0.2499959045074401  0.0008495207871224  0.8741700432676335
  0.2529314006187533  0.4986633470547624  0.3780897677722443
  0.2454965592816652  0.5003855329562186  0.8763722957823503
  0.7501422504183227  0.0024943888970181  0.3759407062398088
  0.7492681042247566  0.0020068420182563  0.8754116834249557
  0.7485391618918161  0.4974480821511483  0.3748493439402408
  0.7549892048835691  0.4981396771625912  0.8770669881992778
  0.9996038241404985  0.9997334397298825  0.9992121548910364
  1.0002793222756403  0.9999221547870029  0.4998369673055265
 -0.0000473367292867  0.5003428872391632  0.0004837773473937
  0.9998065061741075  0.4998022618407049  0.4997454118880284
  0.5002834896007613 -0.0000097473537084  0.0004957180350035
  0.4998857270782959  0.0001659512120121  0.4996243904486676
  0.5004171404825086  0.5002836202051890  0.0051447978381794
  0.2506877331022909  0.2509364039063212  0.9996999642987615
  0.2512274471315064  0.2518913287495376  0.5005102728274061
  0.2504261464794764  0.7496405263449157  0.0002099281926664
  0.2519065629378322  0.7483814895385432  0.5002452963023044
  0.7493916654054769  0.2503726724799497  0.0001961035225560
  0.7480239982350161  0.2518744301699983  0.5005177514120962
  0.7497415301721070  0.7496811439176612  0.0008115434988837
  0.2505430757234704  0.2504124696489998  0.2509268315863903
  0.2497660378739791  0.2502698093869349  0.7493876463643885
  0.2503440321492071  0.7492076162100880  0.2500614112218243
  0.2504367816742002  0.7504982271593208  0.7492223185050834
  0.7496002805889684  0.2502531980595682  0.2500733056574190
  0.7502178002582460  0.2496002657459143  0.7494903260318186
  0.7495909025853811  0.7496009758989908  0.2477326094197429
  0.7500366158386549  0.7494876585796730  0.7520901551523331
  0.9996063242512361  0.9992014718959265  0.2506021628491723
  0.0003231764804805  0.0007466450579931  0.7499905582212569
  0.9999251983652605  0.5001335728553076  0.2505231068264602
  0.0003056502580961  0.4999735558016291  0.7497503385884053
  0.5003702658520216  0.9999943770737716  0.2504508275117412
  0.5000198255055051  0.9997721039453654  0.7495380203653454
  0.5005872859389725  0.5003639346262089  0.2523807201992120
  0.5012845688849262  0.5013443614446126  0.7577667668831100
  0.7487292206020525  0.7484701502139782  0.4959783906757996
  0.5019742288359912  0.5018680643532824  0.4988096695133583
  0.1089123890925552  0.1400374725855864  0.2517345044970229
  0.1107135770549732  0.1390721953403425  0.7562390770613048
  0.1087319595815106  0.6414742328898975  0.2491579605404208
  0.1130082188444898  0.6378192790640563  0.7497225680296379
  0.6087529981973863  0.1413848228086156  0.2505981546272679
  0.6121447096812731  0.1376261437431251  0.7497144926589775
  0.6089530069926770  0.6429466877842444  0.2465218158738085
  0.3914433692790228  0.3587023531878112  0.2489401141988767
  0.3915208036681362  0.3668588994427310  0.7366863197186413
  0.3912928072464302  0.8585814752580704  0.2505785837414645
  0.3885005304658289  0.8614974860683755  0.7518773724228627
  0.8910410714331891  0.3586173837167234  0.2510559855843105
  0.8876987983882133  0.3619029916087328  0.7510027588881945
  0.8910214595235656  0.8576437697467203  0.2498229644385943
  0.8861329730022232  0.8586268333653571  0.7412975626151754
  0.3591384445547078  0.1088503174479575  0.2509607598184950
  0.3623391197056204  0.1127307158321520  0.7519164123509321
  0.3585607576916920  0.6088696825311498  0.2487411492335025
  0.3665853143449266  0.6099957796165990  0.7374028805192929
  0.8585773904461439  0.1088733251547046  0.2502932328084450
  0.8607470789071744  0.1102014198860536  0.7532423469609538
  0.8577918154005704  0.6085911869616940  0.2502689720027862
  0.8608941222501942  0.6126981842678808  0.7439587876707608
  0.1408186019105337  0.3912846469421004  0.2512128560745305
  0.1392657308441543  0.3888454278898573  0.7518791505097348
  0.1408705696931860  0.8907100389105774  0.2508472014703897
  0.1382554466554350  0.8883342573218608  0.7530107777705223
  0.6421227002312291  0.3913738803175307  0.2472218964842570
  0.6423996248951616  0.8913039054973263  0.2500466097917483
  0.6389979517064435  0.8853298508708451  0.7412189841009542
  0.3596446233087937  0.3923319606052811  0.9994260336232893
  0.3597191223240671  0.8902795852773419  0.9981738856810792
  0.3617887606444019  0.8884681051412505  0.4994672118380553
  0.8591541738290567  0.3905622968797938  0.9997229184805873
  0.8615796976548813  0.3887996496971638  0.4985494759241580
  0.8583481148759057  0.8900695586947457  0.9985954167470743
  0.8605486920844339  0.8866285137026869  0.5098203051508875
  0.1397760298650537  0.1102362131745528  0.9960829354262567
  0.1372267003563151  0.1098128780849033  0.4960380278163769
  0.1407104747593332  0.6095503790115284  1.0002585936142097
  0.1375294986274935  0.6115406086148480  0.5005831349656550
  0.6406106297352037  0.1095685881120731  0.9992503747020319
  0.6378376204354078  0.1122490518086220  0.5004433446059753
  0.6412536091863331  0.6078571872960363  0.0008302808286456
  0.1096415819408913  0.3600592522580454  0.9983883576748620
  0.1093824349321296  0.3606265064288817  0.4989980021602853
  0.1100593277175185  0.8592334042154871  0.9982129277286798
  0.1105325568244413  0.8613055726328209  0.4982095286106052
  0.6079945335142942  0.3593211160200207  0.9993032721406229
  0.6093494840203389  0.8588920666809498  0.0008572034533550
  0.6144898062278734  0.8633844895888976  0.5063684259940781
  0.3906346146458961  0.1404440226724238  0.9991541169885171
  0.3879947568065379  0.1373536674196508  0.4985145821166246
  0.3919999665523152  0.6409333032592485  1.0000305094315101
  0.3863366278347153  0.6393417558604144  0.5089256991113045
  0.8898396847385426  0.1404248861553255  0.9977360202331902
  0.8879671609691877  0.1374857147815730  0.4984361824272368
  0.8904110309499063  0.6412176761744640  0.9987136538700391
  0.0003136389382917  1.0001715522769812  0.1240556045861029
  0.0057598511375416  0.0058154702432485  0.6263305845358919
 -0.0006119651691121  0.4995470732806854  0.1249918208126205
  0.0029365432076146  0.4952044571554808  0.6252475472985045
  0.4994561220421546  0.0001787085911746  0.1250531833303042
  0.4948033886276575  0.0032285064200829  0.6250451126580636
  0.4993574336322263  0.4995957122294406  0.1242875970071943
  0.9941079246834503  0.9955440140918504  0.3748719650315440
  0.9951746697039454  0.9936245195903259  0.8744219371274747
  0.9977460779831919  0.5044224829961929  0.3757304232573194
  0.9976478276496916  0.5027834000505884  0.8744861908310131
  0.5027879814522590  0.9970116255639989  0.3755933631531135
  0.5047770183825367  0.9974300907523483  0.8743005094648659
  0.5028451142210968  0.5046089609683011  0.8732338170660005
  0.2526469972958439  0.2535843261509736  0.3750451773247794
  0.2576337510745051  0.2561344789245310  0.8738242247091295
  0.2523712245077797  0.7467044589498607  0.3752024035557123
  0.2540259479207171  0.7432244314920995  0.8738534866186866
  0.7451869520852343  0.2530598654100762  0.3754017487084252
  0.7454050108849849  0.2546809619226038  0.8739843615290472
  0.7466412611842150  0.7456274485450196  0.3763655754507884
  0.7413395580416383  0.7446931616784771  0.8738361840260002
  0.2486723956050782  0.2493080563093684  0.1244067222482266
  0.2412078558477594  0.2409318069757842  0.6262798395583168
  0.2502124728103185  0.7513716021480469  0.1244240831824932
  0.2444789947959204  0.7575561621168712  0.6256655799853770
  0.7506098121178335  0.2489541687639028  0.1243546413473878
  0.7577635076792524  0.2442742572749438  0.6259453886003610
  0.7517955713573539  0.7505960256257463  0.1244468715075619
  0.6345980067515720  0.3895356874452999  0.7397422800530606
  0.6119017806692346  0.6333405597738975  0.7297954892643311
  0.5056743682313003  0.5032575612599429  0.3707304817348961
  0.6135008939562934  0.3617598942202188  0.5114493295299481
  0.3574194304951159  0.3845362521351515  0.5095399774823114
  0.8878327866144707  0.6404045143751127  0.5078808222661196
  0.6428070572991800  0.6217556150180852  0.5234137993030124
 
  0.00000000E+00  0.00000000E+00  0.00000000E+00
  0.00000000E+00  0.00000000E+00  0.00000000E+00
  0.00000000E+00  0.00000000E+00  0.00000000E+00
  0.00000000E+00  0.00000000E+00  0.00000000E+00
  0.00000000E+00  0.00000000E+00  0.00000000E+00
  0.00000000E+00  0.00000000E+00  0.00000000E+00
  0.00000000E+00  0.00000000E+00  0.00000000E+00
  0.00000000E+00  0.00000000E+00  0.00000000E+00
  0.00000000E+00  0.00000000E+00  0.00000000E+00
  0.00000000E+00  0.00000000E+00  0.00000000E+00
  0.00000000E+00  0.00000000E+00  0.00000000E+00
  0.00000000E+00  0.00000000E+00  0.00000000E+00
  0.00000000E+00  0.00000000E+00  0.00000000E+00
  0.00000000E+00  0.00000000E+00  0.00000000E+00
  0.00000000E+00  0.00000000E+00  0.00000000E+00
  0.00000000E+00  0.00000000E+00  0.00000000E+00
  0.00000000E+00  0.00000000E+00  0.00000000E+00
  0.00000000E+00  0.00000000E+00  0.00000000E+00
  0.00000000E+00  0.00000000E+00  0.00000000E+00
  0.00000000E+00  0.00000000E+00  0.00000000E+00
  0.00000000E+00  0.00000000E+00  0.00000000E+00
  0.00000000E+00  0.00000000E+00  0.00000000E+00
  0.00000000E+00  0.00000000E+00  0.00000000E+00
  0.00000000E+00  0.00000000E+00  0.00000000E+00
  0.00000000E+00  0.00000000E+00  0.00000000E+00
  0.00000000E+00  0.00000000E+00  0.00000000E+00
  0.00000000E+00  0.00000000E+00  0.00000000E+00
  0.00000000E+00  0.00000000E+00  0.00000000E+00
  0.00000000E+00  0.00000000E+00  0.00000000E+00
  0.00000000E+00  0.00000000E+00  0.00000000E+00
  0.00000000E+00  0.00000000E+00  0.00000000E+00
  0.00000000E+00  0.00000000E+00  0.00000000E+00
  0.00000000E+00  0.00000000E+00  0.00000000E+00
  0.00000000E+00  0.00000000E+00  0.00000000E+00
  0.00000000E+00  0.00000000E+00  0.00000000E+00
  0.00000000E+00  0.00000000E+00  0.00000000E+00
  0.00000000E+00  0.00000000E+00  0.00000000E+00
  0.00000000E+00  0.00000000E+00  0.00000000E+00
  0.00000000E+00  0.00000000E+00  0.00000000E+00
  0.00000000E+00  0.00000000E+00  0.00000000E+00
  0.00000000E+00  0.00000000E+00  0.00000000E+00
  0.00000000E+00  0.00000000E+00  0.00000000E+00
  0.00000000E+00  0.00000000E+00  0.00000000E+00
  0.00000000E+00  0.00000000E+00  0.00000000E+00
  0.00000000E+00  0.00000000E+00  0.00000000E+00
  0.00000000E+00  0.00000000E+00  0.00000000E+00
  0.00000000E+00  0.00000000E+00  0.00000000E+00
  0.00000000E+00  0.00000000E+00  0.00000000E+00
  0.00000000E+00  0.00000000E+00  0.00000000E+00
  0.00000000E+00  0.00000000E+00  0.00000000E+00
  0.00000000E+00  0.00000000E+00  0.00000000E+00
  0.00000000E+00  0.00000000E+00  0.00000000E+00
  0.00000000E+00  0.00000000E+00  0.00000000E+00
  0.00000000E+00  0.00000000E+00  0.00000000E+00
  0.00000000E+00  0.00000000E+00  0.00000000E+00
  0.00000000E+00  0.00000000E+00  0.00000000E+00
  0.00000000E+00  0.00000000E+00  0.00000000E+00
  0.00000000E+00  0.00000000E+00  0.00000000E+00
  0.00000000E+00  0.00000000E+00  0.00000000E+00
  0.00000000E+00  0.00000000E+00  0.00000000E+00
  0.00000000E+00  0.00000000E+00  0.00000000E+00
  0.00000000E+00  0.00000000E+00  0.00000000E+00
  0.00000000E+00  0.00000000E+00  0.00000000E+00
  0.00000000E+00  0.00000000E+00  0.00000000E+00
  0.00000000E+00  0.00000000E+00  0.00000000E+00
  0.00000000E+00  0.00000000E+00  0.00000000E+00
  0.00000000E+00  0.00000000E+00  0.00000000E+00
  0.00000000E+00  0.00000000E+00  0.00000000E+00
  0.00000000E+00  0.00000000E+00  0.00000000E+00
  0.00000000E+00  0.00000000E+00  0.00000000E+00
  0.00000000E+00  0.00000000E+00  0.00000000E+00
  0.00000000E+00  0.00000000E+00  0.00000000E+00
  0.00000000E+00  0.00000000E+00  0.00000000E+00
  0.00000000E+00  0.00000000E+00  0.00000000E+00
  0.00000000E+00  0.00000000E+00  0.00000000E+00
  0.00000000E+00  0.00000000E+00  0.00000000E+00
  0.00000000E+00  0.00000000E+00  0.00000000E+00
  0.00000000E+00  0.00000000E+00  0.00000000E+00
  0.00000000E+00  0.00000000E+00  0.00000000E+00
  0.00000000E+00  0.00000000E+00  0.00000000E+00
  0.00000000E+00  0.00000000E+00  0.00000000E+00
  0.00000000E+00  0.00000000E+00  0.00000000E+00
  0.00000000E+00  0.00000000E+00  0.00000000E+00
  0.00000000E+00  0.00000000E+00  0.00000000E+00
  0.00000000E+00  0.00000000E+00  0.00000000E+00
  0.00000000E+00  0.00000000E+00  0.00000000E+00
  0.00000000E+00  0.00000000E+00  0.00000000E+00
  0.00000000E+00  0.00000000E+00  0.00000000E+00
  0.00000000E+00  0.00000000E+00  0.00000000E+00
  0.00000000E+00  0.00000000E+00  0.00000000E+00
  0.00000000E+00  0.00000000E+00  0.00000000E+00
  0.00000000E+00  0.00000000E+00  0.00000000E+00
  0.00000000E+00  0.00000000E+00  0.00000000E+00
  0.00000000E+00  0.00000000E+00  0.00000000E+00
  0.00000000E+00  0.00000000E+00  0.00000000E+00
  0.00000000E+00  0.00000000E+00  0.00000000E+00
  0.00000000E+00  0.00000000E+00  0.00000000E+00
  0.00000000E+00  0.00000000E+00  0.00000000E+00
  0.00000000E+00  0.00000000E+00  0.00000000E+00
  0.00000000E+00  0.00000000E+00  0.00000000E+00
  0.00000000E+00  0.00000000E+00  0.00000000E+00
  0.00000000E+00  0.00000000E+00  0.00000000E+00
  0.00000000E+00  0.00000000E+00  0.00000000E+00
  0.00000000E+00  0.00000000E+00  0.00000000E+00
  0.00000000E+00  0.00000000E+00  0.00000000E+00
  0.00000000E+00  0.00000000E+00  0.00000000E+00
  0.00000000E+00  0.00000000E+00  0.00000000E+00
  0.00000000E+00  0.00000000E+00  0.00000000E+00
  0.00000000E+00  0.00000000E+00  0.00000000E+00
  0.00000000E+00  0.00000000E+00  0.00000000E+00
  0.00000000E+00  0.00000000E+00  0.00000000E+00
  0.00000000E+00  0.00000000E+00  0.00000000E+00
  0.00000000E+00  0.00000000E+00  0.00000000E+00
  0.00000000E+00  0.00000000E+00  0.00000000E+00
  0.00000000E+00  0.00000000E+00  0.00000000E+00
  0.00000000E+00  0.00000000E+00  0.00000000E+00
  0.00000000E+00  0.00000000E+00  0.00000000E+00
  0.00000000E+00  0.00000000E+00  0.00000000E+00
  0.00000000E+00  0.00000000E+00  0.00000000E+00
  0.00000000E+00  0.00000000E+00  0.00000000E+00
  0.00000000E+00  0.00000000E+00  0.00000000E+00
  0.00000000E+00  0.00000000E+00  0.00000000E+00
  0.00000000E+00  0.00000000E+00  0.00000000E+00
  0.00000000E+00  0.00000000E+00  0.00000000E+00
  0.00000000E+00  0.00000000E+00  0.00000000E+00
  0.00000000E+00  0.00000000E+00  0.00000000E+00
  0.00000000E+00  0.00000000E+00  0.00000000E+00
  0.00000000E+00  0.00000000E+00  0.00000000E+00
  0.00000000E+00  0.00000000E+00  0.00000000E+00
  0.00000000E+00  0.00000000E+00  0.00000000E+00
  0.00000000E+00  0.00000000E+00  0.00000000E+00
  0.00000000E+00  0.00000000E+00  0.00000000E+00
  0.00000000E+00  0.00000000E+00  0.00000000E+00
  0.00000000E+00  0.00000000E+00  0.00000000E+00
  0.00000000E+00  0.00000000E+00  0.00000000E+00
  0.00000000E+00  0.00000000E+00  0.00000000E+00
  0.00000000E+00  0.00000000E+00  0.00000000E+00
  0.00000000E+00  0.00000000E+00  0.00000000E+00
  0.00000000E+00  0.00000000E+00  0.00000000E+00
  0.00000000E+00  0.00000000E+00  0.00000000E+00
  0.00000000E+00  0.00000000E+00  0.00000000E+00
  0.00000000E+00  0.00000000E+00  0.00000000E+00
  0.00000000E+00  0.00000000E+00  0.00000000E+00
  0.00000000E+00  0.00000000E+00  0.00000000E+00
  0.00000000E+00  0.00000000E+00  0.00000000E+00
  0.00000000E+00  0.00000000E+00  0.00000000E+00
  0.00000000E+00  0.00000000E+00  0.00000000E+00
  0.00000000E+00  0.00000000E+00  0.00000000E+00
  0.00000000E+00  0.00000000E+00  0.00000000E+00
  0.00000000E+00  0.00000000E+00  0.00000000E+00
  0.00000000E+00  0.00000000E+00  0.00000000E+00
  0.00000000E+00  0.00000000E+00  0.00000000E+00
  0.00000000E+00  0.00000000E+00  0.00000000E+00
  0.00000000E+00  0.00000000E+00  0.00000000E+00
  0.00000000E+00  0.00000000E+00  0.00000000E+00
  0.00000000E+00  0.00000000E+00  0.00000000E+00
  0.00000000E+00  0.00000000E+00  0.00000000E+00
  0.00000000E+00  0.00000000E+00  0.00000000E+00
