Sr   Ti   Fe   O                        
   1.00000000000000     
    11.1989999999999998    0.0000000000000000    0.0000000000000000
     0.0000000000000000   11.1989999999999998    0.0000000000000000
     0.0000000000000000    0.0000000000000000   15.9830000000000005
   Sr   Ti   Fe   O 
    32    31     1    94
Direct
  0.0002116702099723  0.2499518779308407  0.1249643852887586
  0.0026706957584008  0.2470118775970254  0.6231720340379336
  0.9991140016619988  0.7516139003126389  0.1250087944232870
  0.0077871629697494  0.7496671166969164  0.6237009355072362
  0.5004574805191057  0.2506951156332118  0.1248954085081501
  0.5023751535491616  0.2440015718647023  0.6213603099421942
  0.4992460645876221  0.7512105277066127  0.1252388980194046
  0.4867179363295056  0.7576569527881774  0.6274853906687425
  0.0010837052139635  0.2480337299567149  0.3758400663072116
  0.0008550067591622  0.2501586784826114  0.8742630888504287
  0.0000349847329040  0.7496966182520914  0.3758107557931298
  0.0023608910676777  0.7512529482550607  0.8749869040427481
  0.5000125830854283  0.2543167043879486  0.3761313442262089
  0.5006580419862676  0.2487660974562980  0.8739897847520035
  0.4954438096953279  0.7491283873136203  0.3725845091153370
  0.4985991543954597  0.7546499573505165  0.8785839266214471
  0.2497821872171767  0.0013418884237429  0.1237987025069452
  0.2485763416111024  0.0025128110444319  0.6230590895121889
  0.2499459868188461  0.5000080242582697  0.1264462718811754
  0.2461767335236022  0.4981308790251359  0.6229084155999950
  0.7491985475707457  0.9991720939436752  0.1257806870016515
  0.7543512821243582  0.0070827876687160  0.6257857311416164
  0.7491915864371868  0.5012769762782187  0.1242347354011725
  0.7661333368369303  0.4840847927627965  0.6265230852166002
  0.2487852017699638  0.0007294219200146  0.3745159397292626
  0.2517400320169459  0.0017572800280492  0.8726742541794597
  0.2558073095698093  0.5002899108236406  0.3792639718559704
  0.2491413988173669  0.5008574753130642  0.8763478494885447
  0.7521682317439433  0.0001948594834284  0.3747781551414013
  0.7515091833711186  0.0016643447236812  0.8768045630224580
  0.7521203704980212  0.4932513242623228  0.3707605754730866
  0.7536619156664253  0.4990024968509097  0.8744373349595702
 -0.0000067510583417  0.0002743728582535  0.9995066141041105
  0.0003901802922887  0.9999104372031278  0.4996444385675508
  0.0001334367474549  0.5004304866510660  0.0002146978523448
  0.9995239795096565  0.4980648398427273  0.4995228495725246
  0.5007256269224358  0.0008231484489915  0.0000560145374274
  0.4994735893276611  0.9987927624577005  0.4996321435816755
  0.4998168357451910  0.5001924034271350  0.0028081970899904
  0.2509595598434149  0.2512996652855528  0.9990834067188784
  0.2519621425970592  0.2512726098474545  0.4991581985417596
  0.2503342052038741  0.7500844945746399  0.0001535649772849
  0.2505185058452662  0.7504556289831364  0.4991824744417351
  0.7504382745568045  0.2508576545058770  0.9999503611552560
  0.7488915940927936  0.2487221669447666  0.4987173985775717
  0.7511127520601308  0.7510007797800171  0.0020467364651471
  0.2502434414135263  0.2505337069261822  0.2501015141761463
  0.2521302441963565  0.2516880038640425  0.7481478726338681
  0.2488483318861436  0.7501075393462580  0.2497021311549791
  0.2503702698551658  0.7510705843523607  0.7498237336257376
  0.7500796601606110  0.2489460826756807  0.2491840958207807
  0.7511762611518398  0.2494513765140682  0.7499964663597246
  0.7483855983049067  0.7478794180423766  0.2519079451076475
  0.7511693818510879  0.7504207827140134  0.7553457352713394
  0.0001079422847853  0.9997900792045655  0.2499052857418686
  0.0008717693884931  0.9997393773003804  0.7497190015143952
  0.0004818154359553  0.5006976685907885  0.2499882687614886
  0.0025806181644260  0.4999555248811038  0.7497477048280483
  0.5000254033554304  0.0000364941286118  0.2500079464318393
  0.5017915709440814  0.0007328521541474  0.7493740599079558
  0.5004256020929730  0.5005808054987873  0.2522949314783435
  0.5039344298342029  0.5039130257479463  0.7551546241551902
  0.7475081358333884  0.7504558812371882  0.5037958899201112
  0.5039728033619072  0.5024256396081722  0.5041492944562691
  0.1089332413641443  0.1414660349010897  0.2506622094075903
  0.1136655961438410  0.1398576855761410  0.7562581225523627
  0.1072632733615028  0.6423932300886234  0.2479268720663703
  0.1132458240073888  0.6389298334864710  0.7497712482126561
  0.6087707510938400  0.1404132305627844  0.2486259643600255
  0.6127067808413663  0.1398736834475871  0.7495176281889036
  0.6073671851742960  0.6414132536082672  0.2449416522984483
  0.3904628261893779  0.3593118119788318  0.2460715766103494
  0.3928903887094956  0.3696709283512526  0.7304100074892170
  0.3904041193101842  0.8591393313916867  0.2493882818218045
  0.3872537691891960  0.8651553121041575  0.7532801202763120
  0.8908344171495745  0.3591928011162576  0.2515314033599159
  0.8898548794031836  0.3620615990233554  0.7496844551724530
  0.8896935811727381  0.8581879592561400  0.2503020437506204
  0.8887926904820529  0.8615107003051161  0.7385070788855292
  0.3593687141694339  0.1087779726658857  0.2489622644075662
  0.3644932164875184  0.1157257033738321  0.7502337525574557
  0.3577204291973158  0.6096959700496971  0.2493131656141392
  0.3678803438532252  0.6135164535164458  0.7379415362129058
  0.8588242592092979  0.1084385216421061  0.2473879060224121
  0.8622589957824308  0.1119685114979511  0.7522682345853506
  0.8580126628322154  0.6076168739543023  0.2468688863242822
  0.8618652765451603  0.6141716350381150  0.7426515479757605
  0.1406932994275123  0.3923527911721286  0.2523273089081344
  0.1415778032802956  0.3908414586480715  0.7527639058037149
  0.1404325090765247  0.8914407634757823  0.2473556102340759
  0.1392855658561036  0.8888741928038867  0.7523449850493551
  0.6418667139630597  0.3898333714396673  0.2471063976764822
  0.6407814184452040  0.8902700234154308  0.2502764354538384
  0.6401834181013490  0.8888992316169633  0.7428965561868567
  0.3591678971665607  0.3921734827135523  0.0026592783922323
  0.3602741351987395  0.8908542451831926  0.9976257945472713
  0.3576183380746183  0.8918282493206847  0.4991139013611401
  0.8595409181667453  0.3915206202123497  0.9993303586773246
  0.8640473930563289  0.3837517492634844  0.4968649198747805
  0.8604929102419794  0.8923392607752936  0.0046459227712989
  0.8611415839700742  0.8894945460436399  0.5045628049612155
  0.1411561592962838  0.1112818012072662  0.9933691823208808
  0.1392197387640053  0.1099117395896727  0.4951808722202214
  0.1406910598665707  0.6096246519952021  0.9993760333583217
  0.1303907588911004  0.6152120886869106  0.4999945218112780
  0.6412851148837081  0.1104354780092783  0.9996978652585539
  0.6419057637848109  0.1036523397855066  0.5001168255732629
  0.6404225031017701  0.6106137782291738  0.9922644686888581
  0.1098590055234467  0.3604714784211384  0.9963148386675651
  0.1099629589197654  0.3615643423025896  0.4960560363353556
  0.1108688101930655  0.8596652757577482  0.9982249703854474
  0.1079929099838666  0.8612695192067452  0.4986533665364601
  0.6093306949562702  0.3604361214198513  0.9982062147404176
  0.6101779873773089  0.8603058458167857  0.9998068065169888
  0.6032779122791531  0.8500814645321781  0.5066848730004744
  0.3913318990961837  0.1411811378749170  0.9994350593496801
  0.3910929535349676  0.1385030292026953  0.4987081156392427
  0.3915598923741266  0.6409577382058521  0.9989123727027959
  0.3799464219217773  0.6410658278559980  0.4981129955791671
  0.8910284975661436  0.1418384090995829  0.9973731234612694
  0.8900741369455365  0.1372156197377124  0.4990317903449480
  0.8910048735492284  0.6409386664012005  0.0006512290714572
  0.0037053802250622  0.0030964604498366  0.1235934349707380
  0.0075415839639697  0.0077045583932536  0.6258331314693824
  0.0017494154537014  0.4972258002571476  0.1244029745096269
  0.0079318997227044  0.4932486694505685  0.6252396172033331
  0.5000613924865881  0.9993161989922013  0.1243190402273901
  0.4962261717158079  0.0038400703860460  0.6248165267180230
  0.5025762584789143  0.5019049214931770  0.1223018577692128
  0.9974335958719945  0.9982951988935713  0.3732023729121762
  0.9942533838348814  0.9932708875342687  0.8743124357305319
  0.9940828487374808  0.5083516483023955  0.3753074231552524
  0.9961969567959101  0.5039712716094649  0.8739095566467409
  0.5024487130775049  0.9964379925253730  0.3750931202593124
  0.5044845407584096  0.0003978942528835  0.8744212907749890
  0.4898733257055666  0.4926509436474719  0.8717442604436152
  0.2535840325719210  0.2507525711250982  0.3732568012938878
  0.2624581321726702  0.2592448614084337  0.8728656839023460
  0.2460771512636944  0.7520627066868095  0.3731416486393579
  0.2537218457551448  0.7443367764134529  0.8736633320302641
  0.7491020506471520  0.2460173790022677  0.3732514457619798
  0.7483722794703136  0.2540179487361729  0.8739327413278918
  0.7423625514757574  0.7361891319713550  0.3748308507772614
  0.7622083344286724  0.7628559770508069  0.8764635417707014
  0.2460261945919158  0.2489267121826467  0.1235554411531274
  0.2402443990279731  0.2435529761715914  0.6247146755275024
  0.2508149525253286  0.7504251963647532  0.1235234022628204
  0.2456861107665440  0.7563161572165066  0.6251791788654625
  0.7512558713271973  0.2504476862330293  0.1235997732481989
  0.7542022255040157  0.2453264496813810  0.6253319762011256
  0.7484571711576946  0.7489090039853030  0.1241452379810668
  0.6385214859217060  0.3918507006363963  0.7447512996294754
  0.6136482404450685  0.6421018544994650  0.7623932328123536
  0.5041247167169107  0.5010061093647534  0.3704756587821736
  0.6150293932995006  0.3547180057792592  0.5006442924372964
  0.3561146383969274  0.3845054116118977  0.5039271357966912
  0.8726016194810314  0.6282803512116855  0.5139781682371053
  0.5893538560149033  0.5810329258101053  0.5908514405685789
 
  0.00000000E+00  0.00000000E+00  0.00000000E+00
  0.00000000E+00  0.00000000E+00  0.00000000E+00
  0.00000000E+00  0.00000000E+00  0.00000000E+00
  0.00000000E+00  0.00000000E+00  0.00000000E+00
  0.00000000E+00  0.00000000E+00  0.00000000E+00
  0.00000000E+00  0.00000000E+00  0.00000000E+00
  0.00000000E+00  0.00000000E+00  0.00000000E+00
  0.00000000E+00  0.00000000E+00  0.00000000E+00
  0.00000000E+00  0.00000000E+00  0.00000000E+00
  0.00000000E+00  0.00000000E+00  0.00000000E+00
  0.00000000E+00  0.00000000E+00  0.00000000E+00
  0.00000000E+00  0.00000000E+00  0.00000000E+00
  0.00000000E+00  0.00000000E+00  0.00000000E+00
  0.00000000E+00  0.00000000E+00  0.00000000E+00
  0.00000000E+00  0.00000000E+00  0.00000000E+00
  0.00000000E+00  0.00000000E+00  0.00000000E+00
  0.00000000E+00  0.00000000E+00  0.00000000E+00
  0.00000000E+00  0.00000000E+00  0.00000000E+00
  0.00000000E+00  0.00000000E+00  0.00000000E+00
  0.00000000E+00  0.00000000E+00  0.00000000E+00
  0.00000000E+00  0.00000000E+00  0.00000000E+00
  0.00000000E+00  0.00000000E+00  0.00000000E+00
  0.00000000E+00  0.00000000E+00  0.00000000E+00
  0.00000000E+00  0.00000000E+00  0.00000000E+00
  0.00000000E+00  0.00000000E+00  0.00000000E+00
  0.00000000E+00  0.00000000E+00  0.00000000E+00
  0.00000000E+00  0.00000000E+00  0.00000000E+00
  0.00000000E+00  0.00000000E+00  0.00000000E+00
  0.00000000E+00  0.00000000E+00  0.00000000E+00
  0.00000000E+00  0.00000000E+00  0.00000000E+00
  0.00000000E+00  0.00000000E+00  0.00000000E+00
  0.00000000E+00  0.00000000E+00  0.00000000E+00
  0.00000000E+00  0.00000000E+00  0.00000000E+00
  0.00000000E+00  0.00000000E+00  0.00000000E+00
  0.00000000E+00  0.00000000E+00  0.00000000E+00
  0.00000000E+00  0.00000000E+00  0.00000000E+00
  0.00000000E+00  0.00000000E+00  0.00000000E+00
  0.00000000E+00  0.00000000E+00  0.00000000E+00
  0.00000000E+00  0.00000000E+00  0.00000000E+00
  0.00000000E+00  0.00000000E+00  0.00000000E+00
  0.00000000E+00  0.00000000E+00  0.00000000E+00
  0.00000000E+00  0.00000000E+00  0.00000000E+00
  0.00000000E+00  0.00000000E+00  0.00000000E+00
  0.00000000E+00  0.00000000E+00  0.00000000E+00
  0.00000000E+00  0.00000000E+00  0.00000000E+00
  0.00000000E+00  0.00000000E+00  0.00000000E+00
  0.00000000E+00  0.00000000E+00  0.00000000E+00
  0.00000000E+00  0.00000000E+00  0.00000000E+00
  0.00000000E+00  0.00000000E+00  0.00000000E+00
  0.00000000E+00  0.00000000E+00  0.00000000E+00
  0.00000000E+00  0.00000000E+00  0.00000000E+00
  0.00000000E+00  0.00000000E+00  0.00000000E+00
  0.00000000E+00  0.00000000E+00  0.00000000E+00
  0.00000000E+00  0.00000000E+00  0.00000000E+00
  0.00000000E+00  0.00000000E+00  0.00000000E+00
  0.00000000E+00  0.00000000E+00  0.00000000E+00
  0.00000000E+00  0.00000000E+00  0.00000000E+00
  0.00000000E+00  0.00000000E+00  0.00000000E+00
  0.00000000E+00  0.00000000E+00  0.00000000E+00
  0.00000000E+00  0.00000000E+00  0.00000000E+00
  0.00000000E+00  0.00000000E+00  0.00000000E+00
  0.00000000E+00  0.00000000E+00  0.00000000E+00
  0.00000000E+00  0.00000000E+00  0.00000000E+00
  0.00000000E+00  0.00000000E+00  0.00000000E+00
  0.00000000E+00  0.00000000E+00  0.00000000E+00
  0.00000000E+00  0.00000000E+00  0.00000000E+00
  0.00000000E+00  0.00000000E+00  0.00000000E+00
  0.00000000E+00  0.00000000E+00  0.00000000E+00
  0.00000000E+00  0.00000000E+00  0.00000000E+00
  0.00000000E+00  0.00000000E+00  0.00000000E+00
  0.00000000E+00  0.00000000E+00  0.00000000E+00
  0.00000000E+00  0.00000000E+00  0.00000000E+00
  0.00000000E+00  0.00000000E+00  0.00000000E+00
  0.00000000E+00  0.00000000E+00  0.00000000E+00
  0.00000000E+00  0.00000000E+00  0.00000000E+00
  0.00000000E+00  0.00000000E+00  0.00000000E+00
  0.00000000E+00  0.00000000E+00  0.00000000E+00
  0.00000000E+00  0.00000000E+00  0.00000000E+00
  0.00000000E+00  0.00000000E+00  0.00000000E+00
  0.00000000E+00  0.00000000E+00  0.00000000E+00
  0.00000000E+00  0.00000000E+00  0.00000000E+00
  0.00000000E+00  0.00000000E+00  0.00000000E+00
  0.00000000E+00  0.00000000E+00  0.00000000E+00
  0.00000000E+00  0.00000000E+00  0.00000000E+00
  0.00000000E+00  0.00000000E+00  0.00000000E+00
  0.00000000E+00  0.00000000E+00  0.00000000E+00
  0.00000000E+00  0.00000000E+00  0.00000000E+00
  0.00000000E+00  0.00000000E+00  0.00000000E+00
  0.00000000E+00  0.00000000E+00  0.00000000E+00
  0.00000000E+00  0.00000000E+00  0.00000000E+00
  0.00000000E+00  0.00000000E+00  0.00000000E+00
  0.00000000E+00  0.00000000E+00  0.00000000E+00
  0.00000000E+00  0.00000000E+00  0.00000000E+00
  0.00000000E+00  0.00000000E+00  0.00000000E+00
  0.00000000E+00  0.00000000E+00  0.00000000E+00
  0.00000000E+00  0.00000000E+00  0.00000000E+00
  0.00000000E+00  0.00000000E+00  0.00000000E+00
  0.00000000E+00  0.00000000E+00  0.00000000E+00
  0.00000000E+00  0.00000000E+00  0.00000000E+00
  0.00000000E+00  0.00000000E+00  0.00000000E+00
  0.00000000E+00  0.00000000E+00  0.00000000E+00
  0.00000000E+00  0.00000000E+00  0.00000000E+00
  0.00000000E+00  0.00000000E+00  0.00000000E+00
  0.00000000E+00  0.00000000E+00  0.00000000E+00
  0.00000000E+00  0.00000000E+00  0.00000000E+00
  0.00000000E+00  0.00000000E+00  0.00000000E+00
  0.00000000E+00  0.00000000E+00  0.00000000E+00
  0.00000000E+00  0.00000000E+00  0.00000000E+00
  0.00000000E+00  0.00000000E+00  0.00000000E+00
  0.00000000E+00  0.00000000E+00  0.00000000E+00
  0.00000000E+00  0.00000000E+00  0.00000000E+00
  0.00000000E+00  0.00000000E+00  0.00000000E+00
  0.00000000E+00  0.00000000E+00  0.00000000E+00
  0.00000000E+00  0.00000000E+00  0.00000000E+00
  0.00000000E+00  0.00000000E+00  0.00000000E+00
  0.00000000E+00  0.00000000E+00  0.00000000E+00
  0.00000000E+00  0.00000000E+00  0.00000000E+00
  0.00000000E+00  0.00000000E+00  0.00000000E+00
  0.00000000E+00  0.00000000E+00  0.00000000E+00
  0.00000000E+00  0.00000000E+00  0.00000000E+00
  0.00000000E+00  0.00000000E+00  0.00000000E+00
  0.00000000E+00  0.00000000E+00  0.00000000E+00
  0.00000000E+00  0.00000000E+00  0.00000000E+00
  0.00000000E+00  0.00000000E+00  0.00000000E+00
  0.00000000E+00  0.00000000E+00  0.00000000E+00
  0.00000000E+00  0.00000000E+00  0.00000000E+00
  0.00000000E+00  0.00000000E+00  0.00000000E+00
  0.00000000E+00  0.00000000E+00  0.00000000E+00
  0.00000000E+00  0.00000000E+00  0.00000000E+00
  0.00000000E+00  0.00000000E+00  0.00000000E+00
  0.00000000E+00  0.00000000E+00  0.00000000E+00
  0.00000000E+00  0.00000000E+00  0.00000000E+00
  0.00000000E+00  0.00000000E+00  0.00000000E+00
  0.00000000E+00  0.00000000E+00  0.00000000E+00
  0.00000000E+00  0.00000000E+00  0.00000000E+00
  0.00000000E+00  0.00000000E+00  0.00000000E+00
  0.00000000E+00  0.00000000E+00  0.00000000E+00
  0.00000000E+00  0.00000000E+00  0.00000000E+00
  0.00000000E+00  0.00000000E+00  0.00000000E+00
  0.00000000E+00  0.00000000E+00  0.00000000E+00
  0.00000000E+00  0.00000000E+00  0.00000000E+00
  0.00000000E+00  0.00000000E+00  0.00000000E+00
  0.00000000E+00  0.00000000E+00  0.00000000E+00
  0.00000000E+00  0.00000000E+00  0.00000000E+00
  0.00000000E+00  0.00000000E+00  0.00000000E+00
  0.00000000E+00  0.00000000E+00  0.00000000E+00
  0.00000000E+00  0.00000000E+00  0.00000000E+00
  0.00000000E+00  0.00000000E+00  0.00000000E+00
  0.00000000E+00  0.00000000E+00  0.00000000E+00
  0.00000000E+00  0.00000000E+00  0.00000000E+00
  0.00000000E+00  0.00000000E+00  0.00000000E+00
  0.00000000E+00  0.00000000E+00  0.00000000E+00
  0.00000000E+00  0.00000000E+00  0.00000000E+00
  0.00000000E+00  0.00000000E+00  0.00000000E+00
  0.00000000E+00  0.00000000E+00  0.00000000E+00
  0.00000000E+00  0.00000000E+00  0.00000000E+00
  0.00000000E+00  0.00000000E+00  0.00000000E+00
  0.00000000E+00  0.00000000E+00  0.00000000E+00
