SrTiFeO                                 
   1.00000000000000     
    11.1989999999999998    0.0000000000000000    0.0000000000000000
     0.0000000000000000   11.1989999999999998    0.0000000000000000
     0.0000000000000000    0.0000000000000000   15.9830000000000005
   Sr   Ti   Fe   O 
    32    30     2    94
Direct
  0.0011284195789198  0.2493328963126572  0.1252558724020395
  0.9979871070936831  0.2512000687830288  0.6245296279800343
  0.9980091694212189  0.7503613664948280  0.1257171728802850
  0.9966262612271509  0.7477802534091662  0.6223278122459530
  0.5005500660763736  0.2508013163449959  0.1240761032786756
  0.5049960041866374  0.2492484247881141  0.6278949054116039
  0.4998055673645744  0.7494106866893203  0.1240773903808428
  0.4970900030243118  0.7512291567276446  0.6278650704876386
  0.9979871070936831  0.2512000687830288  0.3754703720199662
  0.0011284195789198  0.2493328963126572  0.8747441275979616
  0.9966262612271509  0.7477802534091662  0.3776721877540462
  0.9980091694212189  0.7503613664948280  0.8742828271197144
  0.5049960041866374  0.2492484247881141  0.3721050945883956
  0.5005500660763736  0.2508013163449959  0.8759238967213245
  0.4970900030243118  0.7512291567276446  0.3721349295123623
  0.4998055673645744  0.7494106866893203  0.8759226096191574
  0.2502542009611817  0.0002238389922829  0.1247027257289483
  0.2487105906530678  0.9954712582218427  0.6280362982136282
  0.2514463289796924  0.4996963046920983  0.1241549370987296
  0.2443280663027067  0.5051278969448372  0.6287623273169061
  0.7491936428445440  0.9985597895359291  0.1251282932875882
  0.7489491074158997  0.9987346057250387  0.6245770386371283
  0.7483934365043422  0.5009016199494175  0.1245780416021605
  0.7551899878658004  0.4951572587114219  0.6277564808587963
  0.2487105906530678  0.9954712582218427  0.3719637017863715
  0.2502542009611817  0.0002238389922829  0.8752972742710503
  0.2443280663027067  0.5051278969448372  0.3712376726830946
  0.2514463289796924  0.4996963046920983  0.8758450629012708
  0.7489491074158997  0.9987346057250387  0.3754229613628707
  0.7491936428445440  0.9985597895359291  0.8748717067124120
  0.7551899878658004  0.4951572587114219  0.3722435191412043
  0.7483934365043422  0.5009016199494175  0.8754219583978408
 -0.0003380911391932 -0.0000296933959918 -0.0000000000000000
  0.9944196642227597  0.9958620492605570  0.5000000000000000
 -0.0000809768481363  0.4998569211178794 -0.0000000000000000
  0.9997269522535510  0.5014924717157838  0.5000000000000000
  0.4998011393047606 -0.0001351803230462 -0.0000000000000000
  0.4999462343333779  0.9980855978156812  0.5000000000000000
  0.4999106639218737  0.4997952246783431 -0.0000000000000000
  0.2498807512867546  0.2496716430757728 -0.0000000000000000
  0.2452849592329562  0.2378911180263678  0.5000000000000000
  0.2490031867976726  0.7497582168928228 -0.0000000000000000
  0.2509340185322595  0.7508653063008405  0.5000000000000000
  0.7506966295104740  0.2498619436578261 -0.0000000000000000
  0.7501909851629848  0.7501957636259120 -0.0000000000000000
  0.2514301580691280  0.2509257124416399  0.2501812720395332
  0.2514301580691280  0.2509257124416399  0.7498187279604666
  0.2488278882165787  0.7501095000671504  0.2492138541218943
  0.2488278882165787  0.7501095000671504  0.7507861458781068
  0.7504571688622820  0.2490863167988342  0.2492498667563847
  0.7504571688622820  0.2490863167988342  0.7507501332436154
  0.7479429822376622  0.7480464692492610  0.2523959939818438
  0.7479429822376622  0.7480464692492610  0.7476040060181558
  0.9993354270013329  0.9996109352075419  0.2509749683312855
  0.9993354270013329  0.9996109352075419  0.7490250316687145
  1.0000849301133488  0.4995740348035672  0.2491126098421030
  1.0000849301133488  0.4995740348035672  0.7508873901578964
  0.4995865730769404  1.0002025939721431  0.2499015547286376
  0.4995865730769404  1.0002025939721431  0.7500984452713690
  0.4997823529224989  0.4999569693421554  0.2511912676129913
  0.4997823529224989  0.4999569693421554  0.7488087323870087
  0.7499182352988935  0.2496071891457649  0.5000000000000000
  0.5012925408679595  0.5023684615432912  0.5000000000000000
  0.7492488884619768  0.7532789159100126  0.5000000000000000
  0.1110430953539659  0.1418988084272769  0.2542851585924609
  0.1110430953539659  0.1418988084272769  0.7457148414075383
  0.1088517977593894  0.6406597416290610  0.2515153687049076
  0.1088517977593894  0.6406597416290610  0.7484846312950932
  0.6098937847562158  0.1402099286655933  0.2487804128043089
  0.6098937847562158  0.1402099286655933  0.7512195871956916
  0.6074019430894071  0.6395623668390860  0.2454065750286986
  0.6074019430894071  0.6395623668390860  0.7545934249713009
  0.3919293381858869  0.3593966820109372  0.2475270711669607
  0.3919293381858869  0.3593966820109372  0.7524729288330394
  0.3891465853499182  0.8602861456877691  0.2494251914866148
  0.3891465853499182  0.8602861456877691  0.7505748085133843
  0.8911644599746495  0.3587687149381379  0.2508852104737779
  0.8911644599746495  0.3587687149381379  0.7491147895262202
  0.8891663651133099  0.8588019426665144  0.2546142707883502
  0.8891663651133099  0.8588019426665144  0.7453857292116509
  0.3590283390355060  0.1100983630421855  0.2501871744327330
  0.3590283390355060  0.1100983630421855  0.7498128255672668
  0.3582015326957353  0.6096501297814341  0.2496497107807099
  0.3582015326957353  0.6096501297814341  0.7503502892192905
  0.8595214280985565  0.1087038919095259  0.2498408655686899
  0.8595214280985565  0.1087038919095259  0.7501591344313101
  0.8592565439892630  0.6077375244747062  0.2489537770132961
  0.8592565439892630  0.6077375244747062  0.7510462229867044
  0.1418555737660764  0.3911561239518004  0.2488589238308705
  0.1418555737660764  0.3911561239518004  0.7511410761691301
  0.1397704277495370  0.8906504560978893  0.2484563607602645
  0.1397704277495370  0.8906504560978893  0.7515436392397347
  0.6415775996006314  0.3901466740150923  0.2502223310018450
  0.6415775996006314  0.3901466740150923  0.7497776689981548
  0.6391908886044561  0.8901507162573677  0.2512829299233109
  0.6391908886044561  0.8901507162573677  0.7487170700766884
  0.3589135708389171  0.3894935373719594 -0.0000000000000000
  0.3588522211532078  0.8904285412386573 -0.0000000000000000
  0.3522065523656008  0.8990453904211994  0.5000000000000000
  0.8593366572561137  0.3911108891237179 -0.0000000000000000
  0.8595726123410532  0.8917381592147998 -0.0000000000000000
  0.8601267361301610  0.8966956287898720  0.5000000000000000
  0.1406870420143856  0.1086071734215709 -0.0000000000000000
  0.1450500397301023  0.1080596152446707  0.5000000000000000
  0.1407436361506673  0.6087520617726289 -0.0000000000000000
  0.1394260306081618  0.6133368496630316  0.5000000000000000
  0.6408794336684023  0.1094028730952942 -0.0000000000000000
  0.6425097208569165  0.1097064072472581  0.5000000000000000
  0.6404483804153445  0.6100913618789178 -0.0000000000000000
  0.1092635684092921  0.3586825161992584 -0.0000000000000000
  0.1295999577411403  0.3686192157284871  0.5000000000000000
  0.1083650290442580  0.8589915469632711 -0.0000000000000000
  0.1076590153856746  0.8587932723715486  0.5000000000000000
  0.6100891571763750  0.3592116764489137 -0.0000000000000000
  0.6091141521626484  0.8597810769217800 -0.0000000000000000
  0.5958882184407941  0.8588181066844472  0.5000000000000000
  0.3906356512920935  0.1405710201963666 -0.0000000000000000
  0.3987585761172574  0.1578151098495452  0.5000000000000000
  0.3898762274239852  0.6404023625111309 -0.0000000000000000
  0.8914931418702670  0.1412265247278610 -0.0000000000000000
  0.8940388147846059  0.1420049598652430  0.5000000000000000
  0.8910646621903625  0.6407782184043256 -0.0000000000000000
 -0.0002707147466147  0.0007013169818673  0.1258404552766320
  0.0022392408152423  0.0014756365335815  0.6249154445231542
  0.0007551710919894  0.4995893409520774  0.1248706078210872
  0.0023409164034970  0.4975733672820937  0.6258411160988456
  0.4994208941300407  0.0000147105785237  0.1249214391361366
  0.4975356401120576  0.0032611554971485  0.6255163200709537
  0.4992848425897327  0.4988124390448366  0.1241666781765302
  0.4999100652034461  0.5007666557450101  0.6244264628288307
  0.0022392408152423  0.0014756365335815  0.3750845554768468
 -0.0002707147466147  0.0007013169818673  0.8741595447233691
  0.0023409164034970  0.4975733672820937  0.3741588839011534
  0.0007551710919894  0.4995893409520774  0.8751293921789119
  0.4975356401120576  0.0032611554971485  0.3744836799290470
  0.4994208941300407  0.0000147105785237  0.8750785608638644
  0.4992848425897327  0.4988124390448366  0.8758333218234693
  0.2618752318566970  0.2627032210956883  0.3775207750330090
  0.2489896726619051  0.2484229054437995  0.8747521052202405
  0.2498419031052637  0.7522563487461078  0.3744337281681926
  0.2487986294033959  0.7494459646851461  0.8751919543961491
  0.7512035275647926  0.2500708535564511  0.8751121198890446
  0.7514841040493414  0.7519189463624081  0.8750621218183736
  0.2489896726619051  0.2484229054437995  0.1252478947797591
  0.2618752318566970  0.2627032210956883  0.6224792249669905
  0.2487986294033959  0.7494459646851461  0.1248080456038507
  0.2498419031052637  0.7522563487461078  0.6255662718318006
  0.7512035275647926  0.2500708535564511  0.1248878801109563
  0.7511345371021911  0.2483871707169099  0.6255613733681620
  0.7514841040493414  0.7519189463624081  0.1249378781816262
  0.7382026856029335  0.7354943529433716  0.6257658740371602
  0.7511345371021911  0.2483871707169099  0.3744386266318389
  0.8696866085369135  0.3822880646833929  0.5000000000000000
  0.3904640948590382  0.6412526570792885  0.5000000000000000
  0.4999100652034461  0.5007666557450101  0.3755735371711698
  0.8872452950983434  0.6282012224885762  0.5000000000000000
  0.7382026856029335  0.7354943529433716  0.3742341259628399
  0.6184664346004264  0.3686242698165659  0.5000000000000000
 
  0.00000000E+00  0.00000000E+00  0.00000000E+00
  0.00000000E+00  0.00000000E+00  0.00000000E+00
  0.00000000E+00  0.00000000E+00  0.00000000E+00
  0.00000000E+00  0.00000000E+00  0.00000000E+00
  0.00000000E+00  0.00000000E+00  0.00000000E+00
  0.00000000E+00  0.00000000E+00  0.00000000E+00
  0.00000000E+00  0.00000000E+00  0.00000000E+00
  0.00000000E+00  0.00000000E+00  0.00000000E+00
  0.00000000E+00  0.00000000E+00  0.00000000E+00
  0.00000000E+00  0.00000000E+00  0.00000000E+00
  0.00000000E+00  0.00000000E+00  0.00000000E+00
  0.00000000E+00  0.00000000E+00  0.00000000E+00
  0.00000000E+00  0.00000000E+00  0.00000000E+00
  0.00000000E+00  0.00000000E+00  0.00000000E+00
  0.00000000E+00  0.00000000E+00  0.00000000E+00
  0.00000000E+00  0.00000000E+00  0.00000000E+00
  0.00000000E+00  0.00000000E+00  0.00000000E+00
  0.00000000E+00  0.00000000E+00  0.00000000E+00
  0.00000000E+00  0.00000000E+00  0.00000000E+00
  0.00000000E+00  0.00000000E+00  0.00000000E+00
  0.00000000E+00  0.00000000E+00  0.00000000E+00
  0.00000000E+00  0.00000000E+00  0.00000000E+00
  0.00000000E+00  0.00000000E+00  0.00000000E+00
  0.00000000E+00  0.00000000E+00  0.00000000E+00
  0.00000000E+00  0.00000000E+00  0.00000000E+00
  0.00000000E+00  0.00000000E+00  0.00000000E+00
  0.00000000E+00  0.00000000E+00  0.00000000E+00
  0.00000000E+00  0.00000000E+00  0.00000000E+00
  0.00000000E+00  0.00000000E+00  0.00000000E+00
  0.00000000E+00  0.00000000E+00  0.00000000E+00
  0.00000000E+00  0.00000000E+00  0.00000000E+00
  0.00000000E+00  0.00000000E+00  0.00000000E+00
  0.00000000E+00  0.00000000E+00  0.00000000E+00
  0.00000000E+00  0.00000000E+00  0.00000000E+00
  0.00000000E+00  0.00000000E+00  0.00000000E+00
  0.00000000E+00  0.00000000E+00  0.00000000E+00
  0.00000000E+00  0.00000000E+00  0.00000000E+00
  0.00000000E+00  0.00000000E+00  0.00000000E+00
  0.00000000E+00  0.00000000E+00  0.00000000E+00
  0.00000000E+00  0.00000000E+00  0.00000000E+00
  0.00000000E+00  0.00000000E+00  0.00000000E+00
  0.00000000E+00  0.00000000E+00  0.00000000E+00
  0.00000000E+00  0.00000000E+00  0.00000000E+00
  0.00000000E+00  0.00000000E+00  0.00000000E+00
  0.00000000E+00  0.00000000E+00  0.00000000E+00
  0.00000000E+00  0.00000000E+00  0.00000000E+00
  0.00000000E+00  0.00000000E+00  0.00000000E+00
  0.00000000E+00  0.00000000E+00  0.00000000E+00
  0.00000000E+00  0.00000000E+00  0.00000000E+00
  0.00000000E+00  0.00000000E+00  0.00000000E+00
  0.00000000E+00  0.00000000E+00  0.00000000E+00
  0.00000000E+00  0.00000000E+00  0.00000000E+00
  0.00000000E+00  0.00000000E+00  0.00000000E+00
  0.00000000E+00  0.00000000E+00  0.00000000E+00
  0.00000000E+00  0.00000000E+00  0.00000000E+00
  0.00000000E+00  0.00000000E+00  0.00000000E+00
  0.00000000E+00  0.00000000E+00  0.00000000E+00
  0.00000000E+00  0.00000000E+00  0.00000000E+00
  0.00000000E+00  0.00000000E+00  0.00000000E+00
  0.00000000E+00  0.00000000E+00  0.00000000E+00
  0.00000000E+00  0.00000000E+00  0.00000000E+00
  0.00000000E+00  0.00000000E+00  0.00000000E+00
  0.00000000E+00  0.00000000E+00  0.00000000E+00
  0.00000000E+00  0.00000000E+00  0.00000000E+00
  0.00000000E+00  0.00000000E+00  0.00000000E+00
  0.00000000E+00  0.00000000E+00  0.00000000E+00
  0.00000000E+00  0.00000000E+00  0.00000000E+00
  0.00000000E+00  0.00000000E+00  0.00000000E+00
  0.00000000E+00  0.00000000E+00  0.00000000E+00
  0.00000000E+00  0.00000000E+00  0.00000000E+00
  0.00000000E+00  0.00000000E+00  0.00000000E+00
  0.00000000E+00  0.00000000E+00  0.00000000E+00
  0.00000000E+00  0.00000000E+00  0.00000000E+00
  0.00000000E+00  0.00000000E+00  0.00000000E+00
  0.00000000E+00  0.00000000E+00  0.00000000E+00
  0.00000000E+00  0.00000000E+00  0.00000000E+00
  0.00000000E+00  0.00000000E+00  0.00000000E+00
  0.00000000E+00  0.00000000E+00  0.00000000E+00
  0.00000000E+00  0.00000000E+00  0.00000000E+00
  0.00000000E+00  0.00000000E+00  0.00000000E+00
  0.00000000E+00  0.00000000E+00  0.00000000E+00
  0.00000000E+00  0.00000000E+00  0.00000000E+00
  0.00000000E+00  0.00000000E+00  0.00000000E+00
  0.00000000E+00  0.00000000E+00  0.00000000E+00
  0.00000000E+00  0.00000000E+00  0.00000000E+00
  0.00000000E+00  0.00000000E+00  0.00000000E+00
  0.00000000E+00  0.00000000E+00  0.00000000E+00
  0.00000000E+00  0.00000000E+00  0.00000000E+00
  0.00000000E+00  0.00000000E+00  0.00000000E+00
  0.00000000E+00  0.00000000E+00  0.00000000E+00
  0.00000000E+00  0.00000000E+00  0.00000000E+00
  0.00000000E+00  0.00000000E+00  0.00000000E+00
  0.00000000E+00  0.00000000E+00  0.00000000E+00
  0.00000000E+00  0.00000000E+00  0.00000000E+00
  0.00000000E+00  0.00000000E+00  0.00000000E+00
  0.00000000E+00  0.00000000E+00  0.00000000E+00
  0.00000000E+00  0.00000000E+00  0.00000000E+00
  0.00000000E+00  0.00000000E+00  0.00000000E+00
  0.00000000E+00  0.00000000E+00  0.00000000E+00
  0.00000000E+00  0.00000000E+00  0.00000000E+00
  0.00000000E+00  0.00000000E+00  0.00000000E+00
  0.00000000E+00  0.00000000E+00  0.00000000E+00
  0.00000000E+00  0.00000000E+00  0.00000000E+00
  0.00000000E+00  0.00000000E+00  0.00000000E+00
  0.00000000E+00  0.00000000E+00  0.00000000E+00
  0.00000000E+00  0.00000000E+00  0.00000000E+00
  0.00000000E+00  0.00000000E+00  0.00000000E+00
  0.00000000E+00  0.00000000E+00  0.00000000E+00
  0.00000000E+00  0.00000000E+00  0.00000000E+00
  0.00000000E+00  0.00000000E+00  0.00000000E+00
  0.00000000E+00  0.00000000E+00  0.00000000E+00
  0.00000000E+00  0.00000000E+00  0.00000000E+00
  0.00000000E+00  0.00000000E+00  0.00000000E+00
  0.00000000E+00  0.00000000E+00  0.00000000E+00
  0.00000000E+00  0.00000000E+00  0.00000000E+00
  0.00000000E+00  0.00000000E+00  0.00000000E+00
  0.00000000E+00  0.00000000E+00  0.00000000E+00
  0.00000000E+00  0.00000000E+00  0.00000000E+00
  0.00000000E+00  0.00000000E+00  0.00000000E+00
  0.00000000E+00  0.00000000E+00  0.00000000E+00
  0.00000000E+00  0.00000000E+00  0.00000000E+00
  0.00000000E+00  0.00000000E+00  0.00000000E+00
  0.00000000E+00  0.00000000E+00  0.00000000E+00
  0.00000000E+00  0.00000000E+00  0.00000000E+00
  0.00000000E+00  0.00000000E+00  0.00000000E+00
  0.00000000E+00  0.00000000E+00  0.00000000E+00
  0.00000000E+00  0.00000000E+00  0.00000000E+00
  0.00000000E+00  0.00000000E+00  0.00000000E+00
  0.00000000E+00  0.00000000E+00  0.00000000E+00
  0.00000000E+00  0.00000000E+00  0.00000000E+00
  0.00000000E+00  0.00000000E+00  0.00000000E+00
  0.00000000E+00  0.00000000E+00  0.00000000E+00
  0.00000000E+00  0.00000000E+00  0.00000000E+00
  0.00000000E+00  0.00000000E+00  0.00000000E+00
  0.00000000E+00  0.00000000E+00  0.00000000E+00
  0.00000000E+00  0.00000000E+00  0.00000000E+00
  0.00000000E+00  0.00000000E+00  0.00000000E+00
  0.00000000E+00  0.00000000E+00  0.00000000E+00
  0.00000000E+00  0.00000000E+00  0.00000000E+00
  0.00000000E+00  0.00000000E+00  0.00000000E+00
  0.00000000E+00  0.00000000E+00  0.00000000E+00
  0.00000000E+00  0.00000000E+00  0.00000000E+00
  0.00000000E+00  0.00000000E+00  0.00000000E+00
  0.00000000E+00  0.00000000E+00  0.00000000E+00
  0.00000000E+00  0.00000000E+00  0.00000000E+00
  0.00000000E+00  0.00000000E+00  0.00000000E+00
  0.00000000E+00  0.00000000E+00  0.00000000E+00
  0.00000000E+00  0.00000000E+00  0.00000000E+00
  0.00000000E+00  0.00000000E+00  0.00000000E+00
  0.00000000E+00  0.00000000E+00  0.00000000E+00
  0.00000000E+00  0.00000000E+00  0.00000000E+00
  0.00000000E+00  0.00000000E+00  0.00000000E+00
  0.00000000E+00  0.00000000E+00  0.00000000E+00
  0.00000000E+00  0.00000000E+00  0.00000000E+00
  0.00000000E+00  0.00000000E+00  0.00000000E+00
  0.00000000E+00  0.00000000E+00  0.00000000E+00
  0.00000000E+00  0.00000000E+00  0.00000000E+00
  0.00000000E+00  0.00000000E+00  0.00000000E+00
