SrTiFeO                                 
   1.00000000000000     
    11.1989999999999998    0.0000000000000000    0.0000000000000000
     0.0000000000000000   11.1989999999999998    0.0000000000000000
     0.0000000000000000    0.0000000000000000   15.9830000000000005
   Sr   Ti   Fe   O 
    32    30     2    94
Direct
  0.0010779461770693  0.2501998803750780  0.1246750869782585
  0.0033630764376419  0.2540878967843352  0.6285112328625130
  0.9993468139701639  0.7494897409051727  0.1248564968932755
  0.9947940173896769  0.7486391337152670  0.6256345828697427
  0.5009404959462187  0.2501838845511307  0.1228569319107636
  0.4980461971554843  0.2434864687896738  0.6336890155605179
  0.5009137199519486  0.7479117789981651  0.1255261461638701
  0.5027338124198026  0.7514172649950963  0.6232000384672299
  0.0033630764376419  0.2540878967843352  0.3714887671374871
  0.0010779461770693  0.2501998803750780  0.8753249130217414
  0.9947940173896769  0.7486391337152670  0.3743654171302573
  0.9993468139701639  0.7494897409051727  0.8751435031067244
  0.4980461971554843  0.2434864687896738  0.3663109844394822
  0.5009404959462187  0.2501838845511307  0.8771430680892364
  0.5027338124198026  0.7514172649950963  0.3767999615327701
  0.5009137199519486  0.7479117789981651  0.8744738538361299
  0.2496613545156885  0.0005384835097663  0.1240281085214605
  0.2489715357478962  0.9939868892830697  0.6296393215465453
  0.2521924627759982  0.4996457235802159  0.1247475021978633
  0.2447519208280949  0.5040189172872661  0.6285777712788002
  0.7506709720791086 -0.0000243644119801  0.1253683755433566
  0.7457909069591644  0.9921043708531819  0.6253451806648221
  0.7484140887221099  0.5005455385963521  0.1239685524242142
  0.7543620278056600  0.5046969374808612  0.6261494633771568
  0.2489715357478962  0.9939868892830697  0.3703606784534547
  0.2496613545156885  0.0005384835097663  0.8759718914785397
  0.2447519208280949  0.5040189172872661  0.3714222287211997
  0.2521924627759982  0.4996457235802159  0.8752524978021368
  0.7457909069591644  0.9921043708531819  0.3746548193351777
  0.7506709720791086 -0.0000243644119801  0.8746316244566433
  0.7543620278056600  0.5046969374808612  0.3738505366228432
  0.7484140887221099  0.5005455385963521  0.8760314475757858
  0.9996450988109498  0.0008633661705797  0.0000000000000000
  0.9972355695460704  0.9884305491870414  0.5000000000000000
  0.0003496482386033  0.5000450698749386  0.0000000000000000
  0.0005212518216771  0.5038486383388221  0.5000000000000000
  0.4994111987698201  0.9992845214115925  0.0000000000000000
  0.4990545290432042  0.0009020821045070  0.5000000000000000
  0.5000654164682133  0.5008662261744340  0.0000000000000000
  0.2495022007696059  0.2493207247780095  0.0000000000000000
  0.2431714344512840  0.2357113011022491  0.5000000000000000
  0.2501752688980964  0.7495586307234750  0.0000000000000000
  0.2498873521335727  0.7496845055445811  0.5000000000000000
  0.7509662574787179  0.2496024432283291  0.0000000000000000
  0.7495142365242349  0.7498758299137578  0.0000000000000000
  0.2505631248085644  0.2505055653784490  0.2489584453183588
  0.2505631248085644  0.2505055653784490  0.7510415546816412
  0.2497259147038871  0.7498087370706292  0.2498997892790332
  0.2497259147038871  0.7498087370706292  0.7501002107209668
  0.7496062332268756  0.2509864476064265  0.2499054552482822
  0.7496062332268756  0.2509864476064265  0.7500945447517178
  0.7491610970011799  0.7494858787886861  0.2505847763273932
  0.7491610970011799  0.7494858787886861  0.7494152236726068
  0.9989392282149138  0.9999174008926563  0.2503787346308859
  0.9989392282149138  0.9999174008926563  0.7496212653691139
  0.9995977497547521  0.5001272257041504  0.2487653288083435
  0.9995977497547521  0.5001272257041504  0.7512346711916565
  0.4997261788720929  0.9988977315169678  0.2488254070098867
  0.4997261788720929  0.9988977315169678  0.7511745929901134
  0.4992374992471748  0.4977061654512619  0.2529597705408235
  0.4992374992471748  0.4977061654512619  0.7470402294591765
  0.7665011845114472  0.2407819622968999  0.5000000000000000
  0.5046504461625302  0.5140929120426438  0.5000000000000000
  0.7489598743720368  0.7458071913610470  0.5000000000000000
  0.1107282519058515  0.1411408942540275  0.2540844026197855
  0.1107282519058515  0.1411408942540275  0.7459155973802145
  0.1101325963121850  0.6396989961328956  0.2509900564181654
  0.1101325963121850  0.6396989961328956  0.7490099435818346
  0.6105855418396465  0.1396479232793279  0.2484977038712223
  0.6105855418396465  0.1396479232793279  0.7515022961287775
  0.6076340069864055  0.6373880541467585  0.2543871831827152
  0.6076340069864055  0.6373880541467585  0.7456128168172848
  0.3898108847844187  0.3576952411729998  0.2429945451669078
  0.3898108847844187  0.3576952411729998  0.7570054548330922
  0.3901331905047999  0.8592009865791217  0.2508144402879405
  0.3901331905047999  0.8592009865791217  0.7491855597120594
  0.8907591074221023  0.3586602488455739  0.2499570231369798
  0.8907591074221023  0.3586602488455739  0.7500429768630201
  0.8902526597538202  0.8617532921318785  0.2458135755470268
  0.8902526597538202  0.8617532921318785  0.7541864244529732
  0.3592254736023056  0.1100981494357534  0.2510911500258618
  0.3592254736023056  0.1100981494357534  0.7489088499741382
  0.3592672091196051  0.6086287645256354  0.2532631725106759
  0.3592672091196051  0.6086287645256354  0.7467368274893240
  0.8587460701204860  0.1115398509349996  0.2561088539951569
  0.8587460701204860  0.1115398509349996  0.7438911460048431
  0.8609185670441548  0.6091402178923928  0.2472394851275682
  0.8609185670441548  0.6091402178923928  0.7527605148724318
  0.1406983126238921  0.3899767692904529  0.2487802322802743
  0.1406983126238921  0.3899767692904529  0.7512197677197257
  0.1397637856034948  0.8905816208989167  0.2465983546459346
  0.1397637856034948  0.8905816208989167  0.7534016453540655
  0.6402562020454912  0.3897487489589084  0.2470963689978410
  0.6402562020454912  0.3897487489589084  0.7529036310021591
  0.6381424274167391  0.8906001141055342  0.2472363231442959
  0.6381424274167391  0.8906001141055342  0.7527636768557042
  0.3595456291444558  0.3894315288795940  0.0000000000000000
  0.3581493783077234  0.8906817237653681  0.0000000000000000
  0.3526912277837632  0.9013022418173184  0.5000000000000000
  0.8593813543087219  0.3905918283824249  0.0000000000000000
  0.8596336503272306  0.8911258973454428  0.0000000000000000
  0.8560909808143670  0.8999035380781938  0.5000000000000000
  0.1406628660473638  0.1084668231053826  0.0000000000000000
  0.1477006961437399  0.1022301807790617  0.5000000000000000
  0.1408632145020071  0.6092956299929183  0.0000000000000000
  0.1451719066621313  0.6070331276510372  0.5000000000000000
  0.6402476866098512  0.1096897683304549  0.0000000000000000
  0.6415358966675766  0.1191122675684095  0.5000000000000000
  0.6402502875190152  0.6090346255608590  0.0000000000000000
  0.1094201498340029  0.3588722550615329  0.0000000000000000
  0.1237382703709820  0.3626488739312282  0.5000000000000000
  0.1087800486798792  0.8598001570448689  0.0000000000000000
  0.1028474297663995  0.8538781165571340  0.5000000000000000
  0.6105465470250708  0.3596841884169514  0.0000000000000000
  0.6081641666141852  0.8599711131652537  0.0000000000000000
  0.6011519593619534  0.8677599269375537  0.5000000000000000
  0.3901032548318395  0.1408107283242147  0.0000000000000000
  0.4009250477062193  0.1639449128195735  0.5000000000000000
  0.3903176031307030  0.6409434622302697  0.0000000000000000
  0.8907520457449423  0.1414414269011094  0.0000000000000000
  0.9013154702231663  0.1460487859704248  0.5000000000000000
  0.8910642557499777  0.6404570423563264  0.0000000000000000
  0.9987603911235848  0.0064822822891683  0.1253782411111801
  0.0021655855506140  0.9972876198947609  0.6248516317610289
  0.0013285568188896  0.4994285879597417  0.1245088955733378
  0.0019016561719423  0.4965437625485113  0.6263261046464896
  0.4968014454611014  0.0011349470463507  0.1246427532006453
  0.4984915458527010  0.0033532634390534  0.6257793520008952
  0.4994198620983968  0.5028416469996734  0.1250226761361040
  0.4905257332785808  0.4764008129024377  0.6222504132257193
  0.0021655855506140  0.9972876198947609  0.3751483682389712
  0.9987603911235848  0.0064822822891683  0.8746217588888199
  0.0019016561719423  0.4965437625485113  0.3736738953535103
  0.0013285568188896  0.4994285879597417  0.8754911044266622
  0.4984915458527010  0.0033532634390534  0.3742206479991048
  0.4968014454611014  0.0011349470463507  0.8753572467993547
  0.4994198620983968  0.5028416469996734  0.8749773238638960
  0.2582186854816493  0.2609805437906152  0.3770546453950063
  0.2467342577065317  0.2465031836137778  0.8752643599077679
  0.2473282477619302  0.7547384821718263  0.3744326355859730
  0.2511124489045430  0.7478424197765317  0.8748189235252932
  0.7521371465423317  0.2479714420179439  0.8745603982639237
  0.7470409827089582  0.7481119758767028  0.8762991318904688
  0.2467342577065317  0.2465031836137778  0.1247356400922323
  0.2582186854816493  0.2609805437906152  0.6229453546049938
  0.2511124489045430  0.7478424197765317  0.1251810764747068
  0.2473282477619302  0.7547384821718263  0.6255673644140269
  0.7521371465423317  0.2479714420179439  0.1254396017360762
  0.7395201821894486  0.2627527081343440  0.6210839426951323
  0.7470409827089582  0.7481119758767028  0.1237008681095312
  0.7523619665128808  0.7542153138711584  0.6317981271877513
  0.7395201821894486  0.2627527081343440  0.3789160573048677
  0.8589498840001751  0.3904289382545557  0.5000000000000000
  0.3842159875144107  0.6458137436078175  0.5000000000000000
  0.4905257332785808  0.4764008129024377  0.3777495867742807
  0.9041153391170601  0.6388852162896328  0.5000000000000000
  0.7523619665128808  0.7542153138711584  0.3682018728122486
  0.6570740855697336  0.5911308513828226  0.5000000000000000
 
  0.00000000E+00  0.00000000E+00  0.00000000E+00
  0.00000000E+00  0.00000000E+00  0.00000000E+00
  0.00000000E+00  0.00000000E+00  0.00000000E+00
  0.00000000E+00  0.00000000E+00  0.00000000E+00
  0.00000000E+00  0.00000000E+00  0.00000000E+00
  0.00000000E+00  0.00000000E+00  0.00000000E+00
  0.00000000E+00  0.00000000E+00  0.00000000E+00
  0.00000000E+00  0.00000000E+00  0.00000000E+00
  0.00000000E+00  0.00000000E+00  0.00000000E+00
  0.00000000E+00  0.00000000E+00  0.00000000E+00
  0.00000000E+00  0.00000000E+00  0.00000000E+00
  0.00000000E+00  0.00000000E+00  0.00000000E+00
  0.00000000E+00  0.00000000E+00  0.00000000E+00
  0.00000000E+00  0.00000000E+00  0.00000000E+00
  0.00000000E+00  0.00000000E+00  0.00000000E+00
  0.00000000E+00  0.00000000E+00  0.00000000E+00
  0.00000000E+00  0.00000000E+00  0.00000000E+00
  0.00000000E+00  0.00000000E+00  0.00000000E+00
  0.00000000E+00  0.00000000E+00  0.00000000E+00
  0.00000000E+00  0.00000000E+00  0.00000000E+00
  0.00000000E+00  0.00000000E+00  0.00000000E+00
  0.00000000E+00  0.00000000E+00  0.00000000E+00
  0.00000000E+00  0.00000000E+00  0.00000000E+00
  0.00000000E+00  0.00000000E+00  0.00000000E+00
  0.00000000E+00  0.00000000E+00  0.00000000E+00
  0.00000000E+00  0.00000000E+00  0.00000000E+00
  0.00000000E+00  0.00000000E+00  0.00000000E+00
  0.00000000E+00  0.00000000E+00  0.00000000E+00
  0.00000000E+00  0.00000000E+00  0.00000000E+00
  0.00000000E+00  0.00000000E+00  0.00000000E+00
  0.00000000E+00  0.00000000E+00  0.00000000E+00
  0.00000000E+00  0.00000000E+00  0.00000000E+00
  0.00000000E+00  0.00000000E+00  0.00000000E+00
  0.00000000E+00  0.00000000E+00  0.00000000E+00
  0.00000000E+00  0.00000000E+00  0.00000000E+00
  0.00000000E+00  0.00000000E+00  0.00000000E+00
  0.00000000E+00  0.00000000E+00  0.00000000E+00
  0.00000000E+00  0.00000000E+00  0.00000000E+00
  0.00000000E+00  0.00000000E+00  0.00000000E+00
  0.00000000E+00  0.00000000E+00  0.00000000E+00
  0.00000000E+00  0.00000000E+00  0.00000000E+00
  0.00000000E+00  0.00000000E+00  0.00000000E+00
  0.00000000E+00  0.00000000E+00  0.00000000E+00
  0.00000000E+00  0.00000000E+00  0.00000000E+00
  0.00000000E+00  0.00000000E+00  0.00000000E+00
  0.00000000E+00  0.00000000E+00  0.00000000E+00
  0.00000000E+00  0.00000000E+00  0.00000000E+00
  0.00000000E+00  0.00000000E+00  0.00000000E+00
  0.00000000E+00  0.00000000E+00  0.00000000E+00
  0.00000000E+00  0.00000000E+00  0.00000000E+00
  0.00000000E+00  0.00000000E+00  0.00000000E+00
  0.00000000E+00  0.00000000E+00  0.00000000E+00
  0.00000000E+00  0.00000000E+00  0.00000000E+00
  0.00000000E+00  0.00000000E+00  0.00000000E+00
  0.00000000E+00  0.00000000E+00  0.00000000E+00
  0.00000000E+00  0.00000000E+00  0.00000000E+00
  0.00000000E+00  0.00000000E+00  0.00000000E+00
  0.00000000E+00  0.00000000E+00  0.00000000E+00
  0.00000000E+00  0.00000000E+00  0.00000000E+00
  0.00000000E+00  0.00000000E+00  0.00000000E+00
  0.00000000E+00  0.00000000E+00  0.00000000E+00
  0.00000000E+00  0.00000000E+00  0.00000000E+00
  0.00000000E+00  0.00000000E+00  0.00000000E+00
  0.00000000E+00  0.00000000E+00  0.00000000E+00
  0.00000000E+00  0.00000000E+00  0.00000000E+00
  0.00000000E+00  0.00000000E+00  0.00000000E+00
  0.00000000E+00  0.00000000E+00  0.00000000E+00
  0.00000000E+00  0.00000000E+00  0.00000000E+00
  0.00000000E+00  0.00000000E+00  0.00000000E+00
  0.00000000E+00  0.00000000E+00  0.00000000E+00
  0.00000000E+00  0.00000000E+00  0.00000000E+00
  0.00000000E+00  0.00000000E+00  0.00000000E+00
  0.00000000E+00  0.00000000E+00  0.00000000E+00
  0.00000000E+00  0.00000000E+00  0.00000000E+00
  0.00000000E+00  0.00000000E+00  0.00000000E+00
  0.00000000E+00  0.00000000E+00  0.00000000E+00
  0.00000000E+00  0.00000000E+00  0.00000000E+00
  0.00000000E+00  0.00000000E+00  0.00000000E+00
  0.00000000E+00  0.00000000E+00  0.00000000E+00
  0.00000000E+00  0.00000000E+00  0.00000000E+00
  0.00000000E+00  0.00000000E+00  0.00000000E+00
  0.00000000E+00  0.00000000E+00  0.00000000E+00
  0.00000000E+00  0.00000000E+00  0.00000000E+00
  0.00000000E+00  0.00000000E+00  0.00000000E+00
  0.00000000E+00  0.00000000E+00  0.00000000E+00
  0.00000000E+00  0.00000000E+00  0.00000000E+00
  0.00000000E+00  0.00000000E+00  0.00000000E+00
  0.00000000E+00  0.00000000E+00  0.00000000E+00
  0.00000000E+00  0.00000000E+00  0.00000000E+00
  0.00000000E+00  0.00000000E+00  0.00000000E+00
  0.00000000E+00  0.00000000E+00  0.00000000E+00
  0.00000000E+00  0.00000000E+00  0.00000000E+00
  0.00000000E+00  0.00000000E+00  0.00000000E+00
  0.00000000E+00  0.00000000E+00  0.00000000E+00
  0.00000000E+00  0.00000000E+00  0.00000000E+00
  0.00000000E+00  0.00000000E+00  0.00000000E+00
  0.00000000E+00  0.00000000E+00  0.00000000E+00
  0.00000000E+00  0.00000000E+00  0.00000000E+00
  0.00000000E+00  0.00000000E+00  0.00000000E+00
  0.00000000E+00  0.00000000E+00  0.00000000E+00
  0.00000000E+00  0.00000000E+00  0.00000000E+00
  0.00000000E+00  0.00000000E+00  0.00000000E+00
  0.00000000E+00  0.00000000E+00  0.00000000E+00
  0.00000000E+00  0.00000000E+00  0.00000000E+00
  0.00000000E+00  0.00000000E+00  0.00000000E+00
  0.00000000E+00  0.00000000E+00  0.00000000E+00
  0.00000000E+00  0.00000000E+00  0.00000000E+00
  0.00000000E+00  0.00000000E+00  0.00000000E+00
  0.00000000E+00  0.00000000E+00  0.00000000E+00
  0.00000000E+00  0.00000000E+00  0.00000000E+00
  0.00000000E+00  0.00000000E+00  0.00000000E+00
  0.00000000E+00  0.00000000E+00  0.00000000E+00
  0.00000000E+00  0.00000000E+00  0.00000000E+00
  0.00000000E+00  0.00000000E+00  0.00000000E+00
  0.00000000E+00  0.00000000E+00  0.00000000E+00
  0.00000000E+00  0.00000000E+00  0.00000000E+00
  0.00000000E+00  0.00000000E+00  0.00000000E+00
  0.00000000E+00  0.00000000E+00  0.00000000E+00
  0.00000000E+00  0.00000000E+00  0.00000000E+00
  0.00000000E+00  0.00000000E+00  0.00000000E+00
  0.00000000E+00  0.00000000E+00  0.00000000E+00
  0.00000000E+00  0.00000000E+00  0.00000000E+00
  0.00000000E+00  0.00000000E+00  0.00000000E+00
  0.00000000E+00  0.00000000E+00  0.00000000E+00
  0.00000000E+00  0.00000000E+00  0.00000000E+00
  0.00000000E+00  0.00000000E+00  0.00000000E+00
  0.00000000E+00  0.00000000E+00  0.00000000E+00
  0.00000000E+00  0.00000000E+00  0.00000000E+00
  0.00000000E+00  0.00000000E+00  0.00000000E+00
  0.00000000E+00  0.00000000E+00  0.00000000E+00
  0.00000000E+00  0.00000000E+00  0.00000000E+00
  0.00000000E+00  0.00000000E+00  0.00000000E+00
  0.00000000E+00  0.00000000E+00  0.00000000E+00
  0.00000000E+00  0.00000000E+00  0.00000000E+00
  0.00000000E+00  0.00000000E+00  0.00000000E+00
  0.00000000E+00  0.00000000E+00  0.00000000E+00
  0.00000000E+00  0.00000000E+00  0.00000000E+00
  0.00000000E+00  0.00000000E+00  0.00000000E+00
  0.00000000E+00  0.00000000E+00  0.00000000E+00
  0.00000000E+00  0.00000000E+00  0.00000000E+00
  0.00000000E+00  0.00000000E+00  0.00000000E+00
  0.00000000E+00  0.00000000E+00  0.00000000E+00
  0.00000000E+00  0.00000000E+00  0.00000000E+00
  0.00000000E+00  0.00000000E+00  0.00000000E+00
  0.00000000E+00  0.00000000E+00  0.00000000E+00
  0.00000000E+00  0.00000000E+00  0.00000000E+00
  0.00000000E+00  0.00000000E+00  0.00000000E+00
  0.00000000E+00  0.00000000E+00  0.00000000E+00
  0.00000000E+00  0.00000000E+00  0.00000000E+00
  0.00000000E+00  0.00000000E+00  0.00000000E+00
  0.00000000E+00  0.00000000E+00  0.00000000E+00
  0.00000000E+00  0.00000000E+00  0.00000000E+00
  0.00000000E+00  0.00000000E+00  0.00000000E+00
  0.00000000E+00  0.00000000E+00  0.00000000E+00
  0.00000000E+00  0.00000000E+00  0.00000000E+00
  0.00000000E+00  0.00000000E+00  0.00000000E+00
  0.00000000E+00  0.00000000E+00  0.00000000E+00
  0.00000000E+00  0.00000000E+00  0.00000000E+00
