SrTiFeO                                 
   1.00000000000000     
    11.1989999999999998    0.0000000000000000    0.0000000000000000
     0.0000000000000000   11.1989999999999998    0.0000000000000000
     0.0000000000000000    0.0000000000000000   15.9830000000000005
   Sr   Ti   Fe   O 
    32    29     3    94
Direct
  0.9997513785656409  0.2500461692515960  0.1250376544103735
  0.9983373236838472  0.2528839534474036  0.6262222306634272
  0.9991446916869166  0.7499487358621926  0.1250727816330564
  0.9976876162016306  0.7495269538943570  0.6248066990647149
  0.5016200417157657  0.2503933834793019  0.1233134570253526
  0.4993540787795344  0.2423445144266147  0.6327597899351945
  0.5013579465689496  0.7476447791456127  0.1257511269240482
  0.5002758013663580  0.7519421985372099  0.6228574263272950
  0.9983373236838472  0.2528839534474036  0.3737777693365728
  0.9997513785656409  0.2500461692515960  0.8749623455896265
  0.9976876162016306  0.7495269538943570  0.3751933009352851
  0.9991446916869166  0.7499487358621926  0.8749272183669436
  0.4993540787795344  0.2423445144266147  0.3672402100648054
  0.5016200417157657  0.2503933834793019  0.8766865429746474
  0.5002758013663580  0.7519421985372099  0.3771425736727049
  0.5013579465689496  0.7476447791456127  0.8742488730759518
  0.2501115789518938  0.0007270198487870  0.1242680318107086
  0.2490681059261204  0.9936298475553182  0.6284114844739500
  0.2520129480077192  0.4997159110843857  0.1250974248482624
  0.2435554634243355  0.5044823602205061  0.6274124492179712
  0.7502238479454901  0.0008405799944576  0.1258428241030626
  0.7471633317965385  0.9963540223400883  0.6239020750220113
  0.7487671211290061  0.5000251796598734  0.1242748511508819
  0.7529810601054997  0.5025260021300139  0.6259365044664467
  0.2490681059261204  0.9936298475553182  0.3715885155260500
  0.2501115789518938  0.0007270198487870  0.8757319681892843
  0.2435554634243355  0.5044823602205061  0.3725875507820288
  0.2520129480077192  0.4997159110843857  0.8749025751517376
  0.7471633317965385  0.9963540223400883  0.3760979249779886
  0.7502238479454901  0.0008405799944576  0.8741571758969374
  0.7529810601054997  0.5025260021300139  0.3740634955335533
  0.7487671211290061  0.5000251796598734  0.8757251488491181
  0.9997206541048943  0.0007956508760172 -0.0000000000000000
  0.9951791437903916  0.9916889747577039  0.5000000000000000
  0.0002663911981350  0.5001910489893333 -0.0000000000000000
  0.9972154323046737  0.5026295724428671  0.5000000000000000
  0.4996717685829907  0.9992251353841858 -0.0000000000000000
  0.5022200583941141  0.0015703967934067  0.5000000000000000
  0.5000168028373909  0.5009531673634698 -0.0000000000000000
  0.2493754551038537  0.2494066413143431 -0.0000000000000000
  0.2426785129424865  0.2365726151555037  0.5000000000000000
  0.2502798894509722  0.7494727001926617 -0.0000000000000000
  0.2490007172952143  0.7503446101282919  0.5000000000000000
  0.7508330365783928  0.2496516786626266 -0.0000000000000000
  0.7495048918557794  0.7499035093968608 -0.0000000000000000
  0.2501291352423340  0.2510110932140444  0.2496512098589122
  0.2501291352423340  0.2510110932140444  0.7503487901410878
  0.2498022256996209  0.7497803866335003  0.2498063642569456
  0.2498022256996209  0.7497803866335003  0.7501936357430544
  0.7493997645843911  0.2509014405356956  0.2517837298497162
  0.7493997645843911  0.2509014405356956  0.7482162701502838
  0.7494516738939364  0.7498946049881569  0.2519612805971317
  0.7494516738939364  0.7498946049881569  0.7480387194028683
  0.9992588226823347  0.0000705480755609  0.2506301373044351
  0.9992588226823347  0.0000705480755609  0.7493698626955648
  0.9992895966729922  0.5001053995094717  0.2492398308332838
  0.9992895966729922  0.5001053995094717  0.7507601691667162
  0.4997468195821508  0.9987527772403414  0.2491688369631890
  0.4997468195821508  0.9987527772403414  0.7508311630368110
  0.4995419623713581  0.4974651162263017  0.2532095751235771
  0.4995419623713581  0.4974651162263017  0.7467904248764229
  0.7648661531770939  0.2398423864258194  0.5000000000000000
  0.5041515695923856  0.5141645234536558  0.5000000000000000
  0.7500012514571961  0.7463114186772404  0.5000000000000000
  0.1105842537500164  0.1416423886441482  0.2548825067212093
  0.1105842537500164  0.1416423886441482  0.7451174932787907
  0.1100740727441853  0.6399549774974452  0.2510125357977324
  0.1100740727441853  0.6399549774974452  0.7489874642022677
  0.6100896840876264  0.1391249053998772  0.2482056789548343
  0.6100896840876264  0.1391249053998772  0.7517943210451657
  0.6082474989308464  0.6381756500137901  0.2562294539258391
  0.6082474989308464  0.6381756500137901  0.7437705460741609
  0.3902043643624955  0.3579783635760836  0.2437039990212440
  0.3902043643624955  0.3579783635760836  0.7562960009787562
  0.3905789649931653  0.8588104917012211  0.2504938743676440
  0.3905789649931653  0.8588104917012211  0.7495061256323561
  0.8909691976340204  0.3591869601197679  0.2501052986868683
  0.8909691976340204  0.3591869601197679  0.7498947013131388
  0.8903351959898397  0.8607294929481685  0.2474250058434287
  0.8903351959898397  0.8607294929481685  0.7525749941565714
  0.3593961223140852  0.1100096456828205  0.2518981569271363
  0.3593961223140852  0.1100096456828205  0.7481018430728567
  0.3598173067662020  0.6084190628525700  0.2544585709804866
  0.3598173067662020  0.6084190628525700  0.7455414290195134
  0.8592869032683786  0.1109319146769932  0.2551198289874645
  0.8592869032683786  0.1109319146769932  0.7448801710125355
  0.8600554066426227  0.6095494399013406  0.2489903298729008
  0.8600554066426227  0.6095494399013406  0.7510096701270992
  0.1408816983414083  0.3908579905822443  0.2492481293427535
  0.1408816983414083  0.3908579905822443  0.7507518706572465
  0.1404749958842966  0.8907855853089943  0.2467016681212405
  0.1404749958842966  0.8907855853089943  0.7532983318787594
  0.6403184610436276  0.3902894642025750  0.2463402096159212
  0.6403184610436276  0.3902894642025750  0.7536597903840788
  0.6392781413812902  0.8902719195751220  0.2492699274959050
  0.6392781413812902  0.8902719195751220  0.7507300725040950
  0.3595155089565258  0.3897422089122747 -0.0000000000000000
  0.3581104056025805  0.8908010932060891 -0.0000000000000000
  0.3565192636278731  0.8978093449358061  0.5000000000000000
  0.8595618288662754  0.3909281657363393 -0.0000000000000000
  0.8593110886631351  0.8908694323777014 -0.0000000000000000
  0.8574159854409319  0.8941526770656285  0.5000000000000000
  0.1408643618185217  0.1083599132548306 -0.0000000000000000
  0.1470622278308685  0.1036300309856066  0.5000000000000000
  0.1410419598131508  0.6089698895141374 -0.0000000000000000
  0.1398983287941936  0.6104951238697272  0.5000000000000000
  0.6401072911742030  0.1092444996468502 -0.0000000000000000
  0.6388933887717254  0.1167980315622024  0.5000000000000000
  0.6406308477543812  0.6092383927430173 -0.0000000000000000
  0.1092216252813061  0.3588952096129071 -0.0000000000000000
  0.1230590872502881  0.3650274326225983  0.5000000000000000
  0.1088556484659226  0.8593337610155700 -0.0000000000000000
  0.1063173764793104  0.8578585852461929  0.5000000000000000
  0.6100695236287299  0.3600236616919733 -0.0000000000000000
  0.6083604609143951  0.8594115153279505 -0.0000000000000000
  0.6068287480268606  0.8632948254888390  0.5000000000000000
  0.3902721150209473  0.1406709964783366 -0.0000000000000000
  0.3989245488947841  0.1600251696336603  0.5000000000000000
  0.3906890973303012  0.6410868991627587 -0.0000000000000000
  0.8911242354140443  0.1411049120354281 -0.0000000000000000
  0.9013071123797275  0.1419259737532227  0.5000000000000000
  0.8908942204737442  0.6409791851620646 -0.0000000000000000
  0.9991350103942792  0.0050744815807641  0.1255169709449061
  0.0022152171877989  0.9964017865059384  0.6250398691464014
  0.0005633924441664  0.5002681169374126  0.1248264603108835
  0.0008929312967913  0.4982675393113263  0.6257460918200362
  0.4976717414103488  0.9999945620504279  0.1249129992268705
  0.4989227799200995  0.0012148445657504  0.6253178929543382
  0.4995570828375051  0.5039136015186225  0.1254085916680537
  0.4947828854259180  0.4750005263612488  0.6211457074201568
  0.0022152171877989  0.9964017865059384  0.3749601308535985
  0.9991350103942792  0.0050744815807641  0.8744830290550938
  0.0008929312967913  0.4982675393113263  0.3742539081799638
  0.0005633924441664  0.5002681169374126  0.8751735396891166
  0.4989227799200995  0.0012148445657504  0.3746821070456618
  0.4976717414103488  0.9999945620504279  0.8750870007731295
  0.4995570828375051  0.5039136015186225  0.8745914083319464
  0.2591939674470576  0.2625628967368891  0.3776979359358951
  0.2469076291906558  0.2467865173169106  0.8748976139620245
  0.2474286134216696  0.7546776226008568  0.3743296738849968
  0.2515524504697392  0.7472304982054230  0.8747529456523171
  0.7520314627458544  0.2480697400279557  0.8748481239190495
  0.7469764496134749  0.7481285387036065  0.8749234755730019
  0.2469076291906558  0.2467865173169106  0.1251023860379755
  0.2591939674470576  0.2625628967368891  0.6223020640641048
  0.2515524504697392  0.7472304982054230  0.1252470543476829
  0.2474286134216696  0.7546776226008568  0.6256703261150032
  0.7520314627458544  0.2480697400279557  0.1251518760809505
  0.7401686450915418  0.2603685112113348  0.6230434495557128
  0.7469764496134749  0.7481285387036065  0.1250765244269981
  0.7529632688456025  0.7539642785231520  0.6269361404562013
  0.7401686450915418  0.2603685112113348  0.3769565504442872
  0.8594488740756274  0.3911892660751113  0.5000000000000000
  0.3808235165346848  0.6418615239403890  0.5000000000000000
  0.4947828854259180  0.4750005263612488  0.3788542925798432
  0.8974601900074353  0.6420664866280003  0.5000000000000000
  0.7529632688456025  0.7539642785231520  0.3730638595437988
  0.6552531391196293  0.6021711780176553  0.5000000000000000
 
  0.00000000E+00  0.00000000E+00  0.00000000E+00
  0.00000000E+00  0.00000000E+00  0.00000000E+00
  0.00000000E+00  0.00000000E+00  0.00000000E+00
  0.00000000E+00  0.00000000E+00  0.00000000E+00
  0.00000000E+00  0.00000000E+00  0.00000000E+00
  0.00000000E+00  0.00000000E+00  0.00000000E+00
  0.00000000E+00  0.00000000E+00  0.00000000E+00
  0.00000000E+00  0.00000000E+00  0.00000000E+00
  0.00000000E+00  0.00000000E+00  0.00000000E+00
  0.00000000E+00  0.00000000E+00  0.00000000E+00
  0.00000000E+00  0.00000000E+00  0.00000000E+00
  0.00000000E+00  0.00000000E+00  0.00000000E+00
  0.00000000E+00  0.00000000E+00  0.00000000E+00
  0.00000000E+00  0.00000000E+00  0.00000000E+00
  0.00000000E+00  0.00000000E+00  0.00000000E+00
  0.00000000E+00  0.00000000E+00  0.00000000E+00
  0.00000000E+00  0.00000000E+00  0.00000000E+00
  0.00000000E+00  0.00000000E+00  0.00000000E+00
  0.00000000E+00  0.00000000E+00  0.00000000E+00
  0.00000000E+00  0.00000000E+00  0.00000000E+00
  0.00000000E+00  0.00000000E+00  0.00000000E+00
  0.00000000E+00  0.00000000E+00  0.00000000E+00
  0.00000000E+00  0.00000000E+00  0.00000000E+00
  0.00000000E+00  0.00000000E+00  0.00000000E+00
  0.00000000E+00  0.00000000E+00  0.00000000E+00
  0.00000000E+00  0.00000000E+00  0.00000000E+00
  0.00000000E+00  0.00000000E+00  0.00000000E+00
  0.00000000E+00  0.00000000E+00  0.00000000E+00
  0.00000000E+00  0.00000000E+00  0.00000000E+00
  0.00000000E+00  0.00000000E+00  0.00000000E+00
  0.00000000E+00  0.00000000E+00  0.00000000E+00
  0.00000000E+00  0.00000000E+00  0.00000000E+00
  0.00000000E+00  0.00000000E+00  0.00000000E+00
  0.00000000E+00  0.00000000E+00  0.00000000E+00
  0.00000000E+00  0.00000000E+00  0.00000000E+00
  0.00000000E+00  0.00000000E+00  0.00000000E+00
  0.00000000E+00  0.00000000E+00  0.00000000E+00
  0.00000000E+00  0.00000000E+00  0.00000000E+00
  0.00000000E+00  0.00000000E+00  0.00000000E+00
  0.00000000E+00  0.00000000E+00  0.00000000E+00
  0.00000000E+00  0.00000000E+00  0.00000000E+00
  0.00000000E+00  0.00000000E+00  0.00000000E+00
  0.00000000E+00  0.00000000E+00  0.00000000E+00
  0.00000000E+00  0.00000000E+00  0.00000000E+00
  0.00000000E+00  0.00000000E+00  0.00000000E+00
  0.00000000E+00  0.00000000E+00  0.00000000E+00
  0.00000000E+00  0.00000000E+00  0.00000000E+00
  0.00000000E+00  0.00000000E+00  0.00000000E+00
  0.00000000E+00  0.00000000E+00  0.00000000E+00
  0.00000000E+00  0.00000000E+00  0.00000000E+00
  0.00000000E+00  0.00000000E+00  0.00000000E+00
  0.00000000E+00  0.00000000E+00  0.00000000E+00
  0.00000000E+00  0.00000000E+00  0.00000000E+00
  0.00000000E+00  0.00000000E+00  0.00000000E+00
  0.00000000E+00  0.00000000E+00  0.00000000E+00
  0.00000000E+00  0.00000000E+00  0.00000000E+00
  0.00000000E+00  0.00000000E+00  0.00000000E+00
  0.00000000E+00  0.00000000E+00  0.00000000E+00
  0.00000000E+00  0.00000000E+00  0.00000000E+00
  0.00000000E+00  0.00000000E+00  0.00000000E+00
  0.00000000E+00  0.00000000E+00  0.00000000E+00
  0.00000000E+00  0.00000000E+00  0.00000000E+00
  0.00000000E+00  0.00000000E+00  0.00000000E+00
  0.00000000E+00  0.00000000E+00  0.00000000E+00
  0.00000000E+00  0.00000000E+00  0.00000000E+00
  0.00000000E+00  0.00000000E+00  0.00000000E+00
  0.00000000E+00  0.00000000E+00  0.00000000E+00
  0.00000000E+00  0.00000000E+00  0.00000000E+00
  0.00000000E+00  0.00000000E+00  0.00000000E+00
  0.00000000E+00  0.00000000E+00  0.00000000E+00
  0.00000000E+00  0.00000000E+00  0.00000000E+00
  0.00000000E+00  0.00000000E+00  0.00000000E+00
  0.00000000E+00  0.00000000E+00  0.00000000E+00
  0.00000000E+00  0.00000000E+00  0.00000000E+00
  0.00000000E+00  0.00000000E+00  0.00000000E+00
  0.00000000E+00  0.00000000E+00  0.00000000E+00
  0.00000000E+00  0.00000000E+00  0.00000000E+00
  0.00000000E+00  0.00000000E+00  0.00000000E+00
  0.00000000E+00  0.00000000E+00  0.00000000E+00
  0.00000000E+00  0.00000000E+00  0.00000000E+00
  0.00000000E+00  0.00000000E+00  0.00000000E+00
  0.00000000E+00  0.00000000E+00  0.00000000E+00
  0.00000000E+00  0.00000000E+00  0.00000000E+00
  0.00000000E+00  0.00000000E+00  0.00000000E+00
  0.00000000E+00  0.00000000E+00  0.00000000E+00
  0.00000000E+00  0.00000000E+00  0.00000000E+00
  0.00000000E+00  0.00000000E+00  0.00000000E+00
  0.00000000E+00  0.00000000E+00  0.00000000E+00
  0.00000000E+00  0.00000000E+00  0.00000000E+00
  0.00000000E+00  0.00000000E+00  0.00000000E+00
  0.00000000E+00  0.00000000E+00  0.00000000E+00
  0.00000000E+00  0.00000000E+00  0.00000000E+00
  0.00000000E+00  0.00000000E+00  0.00000000E+00
  0.00000000E+00  0.00000000E+00  0.00000000E+00
  0.00000000E+00  0.00000000E+00  0.00000000E+00
  0.00000000E+00  0.00000000E+00  0.00000000E+00
  0.00000000E+00  0.00000000E+00  0.00000000E+00
  0.00000000E+00  0.00000000E+00  0.00000000E+00
  0.00000000E+00  0.00000000E+00  0.00000000E+00
  0.00000000E+00  0.00000000E+00  0.00000000E+00
  0.00000000E+00  0.00000000E+00  0.00000000E+00
  0.00000000E+00  0.00000000E+00  0.00000000E+00
  0.00000000E+00  0.00000000E+00  0.00000000E+00
  0.00000000E+00  0.00000000E+00  0.00000000E+00
  0.00000000E+00  0.00000000E+00  0.00000000E+00
  0.00000000E+00  0.00000000E+00  0.00000000E+00
  0.00000000E+00  0.00000000E+00  0.00000000E+00
  0.00000000E+00  0.00000000E+00  0.00000000E+00
  0.00000000E+00  0.00000000E+00  0.00000000E+00
  0.00000000E+00  0.00000000E+00  0.00000000E+00
  0.00000000E+00  0.00000000E+00  0.00000000E+00
  0.00000000E+00  0.00000000E+00  0.00000000E+00
  0.00000000E+00  0.00000000E+00  0.00000000E+00
  0.00000000E+00  0.00000000E+00  0.00000000E+00
  0.00000000E+00  0.00000000E+00  0.00000000E+00
  0.00000000E+00  0.00000000E+00  0.00000000E+00
  0.00000000E+00  0.00000000E+00  0.00000000E+00
  0.00000000E+00  0.00000000E+00  0.00000000E+00
  0.00000000E+00  0.00000000E+00  0.00000000E+00
  0.00000000E+00  0.00000000E+00  0.00000000E+00
  0.00000000E+00  0.00000000E+00  0.00000000E+00
  0.00000000E+00  0.00000000E+00  0.00000000E+00
  0.00000000E+00  0.00000000E+00  0.00000000E+00
  0.00000000E+00  0.00000000E+00  0.00000000E+00
  0.00000000E+00  0.00000000E+00  0.00000000E+00
  0.00000000E+00  0.00000000E+00  0.00000000E+00
  0.00000000E+00  0.00000000E+00  0.00000000E+00
  0.00000000E+00  0.00000000E+00  0.00000000E+00
  0.00000000E+00  0.00000000E+00  0.00000000E+00
  0.00000000E+00  0.00000000E+00  0.00000000E+00
  0.00000000E+00  0.00000000E+00  0.00000000E+00
  0.00000000E+00  0.00000000E+00  0.00000000E+00
  0.00000000E+00  0.00000000E+00  0.00000000E+00
  0.00000000E+00  0.00000000E+00  0.00000000E+00
  0.00000000E+00  0.00000000E+00  0.00000000E+00
  0.00000000E+00  0.00000000E+00  0.00000000E+00
  0.00000000E+00  0.00000000E+00  0.00000000E+00
  0.00000000E+00  0.00000000E+00  0.00000000E+00
  0.00000000E+00  0.00000000E+00  0.00000000E+00
  0.00000000E+00  0.00000000E+00  0.00000000E+00
  0.00000000E+00  0.00000000E+00  0.00000000E+00
  0.00000000E+00  0.00000000E+00  0.00000000E+00
  0.00000000E+00  0.00000000E+00  0.00000000E+00
  0.00000000E+00  0.00000000E+00  0.00000000E+00
  0.00000000E+00  0.00000000E+00  0.00000000E+00
  0.00000000E+00  0.00000000E+00  0.00000000E+00
  0.00000000E+00  0.00000000E+00  0.00000000E+00
  0.00000000E+00  0.00000000E+00  0.00000000E+00
  0.00000000E+00  0.00000000E+00  0.00000000E+00
  0.00000000E+00  0.00000000E+00  0.00000000E+00
  0.00000000E+00  0.00000000E+00  0.00000000E+00
  0.00000000E+00  0.00000000E+00  0.00000000E+00
  0.00000000E+00  0.00000000E+00  0.00000000E+00
  0.00000000E+00  0.00000000E+00  0.00000000E+00
  0.00000000E+00  0.00000000E+00  0.00000000E+00
  0.00000000E+00  0.00000000E+00  0.00000000E+00
  0.00000000E+00  0.00000000E+00  0.00000000E+00
  0.00000000E+00  0.00000000E+00  0.00000000E+00
