SrTiFeO                                 
   1.00000000000000     
    11.1989999999999998    0.0000000000000000    0.0000000000000000
     0.0000000000000000   11.1989999999999998    0.0000000000000000
     0.0000000000000000    0.0000000000000000   15.9830000000000005
   Sr   Ti   Fe   O 
    32    29     3    94
Direct
  0.0005141318034777  0.2490905789407641  0.1255372044315368
  0.9948989581714895  0.2520646545782249  0.6239035750941597
  0.9980791645669516  0.7506832334828252  0.1257089762614215
  0.9991945866349898  0.7478234150088551  0.6231518541554665
  0.5013097073263509  0.2509069029507752  0.1241987304027102
  0.5079074479798092  0.2499015962021693  0.6262951239949882
  0.4997526208387919  0.7492122282027081  0.1241413097450156
  0.4966005623422815  0.7508121152838370  0.6277262132479737
  0.9948989581714895  0.2520646545782249  0.3760964249058403
  0.0005141318034777  0.2490905789407641  0.8744627955684633
  0.9991945866349898  0.7478234150088551  0.3768481458445336
  0.9980791645669516  0.7506832334828252  0.8742910237385786
  0.5079074479798092  0.2499015962021693  0.3737048760050118
  0.5013097073263509  0.2509069029507752  0.8758012695972901
  0.4966005623422815  0.7508121152838370  0.3722737867520263
  0.4997526208387919  0.7492122282027081  0.8758586902549843
  0.2505683320488142  0.0001570406921919  0.1247857982541594
  0.2501707505926909  0.9949438558783124  0.6276180464108632
  0.2511400738455413  0.4994123130003779  0.1242709815157824
  0.2443835894144908  0.5059699498052233  0.6281501417685363
  0.7491055108294212  0.9991509973056476  0.1251548053979950
  0.7500243928923384  0.0040925134658811  0.6255559006505962
  0.7484590237422293  0.5007082290861747  0.1248624296891442
  0.7535736952458466  0.4924785257619018  0.6255850517810129
  0.2501707505926909  0.9949438558783124  0.3723819535891367
  0.2505683320488142  0.0001570406921919  0.8752142017458406
  0.2443835894144908  0.5059699498052233  0.3718498582314639
  0.2511400738455413  0.4994123130003779  0.8757290184842175
  0.7500243928923384  0.0040925134658811  0.3744440993493968
  0.7491055108294212  0.9991509973056476  0.8748451946020049
  0.7535736952458466  0.4924785257619018  0.3744149482189870
  0.7484590237422293  0.5007082290861747  0.8751375703108557
  0.9997778768080783 -0.0000049384061528  0.0000000000000000
  0.9960040355584366  0.9988364853535204  0.5000000000000000
  0.9998446305428342  0.5001691237018857  0.0000000000000000
  0.9978604697208704  0.5007855799427640  0.5000000000000000
  0.5000016481341157  0.9998961228752342  0.0000000000000000
  0.5033181713332646  0.9988435064049337  0.5000000000000000
  0.4998541439653584  0.5000040310450403  0.0000000000000000
  0.2496218628925365  0.2495256717134240  0.0000000000000000
  0.2456855403561276  0.2386689687356084  0.5000000000000000
  0.2490013368508175  0.7498296967415599  0.0000000000000000
  0.2506799354342946  0.7509576263063497  0.5000000000000000
  0.7507124520773814  0.2501974446069570  0.0000000000000000
  0.7502423962319494  0.7502885558973681  0.0000000000000000
  0.2517892693436114  0.2511366514704567  0.2505703405946571
  0.2517892693436114  0.2511366514704567  0.7494296594053429
  0.2489960838487499  0.7500195693060093  0.2488848793014146
  0.2489960838487499  0.7500195693060093  0.7511151206985855
  0.7506344087770886  0.2495890329063048  0.2500247137381323
  0.7506344087770886  0.2495890329063048  0.7499752862618678
  0.7480636328670025  0.7482002930448056  0.2527800715526424
  0.7480636328670025  0.7482002930448056  0.7472199284473576
  0.9998462140356091  0.9998330512205496  0.2510259553248960
  0.9998462140356091  0.9998330512205496  0.7489740446751041
  0.9996963052758638  0.4999315473699404  0.2493006811688865
  0.9996963052758638  0.4999315473699404  0.7506993188311136
  0.4999785853949714  0.0000258266166185  0.2499580660980599
  0.4999785853949714  0.0000258266166185  0.7500419339019399
  0.4996881744132578  0.4999228488333164  0.2512004336586859
  0.4996881744132578  0.4999228488333164  0.7487995663413141
  0.7498840145340830  0.2497470586506611  0.5000000000000000
  0.5000851919503877  0.5005980404229918  0.5000000000000000
  0.7542685696111440  0.7601321186573652  0.5000000000000000
  0.1114437304086802  0.1417031166569020  0.2557087814631734
  0.1114437304086802  0.1417031166569020  0.7442912185368266
  0.1087004569061047  0.6409122483715578  0.2513338875773075
  0.1087004569061047  0.6409122483715578  0.7486661124226925
  0.6100320312470509  0.1394649216286987  0.2487968453434903
  0.6100320312470509  0.1394649216286987  0.7512031546565098
  0.6076313706706772  0.6403851710045337  0.2461893034022285
  0.6076313706706772  0.6403851710045337  0.7538106965977712
  0.3919180487149677  0.3592324924218026  0.2468558197731112
  0.3919180487149677  0.3592324924218026  0.7531441802268889
  0.3891681536600101  0.8601113296840267  0.2493120059844812
  0.3891681536600101  0.8601113296840267  0.7506879940155188
  0.8914979529677894  0.3594603077296012  0.2500498027319034
  0.8914979529677894  0.3594603077296012  0.7499501972680966
  0.8888935195691716  0.8587326012739066  0.2555541986616036
  0.8888935195691716  0.8587326012739066  0.7444458013383966
  0.3592406534557398  0.1097572062643978  0.2511189656277897
  0.3592406534557398  0.1097572062643978  0.7488810343722102
  0.3578086669716321  0.6097543332262608  0.2490962641057696
  0.3578086669716321  0.6097543332262608  0.7509037358942303
  0.8606766649832440  0.1089675567145453  0.2487195867485127
  0.8606766649832440  0.1089675567145453  0.7512804132514873
  0.8587907795532751  0.6083910760601865  0.2503023796723767
  0.8587907795532751  0.6083910760601865  0.7496976203276233
  0.1415891947852718  0.3912024395115010  0.2498650710336428
  0.1415891947852718  0.3912024395115010  0.7501349289663571
  0.1398382668617643  0.8906434461193947  0.2487680391157427
  0.1398382668617643  0.8906434461193947  0.7512319608842573
  0.6411573545515077  0.3904253837161487  0.2497033448630762
  0.6411573545515077  0.3904253837161487  0.7502966551369238
  0.6397755031179690  0.8899133695373567  0.2518443927325522
  0.6397755031179690  0.8899133695373567  0.7481556072674478
  0.3587682895006003  0.3893072748737725  0.0000000000000000
  0.3589558328004693  0.8904552336668304  0.0000000000000000
  0.3564454519652406  0.8941158170256958  0.5000000000000000
  0.8595976018067255  0.3914926925118902  0.0000000000000000
  0.8594622601186687  0.8918623383364851  0.0000000000000000
  0.8588455103522744  0.8915122552113363  0.5000000000000000
  0.1407679603501480  0.1084020061969445  0.0000000000000000
  0.1441092938669347  0.1091271611946203  0.5000000000000000
  0.1407913992820682  0.6087698717643608  0.0000000000000000
  0.1326370290411460  0.6176215252743237  0.5000000000000000
  0.6405715717922169  0.1092756894143962  0.0000000000000000
  0.6408802397883467  0.1055601319041100  0.5000000000000000
  0.6408183292715812  0.6105383591556870  0.0000000000000000
  0.1091591077148984  0.3587832762167315  0.0000000000000000
  0.1299530256161451  0.3709556635456692  0.5000000000000000
  0.1083320436674668  0.8589485866018302  0.0000000000000000
  0.1088011854938015  0.8612062760892387  0.5000000000000000
  0.6099649854991404  0.3596629265582607  0.0000000000000000
  0.6093626550608546  0.8596455124116377  0.0000000000000000
  0.6020999339516084  0.8508792602724391  0.5000000000000000
  0.3905232877016339  0.1404831930084333  0.0000000000000000
  0.3972248435699016  0.1525017039434202  0.5000000000000000
  0.3897547746955620  0.6406206480446722  0.0000000000000000
  0.8917552800589934  0.1410283729400130  0.0000000000000000
  0.8938234070646195  0.1376431812924053  0.5000000000000000
  0.8910512054565122  0.6412680507354638  0.0000000000000000
  0.0004844663391195  0.0001365424631832  0.1260059161410773
  0.0014272830421913  0.0000496528260639  0.6244373827072465
  0.0005546224213787  0.5006925185272384  0.1250444904118681
  0.0012855642305793  0.4996060453657103  0.6253858726345302
  0.4996149624086468  0.9994912597142500  0.1250600172713110
  0.4985395879891639  0.0002539683304459  0.6250854273940571
  0.4994382941686435  0.4998179866197133  0.1239847866148390
  0.4984640214183467  0.5014760381896520  0.6253147415483832
  0.0014272830421913  0.0000496528260639  0.3755626172927534
  0.0004844663391195  0.0001365424631832  0.8739940838589227
  0.0012855642305793  0.4996060453657103  0.3746141273654698
  0.0005546224213787  0.5006925185272384  0.8749555095881320
  0.4985395879891639  0.0002539683304459  0.3749145726059428
  0.4996149624086468  0.9994912597142500  0.8749399827286960
  0.4994382941686435  0.4998179866197133  0.8760152133851609
  0.2640016453303031  0.2642230061679867  0.3784829376499188
  0.2481537368260509  0.2479177820740752  0.8743736653871569
  0.2492229327416165  0.7520753036647100  0.3743328201328978
  0.2485473010226616  0.7498336598948735  0.8752894668282485
  0.7508934600750715  0.2501027613590456  0.8755422968074539
  0.7519104169464988  0.7521348462609049  0.8743686102260475
  0.2481537368260509  0.2479177820740752  0.1256263346128430
  0.2640016453303031  0.2642230061679867  0.6215170623500812
  0.2485473010226616  0.7498336598948735  0.1247105331717517
  0.2492229327416165  0.7520753036647100  0.6256671798671023
  0.7508934600750715  0.2501027613590456  0.1244577031925460
  0.7517781402218255  0.2477784327262253  0.6273337874007938
  0.7519104169464988  0.7521348462609049  0.1256313897739524
  0.7371794412635366  0.7355519047886480  0.6223764933130084
  0.7517781402218255  0.2477784327262253  0.3726662125992064
  0.8728310220111040  0.3818555472353981  0.5000000000000000
  0.3849753722867942  0.6357573610490910  0.5000000000000000
  0.4984640214183467  0.5014760381896520  0.3746852584516168
  0.8756140482170001  0.6294570005012562  0.5000000000000000
  0.7371794412635366  0.7355519047886480  0.3776235066869917
  0.6172138817915663  0.3702566317592869  0.5000000000000000
 
  0.00000000E+00  0.00000000E+00  0.00000000E+00
  0.00000000E+00  0.00000000E+00  0.00000000E+00
  0.00000000E+00  0.00000000E+00  0.00000000E+00
  0.00000000E+00  0.00000000E+00  0.00000000E+00
  0.00000000E+00  0.00000000E+00  0.00000000E+00
  0.00000000E+00  0.00000000E+00  0.00000000E+00
  0.00000000E+00  0.00000000E+00  0.00000000E+00
  0.00000000E+00  0.00000000E+00  0.00000000E+00
  0.00000000E+00  0.00000000E+00  0.00000000E+00
  0.00000000E+00  0.00000000E+00  0.00000000E+00
  0.00000000E+00  0.00000000E+00  0.00000000E+00
  0.00000000E+00  0.00000000E+00  0.00000000E+00
  0.00000000E+00  0.00000000E+00  0.00000000E+00
  0.00000000E+00  0.00000000E+00  0.00000000E+00
  0.00000000E+00  0.00000000E+00  0.00000000E+00
  0.00000000E+00  0.00000000E+00  0.00000000E+00
  0.00000000E+00  0.00000000E+00  0.00000000E+00
  0.00000000E+00  0.00000000E+00  0.00000000E+00
  0.00000000E+00  0.00000000E+00  0.00000000E+00
  0.00000000E+00  0.00000000E+00  0.00000000E+00
  0.00000000E+00  0.00000000E+00  0.00000000E+00
  0.00000000E+00  0.00000000E+00  0.00000000E+00
  0.00000000E+00  0.00000000E+00  0.00000000E+00
  0.00000000E+00  0.00000000E+00  0.00000000E+00
  0.00000000E+00  0.00000000E+00  0.00000000E+00
  0.00000000E+00  0.00000000E+00  0.00000000E+00
  0.00000000E+00  0.00000000E+00  0.00000000E+00
  0.00000000E+00  0.00000000E+00  0.00000000E+00
  0.00000000E+00  0.00000000E+00  0.00000000E+00
  0.00000000E+00  0.00000000E+00  0.00000000E+00
  0.00000000E+00  0.00000000E+00  0.00000000E+00
  0.00000000E+00  0.00000000E+00  0.00000000E+00
  0.00000000E+00  0.00000000E+00  0.00000000E+00
  0.00000000E+00  0.00000000E+00  0.00000000E+00
  0.00000000E+00  0.00000000E+00  0.00000000E+00
  0.00000000E+00  0.00000000E+00  0.00000000E+00
  0.00000000E+00  0.00000000E+00  0.00000000E+00
  0.00000000E+00  0.00000000E+00  0.00000000E+00
  0.00000000E+00  0.00000000E+00  0.00000000E+00
  0.00000000E+00  0.00000000E+00  0.00000000E+00
  0.00000000E+00  0.00000000E+00  0.00000000E+00
  0.00000000E+00  0.00000000E+00  0.00000000E+00
  0.00000000E+00  0.00000000E+00  0.00000000E+00
  0.00000000E+00  0.00000000E+00  0.00000000E+00
  0.00000000E+00  0.00000000E+00  0.00000000E+00
  0.00000000E+00  0.00000000E+00  0.00000000E+00
  0.00000000E+00  0.00000000E+00  0.00000000E+00
  0.00000000E+00  0.00000000E+00  0.00000000E+00
  0.00000000E+00  0.00000000E+00  0.00000000E+00
  0.00000000E+00  0.00000000E+00  0.00000000E+00
  0.00000000E+00  0.00000000E+00  0.00000000E+00
  0.00000000E+00  0.00000000E+00  0.00000000E+00
  0.00000000E+00  0.00000000E+00  0.00000000E+00
  0.00000000E+00  0.00000000E+00  0.00000000E+00
  0.00000000E+00  0.00000000E+00  0.00000000E+00
  0.00000000E+00  0.00000000E+00  0.00000000E+00
  0.00000000E+00  0.00000000E+00  0.00000000E+00
  0.00000000E+00  0.00000000E+00  0.00000000E+00
  0.00000000E+00  0.00000000E+00  0.00000000E+00
  0.00000000E+00  0.00000000E+00  0.00000000E+00
  0.00000000E+00  0.00000000E+00  0.00000000E+00
  0.00000000E+00  0.00000000E+00  0.00000000E+00
  0.00000000E+00  0.00000000E+00  0.00000000E+00
  0.00000000E+00  0.00000000E+00  0.00000000E+00
  0.00000000E+00  0.00000000E+00  0.00000000E+00
  0.00000000E+00  0.00000000E+00  0.00000000E+00
  0.00000000E+00  0.00000000E+00  0.00000000E+00
  0.00000000E+00  0.00000000E+00  0.00000000E+00
  0.00000000E+00  0.00000000E+00  0.00000000E+00
  0.00000000E+00  0.00000000E+00  0.00000000E+00
  0.00000000E+00  0.00000000E+00  0.00000000E+00
  0.00000000E+00  0.00000000E+00  0.00000000E+00
  0.00000000E+00  0.00000000E+00  0.00000000E+00
  0.00000000E+00  0.00000000E+00  0.00000000E+00
  0.00000000E+00  0.00000000E+00  0.00000000E+00
  0.00000000E+00  0.00000000E+00  0.00000000E+00
  0.00000000E+00  0.00000000E+00  0.00000000E+00
  0.00000000E+00  0.00000000E+00  0.00000000E+00
  0.00000000E+00  0.00000000E+00  0.00000000E+00
  0.00000000E+00  0.00000000E+00  0.00000000E+00
  0.00000000E+00  0.00000000E+00  0.00000000E+00
  0.00000000E+00  0.00000000E+00  0.00000000E+00
  0.00000000E+00  0.00000000E+00  0.00000000E+00
  0.00000000E+00  0.00000000E+00  0.00000000E+00
  0.00000000E+00  0.00000000E+00  0.00000000E+00
  0.00000000E+00  0.00000000E+00  0.00000000E+00
  0.00000000E+00  0.00000000E+00  0.00000000E+00
  0.00000000E+00  0.00000000E+00  0.00000000E+00
  0.00000000E+00  0.00000000E+00  0.00000000E+00
  0.00000000E+00  0.00000000E+00  0.00000000E+00
  0.00000000E+00  0.00000000E+00  0.00000000E+00
  0.00000000E+00  0.00000000E+00  0.00000000E+00
  0.00000000E+00  0.00000000E+00  0.00000000E+00
  0.00000000E+00  0.00000000E+00  0.00000000E+00
  0.00000000E+00  0.00000000E+00  0.00000000E+00
  0.00000000E+00  0.00000000E+00  0.00000000E+00
  0.00000000E+00  0.00000000E+00  0.00000000E+00
  0.00000000E+00  0.00000000E+00  0.00000000E+00
  0.00000000E+00  0.00000000E+00  0.00000000E+00
  0.00000000E+00  0.00000000E+00  0.00000000E+00
  0.00000000E+00  0.00000000E+00  0.00000000E+00
  0.00000000E+00  0.00000000E+00  0.00000000E+00
  0.00000000E+00  0.00000000E+00  0.00000000E+00
  0.00000000E+00  0.00000000E+00  0.00000000E+00
  0.00000000E+00  0.00000000E+00  0.00000000E+00
  0.00000000E+00  0.00000000E+00  0.00000000E+00
  0.00000000E+00  0.00000000E+00  0.00000000E+00
  0.00000000E+00  0.00000000E+00  0.00000000E+00
  0.00000000E+00  0.00000000E+00  0.00000000E+00
  0.00000000E+00  0.00000000E+00  0.00000000E+00
  0.00000000E+00  0.00000000E+00  0.00000000E+00
  0.00000000E+00  0.00000000E+00  0.00000000E+00
  0.00000000E+00  0.00000000E+00  0.00000000E+00
  0.00000000E+00  0.00000000E+00  0.00000000E+00
  0.00000000E+00  0.00000000E+00  0.00000000E+00
  0.00000000E+00  0.00000000E+00  0.00000000E+00
  0.00000000E+00  0.00000000E+00  0.00000000E+00
  0.00000000E+00  0.00000000E+00  0.00000000E+00
  0.00000000E+00  0.00000000E+00  0.00000000E+00
  0.00000000E+00  0.00000000E+00  0.00000000E+00
  0.00000000E+00  0.00000000E+00  0.00000000E+00
  0.00000000E+00  0.00000000E+00  0.00000000E+00
  0.00000000E+00  0.00000000E+00  0.00000000E+00
  0.00000000E+00  0.00000000E+00  0.00000000E+00
  0.00000000E+00  0.00000000E+00  0.00000000E+00
  0.00000000E+00  0.00000000E+00  0.00000000E+00
  0.00000000E+00  0.00000000E+00  0.00000000E+00
  0.00000000E+00  0.00000000E+00  0.00000000E+00
  0.00000000E+00  0.00000000E+00  0.00000000E+00
  0.00000000E+00  0.00000000E+00  0.00000000E+00
  0.00000000E+00  0.00000000E+00  0.00000000E+00
  0.00000000E+00  0.00000000E+00  0.00000000E+00
  0.00000000E+00  0.00000000E+00  0.00000000E+00
  0.00000000E+00  0.00000000E+00  0.00000000E+00
  0.00000000E+00  0.00000000E+00  0.00000000E+00
  0.00000000E+00  0.00000000E+00  0.00000000E+00
  0.00000000E+00  0.00000000E+00  0.00000000E+00
  0.00000000E+00  0.00000000E+00  0.00000000E+00
  0.00000000E+00  0.00000000E+00  0.00000000E+00
  0.00000000E+00  0.00000000E+00  0.00000000E+00
  0.00000000E+00  0.00000000E+00  0.00000000E+00
  0.00000000E+00  0.00000000E+00  0.00000000E+00
  0.00000000E+00  0.00000000E+00  0.00000000E+00
  0.00000000E+00  0.00000000E+00  0.00000000E+00
  0.00000000E+00  0.00000000E+00  0.00000000E+00
  0.00000000E+00  0.00000000E+00  0.00000000E+00
  0.00000000E+00  0.00000000E+00  0.00000000E+00
  0.00000000E+00  0.00000000E+00  0.00000000E+00
  0.00000000E+00  0.00000000E+00  0.00000000E+00
  0.00000000E+00  0.00000000E+00  0.00000000E+00
  0.00000000E+00  0.00000000E+00  0.00000000E+00
  0.00000000E+00  0.00000000E+00  0.00000000E+00
  0.00000000E+00  0.00000000E+00  0.00000000E+00
  0.00000000E+00  0.00000000E+00  0.00000000E+00
  0.00000000E+00  0.00000000E+00  0.00000000E+00
  0.00000000E+00  0.00000000E+00  0.00000000E+00
  0.00000000E+00  0.00000000E+00  0.00000000E+00
  0.00000000E+00  0.00000000E+00  0.00000000E+00
