SrTiFeO                                 
   1.00000000000000     
    11.1989999999999998    0.0000000000000000    0.0000000000000000
     0.0000000000000000   11.1989999999999998    0.0000000000000000
     0.0000000000000000    0.0000000000000000   15.9830000000000005
   Sr   Ti   Fe   O 
    32    29     3    94
Direct
  0.0051014165159982  0.2502294800418762  0.1234249728556773
  0.0015095931379682  0.2484282976046399  0.6233297569608296
  0.9983252840318042  0.7511154342412042  0.1259832767647502
  0.9980832571603774  0.7478771068794676  0.6213144958944972
  0.4951116847385098  0.2511372277051859  0.1247064628940621
  0.5010174110373270  0.2500346415869457  0.6229856673698312
  0.4994145287449405  0.7503349229360560  0.1244913925709916
  0.4980005247264941  0.7514708053088666  0.6277042579200233
  0.0087504648941956  0.2483344307093464  0.3769898883329434
  0.0014730823786399  0.2501176434329295  0.8744287355987945
  0.9990980192493458  0.7493275905081478  0.3784934646984668
  0.9981497715037151  0.7501284182748174  0.8738141686615865
  0.4939712155520139  0.2501650718725461  0.3783081504572071
  0.4979549800223331  0.2519995193928501  0.8734579392020382
  0.4967368116022345  0.7527588039137149  0.3729231632669200
  0.4990106289672920  0.7506674755367836  0.8765107125666998
  0.2503461880807095  0.0001262762234544  0.1255555678573866
  0.2485919002446000 -0.0001538521269083  0.6238752412856736
  0.2507945365337438  0.5007752996786586  0.1253546355476270
  0.2471275234738112  0.4997200403207132  0.6242633526220190
  0.7500380811590976  0.9940609712428234  0.1239811687098528
  0.7502104302229021  0.9972802730029120  0.6231331841256363
  0.7479779890899397  0.5059225776675536  0.1237396138138861
  0.7548466055546341  0.4962183553545982  0.6270334932070882
  0.2498572770719787  0.9985787436972096  0.3762070496517031
  0.2497203517225114 -0.0002009157245066  0.8746260829171659
  0.2483455030405669  0.5014656047712867  0.3756565636358458
  0.2509508285783055  0.5008350027883048  0.8749928154175036
  0.7491769372723756  0.9873122804989509  0.3779459570942264
  0.7494753619077958  0.9970874489780148  0.8742907873261305
  0.7539831458201771  0.5051565961848078  0.3745213661025274
  0.7484417683090909  0.5025930371119990  0.8745736912964540
  0.9990302328960865  0.0004039479087790  0.0000043291949904
  0.9977920288359523  0.0006695378188614  0.4992280593943147
  0.9993057761026285  0.4995335459032921  0.0000004013005405
  0.9967443549775402  0.4976894036261404  0.4988169643037204
  0.5005663729407506  0.0010499402072195 -0.0000167483827042
  0.5015958515069998  0.9989544811607082  0.4994282880384377
  0.4995336407590258  0.4989124069980446  0.9999346050321704
  0.2504996579476411  0.2505867359057994  0.9995917949275843
  0.2489498250404663  0.2478310596817678  0.5006468688011864
  0.2492243816330779  0.7500280531508567  0.0005301137298652
  0.2519164306525174  0.7498973364693632  0.5007831936257496
  0.7501807099330842  0.2500003742607672  0.9951592052051164
  0.7503661574762491  0.7505153376535720  0.9996058794054441
  0.2503661294182050  0.2502152696867020  0.2502392976512385
  0.2501308800220297  0.2499472510894784  0.7493635122324699
  0.2490444160583092  0.7502503879997827  0.2493469649043235
  0.2489387743422564  0.7499653091300739  0.7493841663477051
  0.7503316053576763  0.2494895176831429  0.2405691719506226
  0.7499748905667828  0.2488549948784780  0.7501232023493277
  0.7489001724738799  0.7486836107889323  0.2515728656696645
  0.7482503940938394  0.7482234811278292  0.7478112763988713
  0.0000253515704687  1.0000320061149806  0.2518850896740449
  0.9989817427586455 -0.0001752139120561  0.7492057477224487
  0.0001334113183587  0.5002052698761191  0.2505857461357229
  0.9999576486129590  0.4988833982035750  0.7501437124444410
  0.5003796685143885  0.0006164713152680  0.2507896642146379
  0.5003309471016352  0.0009245651799435  0.7499382808472701
  0.5007611817726512  0.5012975923578924  0.2529399062223957
  0.5014390583490598  0.5008922882910787  0.7477171710791874
  0.7506026219291712  0.2506445378557405  0.5084536629253080
  0.4901825575407737  0.4923965811169677  0.4992165181347019
  0.7516936383955848  0.7541729767744957  0.5016193565509296
  0.1107031838935749  0.1403089284250008  0.2473324959353642
  0.1088227910194692  0.1415262462083536  0.7519712647038210
  0.1094742446847547  0.6400676336421979  0.2472405678675652
  0.1084617184657689  0.6404051524621041  0.7487659755169171
  0.6142963442261339  0.1426580527024932  0.2612961747341961
  0.6081517186401303  0.1425807149247323  0.7518199628009761
  0.6103849133585468  0.6378772020149023  0.2418417380825107
  0.6073342714191969  0.6403717432684695  0.7589777896077555
  0.3901689039485404  0.3619500613373507  0.2545809877514393
  0.3920194110366831  0.3601809753145232  0.7442167292457423
  0.3891304876931888  0.8612728839841696  0.2470204443384839
  0.3899322385092935  0.8608107412359882  0.7496861840980582
  0.8849594814034060  0.3578657524997657  0.2633617334765404
  0.8913860065367742  0.3575519557328986  0.7497889126782766
  0.8888057803041218  0.8612379963868623  0.2536394069447130
  0.8900336592351262  0.8586774093782623  0.7449655137072151
  0.3617262570147565  0.1120716411675130  0.2490512084615916
  0.3590019931878262  0.1097065534359244  0.7506843864054634
  0.3599577171873499  0.6102745919178654  0.2488195965471906
  0.3595023484213644  0.6091472233978368  0.7475061683778351
  0.8574046217523497  0.1141755854398492  0.2627090856254447
  0.8572554876712623  0.1077162656716381  0.7512151255843044
  0.8607622562605990  0.6090044482033854  0.2478766335430089
  0.8594757020538082  0.6072210925485999  0.7518352070230099
  0.1391715894109320  0.3893264157333113  0.2496038541297909
  0.1417750734329305  0.3913077105236168  0.7507598564476486
  0.1395065667252123  0.8901115154247800  0.2465907287771357
  0.1397441543264338  0.8909184767433770  0.7498674906314268
  0.6423869574677329  0.3848933175239520  0.2610001114145000
  0.6423039286595192  0.3908856820221501  0.7515673397905885
  0.6386838565560042  0.8900939986854509  0.2489664512122840
  0.6401333710373307  0.8917244939883503  0.7494836326656334
  0.3585413004317394  0.3905906846741840  0.0010539044941253
  0.3600783313768984  0.8909115421843231  0.0013335180073974
  0.3583407619587668  0.8922880137006926  0.5015415689774525
  0.8576286312934620  0.3908791630252959  0.9996486289652979
  0.8594948415216992  0.8919223804421608  1.0000643824445359
  0.8677556502842417  0.8925382801717858  0.4995835416634297
  0.1406689621236883  0.1096843253073472  0.0007757112841894
  0.1398363479877019  0.1121404796208775  0.4998968831756060
  0.1397396427254189  0.6087964414508190  0.0015544078753451
  0.1385260306769959  0.6121316586914359  0.5015632748062485
  0.6429320687909462  0.1091140445788055  0.9996443348171101
  0.6378719642582025  0.1176471261890593  0.4881852776017289
  0.6396507015206465  0.6095088954236102  0.9996672254633084
  0.1090769858357348  0.3586344924180637  0.9998770877613591
  0.1135783824127853  0.3615107216226567  0.5002009466183593
  0.1089881185452241  0.8601060822708069  0.0014203655525480
  0.1124204879896552  0.8608689389971566  0.5017769910699857
  0.6094944670317664  0.3574434645285359  0.9996535764832598
  0.6092511799945683  0.8601430284783466  0.0010639366068904
  0.6052819612201960  0.8600409925609176  0.5005899745700694
  0.3912134299917078  0.1412610787086857  0.9999341198602700
  0.3888754063000292  0.1403874760849078  0.5006373470222326
  0.3902879207346598  0.6396537674674561  0.0013607145646908
  0.8915470938952007  0.1426963053627645  0.9994657600576128
  0.8862062821201110  0.1392390562488398  0.4897818735482635
  0.8908968653605602  0.6400442172872596  0.0008302922638980
  0.9925063156299717  0.0036139305800313  0.1263136560845521
  0.9995013528591860  0.0081356141098387  0.6250545188560063
  0.9956845367449640  0.4923834211545040  0.1260697965810474
  0.9977408932298534  0.4952311965969611  0.6247916186145331
  0.5043757207390005  0.0068071286875802  0.1259119946587776
  0.5042265418051417  0.0065864613955655  0.6247602108135618
  0.5026576148202688  0.4919685966109545  0.1259006963354819
  0.5179960562469431  0.5081767610887404  0.6222047757339806
  0.0102877541348813  0.9977964301405016  0.3739210425003694
  0.9988080231581202  0.9981587997882599  0.8750764140462188
  0.0073360408107555  0.5061728390154648  0.3740136679723586
  0.0006528203361804  0.4991102227620972  0.8755278502206312
  0.4937365842072495  0.9959437651591962  0.3741033934690287
  0.5000245492265084  0.9996958193418807  0.8755623475094152
  0.4955074244299856  0.4956103145885445  0.8754220002209426
  0.2491303458507141  0.2484254841857636  0.3746613244902967
  0.2526789954713390  0.2520852052870929  0.8748834693137364
  0.2494740988292597  0.7503985590398905  0.3741690224105666
  0.2499229398913795  0.7491538029598865  0.8752916295705363
  0.7511823775809273  0.2500086909627095  0.8748473715320821
  0.7529622606334255  0.7528629742408451  0.8761067591822276
  0.2523628379237686  0.2520623619040305  0.1250528374548677
  0.2477719744624226  0.2484631768770102  0.6255095959057817
  0.2502429550974560  0.7494654817218435  0.1243536110846745
  0.2495561348054989  0.7504633725014267  0.6257922943860558
  0.7515968959658534  0.2496650609138763  0.1253474215359545
  0.7493338885789479  0.2486184224981213  0.6267845833218434
  0.7528924753905986  0.7523196301951043  0.1237910212544045
  0.7371100015797133  0.7354246596526183  0.6290037223782264
  0.8666363424051529  0.3800581901411526  0.4882744746130812
  0.3962860691842650  0.6441242298742266  0.5015839582303787
  0.5076546300130982  0.5173182853777223  0.3761100867204615
  0.3596858042497869  0.3878139516348743  0.5000693156629151
  0.8787208108732372  0.6260222145643868  0.5001238560717914
  0.7399738857063333  0.7399614927032209  0.3710530704946192
  0.6240175819609665  0.3742912663827874  0.4891728424291820
 
  0.00000000E+00  0.00000000E+00  0.00000000E+00
  0.00000000E+00  0.00000000E+00  0.00000000E+00
  0.00000000E+00  0.00000000E+00  0.00000000E+00
  0.00000000E+00  0.00000000E+00  0.00000000E+00
  0.00000000E+00  0.00000000E+00  0.00000000E+00
  0.00000000E+00  0.00000000E+00  0.00000000E+00
  0.00000000E+00  0.00000000E+00  0.00000000E+00
  0.00000000E+00  0.00000000E+00  0.00000000E+00
  0.00000000E+00  0.00000000E+00  0.00000000E+00
  0.00000000E+00  0.00000000E+00  0.00000000E+00
  0.00000000E+00  0.00000000E+00  0.00000000E+00
  0.00000000E+00  0.00000000E+00  0.00000000E+00
  0.00000000E+00  0.00000000E+00  0.00000000E+00
  0.00000000E+00  0.00000000E+00  0.00000000E+00
  0.00000000E+00  0.00000000E+00  0.00000000E+00
  0.00000000E+00  0.00000000E+00  0.00000000E+00
  0.00000000E+00  0.00000000E+00  0.00000000E+00
  0.00000000E+00  0.00000000E+00  0.00000000E+00
  0.00000000E+00  0.00000000E+00  0.00000000E+00
  0.00000000E+00  0.00000000E+00  0.00000000E+00
  0.00000000E+00  0.00000000E+00  0.00000000E+00
  0.00000000E+00  0.00000000E+00  0.00000000E+00
  0.00000000E+00  0.00000000E+00  0.00000000E+00
  0.00000000E+00  0.00000000E+00  0.00000000E+00
  0.00000000E+00  0.00000000E+00  0.00000000E+00
  0.00000000E+00  0.00000000E+00  0.00000000E+00
  0.00000000E+00  0.00000000E+00  0.00000000E+00
  0.00000000E+00  0.00000000E+00  0.00000000E+00
  0.00000000E+00  0.00000000E+00  0.00000000E+00
  0.00000000E+00  0.00000000E+00  0.00000000E+00
  0.00000000E+00  0.00000000E+00  0.00000000E+00
  0.00000000E+00  0.00000000E+00  0.00000000E+00
  0.00000000E+00  0.00000000E+00  0.00000000E+00
  0.00000000E+00  0.00000000E+00  0.00000000E+00
  0.00000000E+00  0.00000000E+00  0.00000000E+00
  0.00000000E+00  0.00000000E+00  0.00000000E+00
  0.00000000E+00  0.00000000E+00  0.00000000E+00
  0.00000000E+00  0.00000000E+00  0.00000000E+00
  0.00000000E+00  0.00000000E+00  0.00000000E+00
  0.00000000E+00  0.00000000E+00  0.00000000E+00
  0.00000000E+00  0.00000000E+00  0.00000000E+00
  0.00000000E+00  0.00000000E+00  0.00000000E+00
  0.00000000E+00  0.00000000E+00  0.00000000E+00
  0.00000000E+00  0.00000000E+00  0.00000000E+00
  0.00000000E+00  0.00000000E+00  0.00000000E+00
  0.00000000E+00  0.00000000E+00  0.00000000E+00
  0.00000000E+00  0.00000000E+00  0.00000000E+00
  0.00000000E+00  0.00000000E+00  0.00000000E+00
  0.00000000E+00  0.00000000E+00  0.00000000E+00
  0.00000000E+00  0.00000000E+00  0.00000000E+00
  0.00000000E+00  0.00000000E+00  0.00000000E+00
  0.00000000E+00  0.00000000E+00  0.00000000E+00
  0.00000000E+00  0.00000000E+00  0.00000000E+00
  0.00000000E+00  0.00000000E+00  0.00000000E+00
  0.00000000E+00  0.00000000E+00  0.00000000E+00
  0.00000000E+00  0.00000000E+00  0.00000000E+00
  0.00000000E+00  0.00000000E+00  0.00000000E+00
  0.00000000E+00  0.00000000E+00  0.00000000E+00
  0.00000000E+00  0.00000000E+00  0.00000000E+00
  0.00000000E+00  0.00000000E+00  0.00000000E+00
  0.00000000E+00  0.00000000E+00  0.00000000E+00
  0.00000000E+00  0.00000000E+00  0.00000000E+00
  0.00000000E+00  0.00000000E+00  0.00000000E+00
  0.00000000E+00  0.00000000E+00  0.00000000E+00
  0.00000000E+00  0.00000000E+00  0.00000000E+00
  0.00000000E+00  0.00000000E+00  0.00000000E+00
  0.00000000E+00  0.00000000E+00  0.00000000E+00
  0.00000000E+00  0.00000000E+00  0.00000000E+00
  0.00000000E+00  0.00000000E+00  0.00000000E+00
  0.00000000E+00  0.00000000E+00  0.00000000E+00
  0.00000000E+00  0.00000000E+00  0.00000000E+00
  0.00000000E+00  0.00000000E+00  0.00000000E+00
  0.00000000E+00  0.00000000E+00  0.00000000E+00
  0.00000000E+00  0.00000000E+00  0.00000000E+00
  0.00000000E+00  0.00000000E+00  0.00000000E+00
  0.00000000E+00  0.00000000E+00  0.00000000E+00
  0.00000000E+00  0.00000000E+00  0.00000000E+00
  0.00000000E+00  0.00000000E+00  0.00000000E+00
  0.00000000E+00  0.00000000E+00  0.00000000E+00
  0.00000000E+00  0.00000000E+00  0.00000000E+00
  0.00000000E+00  0.00000000E+00  0.00000000E+00
  0.00000000E+00  0.00000000E+00  0.00000000E+00
  0.00000000E+00  0.00000000E+00  0.00000000E+00
  0.00000000E+00  0.00000000E+00  0.00000000E+00
  0.00000000E+00  0.00000000E+00  0.00000000E+00
  0.00000000E+00  0.00000000E+00  0.00000000E+00
  0.00000000E+00  0.00000000E+00  0.00000000E+00
  0.00000000E+00  0.00000000E+00  0.00000000E+00
  0.00000000E+00  0.00000000E+00  0.00000000E+00
  0.00000000E+00  0.00000000E+00  0.00000000E+00
  0.00000000E+00  0.00000000E+00  0.00000000E+00
  0.00000000E+00  0.00000000E+00  0.00000000E+00
  0.00000000E+00  0.00000000E+00  0.00000000E+00
  0.00000000E+00  0.00000000E+00  0.00000000E+00
  0.00000000E+00  0.00000000E+00  0.00000000E+00
  0.00000000E+00  0.00000000E+00  0.00000000E+00
  0.00000000E+00  0.00000000E+00  0.00000000E+00
  0.00000000E+00  0.00000000E+00  0.00000000E+00
  0.00000000E+00  0.00000000E+00  0.00000000E+00
  0.00000000E+00  0.00000000E+00  0.00000000E+00
  0.00000000E+00  0.00000000E+00  0.00000000E+00
  0.00000000E+00  0.00000000E+00  0.00000000E+00
  0.00000000E+00  0.00000000E+00  0.00000000E+00
  0.00000000E+00  0.00000000E+00  0.00000000E+00
  0.00000000E+00  0.00000000E+00  0.00000000E+00
  0.00000000E+00  0.00000000E+00  0.00000000E+00
  0.00000000E+00  0.00000000E+00  0.00000000E+00
  0.00000000E+00  0.00000000E+00  0.00000000E+00
  0.00000000E+00  0.00000000E+00  0.00000000E+00
  0.00000000E+00  0.00000000E+00  0.00000000E+00
  0.00000000E+00  0.00000000E+00  0.00000000E+00
  0.00000000E+00  0.00000000E+00  0.00000000E+00
  0.00000000E+00  0.00000000E+00  0.00000000E+00
  0.00000000E+00  0.00000000E+00  0.00000000E+00
  0.00000000E+00  0.00000000E+00  0.00000000E+00
  0.00000000E+00  0.00000000E+00  0.00000000E+00
  0.00000000E+00  0.00000000E+00  0.00000000E+00
  0.00000000E+00  0.00000000E+00  0.00000000E+00
  0.00000000E+00  0.00000000E+00  0.00000000E+00
  0.00000000E+00  0.00000000E+00  0.00000000E+00
  0.00000000E+00  0.00000000E+00  0.00000000E+00
  0.00000000E+00  0.00000000E+00  0.00000000E+00
  0.00000000E+00  0.00000000E+00  0.00000000E+00
  0.00000000E+00  0.00000000E+00  0.00000000E+00
  0.00000000E+00  0.00000000E+00  0.00000000E+00
  0.00000000E+00  0.00000000E+00  0.00000000E+00
  0.00000000E+00  0.00000000E+00  0.00000000E+00
  0.00000000E+00  0.00000000E+00  0.00000000E+00
  0.00000000E+00  0.00000000E+00  0.00000000E+00
  0.00000000E+00  0.00000000E+00  0.00000000E+00
  0.00000000E+00  0.00000000E+00  0.00000000E+00
  0.00000000E+00  0.00000000E+00  0.00000000E+00
  0.00000000E+00  0.00000000E+00  0.00000000E+00
  0.00000000E+00  0.00000000E+00  0.00000000E+00
  0.00000000E+00  0.00000000E+00  0.00000000E+00
  0.00000000E+00  0.00000000E+00  0.00000000E+00
  0.00000000E+00  0.00000000E+00  0.00000000E+00
  0.00000000E+00  0.00000000E+00  0.00000000E+00
  0.00000000E+00  0.00000000E+00  0.00000000E+00
  0.00000000E+00  0.00000000E+00  0.00000000E+00
  0.00000000E+00  0.00000000E+00  0.00000000E+00
  0.00000000E+00  0.00000000E+00  0.00000000E+00
  0.00000000E+00  0.00000000E+00  0.00000000E+00
  0.00000000E+00  0.00000000E+00  0.00000000E+00
  0.00000000E+00  0.00000000E+00  0.00000000E+00
  0.00000000E+00  0.00000000E+00  0.00000000E+00
  0.00000000E+00  0.00000000E+00  0.00000000E+00
  0.00000000E+00  0.00000000E+00  0.00000000E+00
  0.00000000E+00  0.00000000E+00  0.00000000E+00
  0.00000000E+00  0.00000000E+00  0.00000000E+00
  0.00000000E+00  0.00000000E+00  0.00000000E+00
  0.00000000E+00  0.00000000E+00  0.00000000E+00
  0.00000000E+00  0.00000000E+00  0.00000000E+00
  0.00000000E+00  0.00000000E+00  0.00000000E+00
  0.00000000E+00  0.00000000E+00  0.00000000E+00
  0.00000000E+00  0.00000000E+00  0.00000000E+00
  0.00000000E+00  0.00000000E+00  0.00000000E+00
  0.00000000E+00  0.00000000E+00  0.00000000E+00
