SrTiFeO                                 
   1.00000000000000     
    11.1989999999999998    0.0000000000000000    0.0000000000000000
     0.0000000000000000   11.1989999999999998    0.0000000000000000
     0.0000000000000000    0.0000000000000000   15.9830000000000005
   Sr   Ti   Fe   O 
    32    29     3    94
Direct
  0.0043105140562695  0.2504715606504671  0.1232195803714075
  0.0023871852442857  0.2485302512482883  0.6243583772946042
  0.0003203800305377  0.7499636292920182  0.1254226446329044
  0.9976243454531140  0.7503062293798279  0.6228371423922809
  0.4964277990997772  0.2503525865473303  0.1232852903184195
  0.4934476811684285  0.2469719355701147  0.6279757693035342
  0.5010250869448257  0.7483645983439065  0.1254340831740328
  0.5021676446196895  0.7527068456483709  0.6231027915153668
  0.0102222507259965  0.2493547444863449  0.3751575836492130
  0.0000162693984941  0.2503175955410692  0.8740406838654389
  0.9991616543457650  0.7504286849243637  0.3770501992942377
  0.9999207266787912  0.7500721281868578  0.8741409277922725
  0.4864521400225548  0.2466981963091047  0.3735887864796775
  0.4993945488995836  0.2517597092405678  0.8746556879215384
  0.5009464235130745  0.7518515209829337  0.3768519828104639
  0.4998754011102272  0.7491160096567615  0.8746666772919997
  0.2508508583569257 -0.0000815513338228  0.1249263111858139
  0.2487295365153179  0.9993016518581840  0.6233207013747148
  0.2516238515120139  0.5008568348569379  0.1262188744228027
  0.2484143239416401  0.4988200605214577  0.6234811948674914
  0.7506059902876687  0.9954523784733650  0.1233689366739725
  0.7492263362594671  0.9938844094888347  0.6233535765814041
  0.7491542815574367  0.5044282743247924  0.1238547022031681
  0.7495513573600708  0.5050393354099414  0.6254692692901668
  0.2499030278409440  0.9980908854319286  0.3763392758266727
  0.2500316514056443  0.9994956381820204  0.8748548920643677
  0.2492288854173576  0.4997746272062724  0.3776211572239564
  0.2510901151226376  0.5004455851636167  0.8743191332549931
  0.7484153073353821  0.9902815397580508  0.3781812884766302
  0.7502379509574022  0.0000914731261781  0.8729275005273076
  0.7509417531985789  0.5157946545384076  0.3745489710233788
  0.7503516892551004  0.5024018630282269  0.8754731035961775
  0.9994145152386918  0.0007279091727568  0.9999761744019886
  0.9982569124336286  0.9994870455902407  0.4987175186100476
  0.9999370508755502  0.4997013095640291  0.9998539336734301
  0.9946640462889592  0.4998565737484901  0.4988380780710721
  0.5003769193683544  0.0001551633401223  0.9997102042846585
  0.5014769346160667  0.0019878404417550  0.4988731553970577
  0.5001580666693626  0.4998818883328078  0.9998341800320437
  0.2499682902748206  0.2498443261420173  0.9994738337942980
  0.2505135202889145  0.2500392839905572  0.5006788026888725
  0.2505103527830396  0.7493965357715207  0.0004804812588268
  0.2475446763323336  0.7513735497523767  0.5005529106571018
  0.7507871085627981  0.2495537045356821  0.9944004528648086
  0.7500079854735332  0.7502641733603744  0.9994608713199117
  0.2496594491982470  0.2500337029396106  0.2490552885836461
  0.2488290489936278  0.2500748828495625  0.7502601616838185
  0.2500771879634124  0.7500251136352035  0.2499749035938367
  0.2499211052027744  0.7496399596636650  0.7484640185013882
  0.7510594104282260  0.2492731576462378  0.2403098458919601
  0.7477680679874463  0.2519784659085290  0.7471384966438499
  0.7502720190759722  0.7510142079107808  0.2505384676041700
  0.7493377658028308  0.7501329634197855  0.7487188055305861
  0.0005880863821232  0.9994656203696322  0.2510844655100306
  0.9990497659903890  0.0004765103573654  0.7491793306523682
  0.0003175672473025  0.5001291540746936  0.2505939211247347
  0.9990522089273307  0.4995410676829380  0.7494788696584000
  0.5003035813076904  0.9992858098781547  0.2503640901146700
  0.5002283287058077  0.0006297906856265  0.7500284747614472
  0.5010381447259408  0.4985607930081218  0.2536706179828737
  0.5006975051453193  0.4991810528886210  0.7480849352859112
  0.7595150435904890  0.2438845790153195  0.5067375107097759
  0.4921610724317644  0.5127741456519243  0.5008752322487199
  0.7497501726755645  0.7483730556638043  0.5007117626795258
  0.1103413429315855  0.1399745791933345  0.2487616337523811
  0.1080072792289219  0.1417916704024630  0.7505974285691481
  0.1109327456855923  0.6391817517401224  0.2476049338730448
  0.1087143108418165  0.6402966995881475  0.7485437595355580
  0.6142625727443144  0.1420147786996695  0.2603337262072205
  0.6075481575018027  0.1414998893666604  0.7540331894225267
  0.6112503588401577  0.6381047162675474  0.2514046131141420
  0.6082275926686369  0.6411788501270574  0.7494610787035066
  0.3903949353630066  0.3589038979744229  0.2482426958160091
  0.3896211482916122  0.3587342554555386  0.7515052561018017
  0.3911007569144818  0.8591912253065824  0.2470155022521161
  0.3910706293882111  0.8598106548714091  0.7482333023912395
  0.8876067343538668  0.3569455053016843  0.2598093133530580
  0.8907803246620785  0.3585873547300206  0.7503947100015672
  0.8898850678457424  0.8611366538411349  0.2484971827599884
  0.8903984934385614  0.8605130978631679  0.7505867717559216
  0.3614667256258734  0.1110814282236745  0.2507663000167673
  0.3586557896121333  0.1093927917657372  0.7484224729093939
  0.3621139010897245  0.6081659563787676  0.2543053218024571
  0.3594595157179658  0.6086753689179024  0.7459735991120566
  0.8583798763297865  0.1136844554108012  0.2635596996319664
  0.8572261552487054  0.1103514802289250  0.7451816383804306
  0.8613108424490734  0.6104021792011546  0.2482441986840517
  0.8593380506127376  0.6094935131997902  0.7509485183679572
  0.1401312314953153  0.3893672084841534  0.2494540688245527
  0.1404844919471890  0.3912589129565082  0.7503569712487368
  0.1410217238525332  0.8897156126333740  0.2447216420672037
  0.1401171865751131  0.8911662235024428  0.7511601923085767
  0.6450736518049008  0.3847483333348302  0.2591792433206981
  0.6398517582215697  0.3925579914111380  0.7595687243904369
  0.6400838944696096  0.8904537211645120  0.2485134155454522
  0.6404908472353772  0.8917919493411544  0.7506043423686065
  0.3595139158150448  0.3900404520759024  0.0014767798229693
  0.3597174780266401  0.8906137522174441  0.0018332375934421
  0.3618016742207993  0.8896527737593554  0.5020015202149309
  0.8583302496440872  0.3907241789500558  0.0000489836719863
  0.8592640583714782  0.8909148192143669  0.9996296554450627
  0.8635302160692268  0.8891103964557443  0.5003999764872035
  0.1405829410618305  0.1090528672796544  0.0007973453731997
  0.1407038931583671  0.1108845497987379  0.4995323041181489
  0.1400911748337710  0.6089118101077282  0.0014357654516437
  0.1399007674899848  0.6099833454689703  0.5012818521469959
  0.6418084574713153  0.1090456771504965  0.9993301348139700
  0.6300824111790925  0.1295661740056414  0.4848579594202399
  0.6405562727874130  0.6092965018062003  0.0002219363439733
  0.1092518970504186  0.3589016994285948  0.9995549866146098
  0.1121095167042820  0.3614216033114797  0.4998296202590031
  0.1095430885072969  0.8600295942425108  0.0013491354217961
  0.1118680683706933  0.8599359837779292  0.5018635220576970
  0.6099543497986381  0.3583606714041153  0.9993059970805324
  0.6090605541431232  0.8596948935994624  0.0010474570288837
  0.6134328765296978  0.8678233585584890  0.4996003325723968
  0.3907420829914722  0.1407469729260154  0.9997603298674416
  0.3850868828198022  0.1362069929464833  0.5005603489968377
  0.3909056756057381  0.6399893091125258  0.0026672291889338
  0.8913380300378071  0.1420239733462439  0.0004153578632090
  0.8945928608778104  0.1356424598870162  0.4867609256995698
  0.8907247827722504  0.6404194107813028  0.0008539315322617
  0.9934538789668838  0.0050014967063113  0.1258062230170043
  0.0001329980113118  0.0031109006191347  0.6246430233032041
  0.9967137383163917  0.4939772833465250  0.1258354176892644
  0.9957988957347392  0.4948981044099885  0.6243063334302735
  0.5033606832529567  0.0065093517822854  0.1258568175823860
  0.5070095958158637  0.0056749293281453  0.6243530892180730
  0.5054731772750480  0.4963036757984204  0.1272357136022721
  0.5093265854668061  0.4866309966866263  0.6246957533511106
  0.0104796016140048  0.9904618717832830  0.3730519746049887
  0.9980362829647684  0.0022967374233493  0.8750674272041795
  0.0059220747539887  0.5041337332304825  0.3739639414133862
  0.0000802046814990  0.5005554863341207  0.8753454658088238
  0.4940051262180912  0.9937691528778710  0.3737071184993604
  0.4975842375173188  0.9984937220228454  0.8754722675751986
  0.4951946533216308  0.5033659765413738  0.8763899994332681
  0.2502150346570380  0.2510986972547186  0.3742577667209488
  0.2496658931790410  0.2489862961879622  0.8753091629187932
  0.2480871543227981  0.7531076099386810  0.3743224414499669
  0.2516450095118031  0.7480667639462131  0.8751967879956762
  0.7534736935430116  0.2472942796357032  0.8752408013536263
  0.7493066154128792  0.7499139451296500  0.8755141310500921
  0.2497988982509286  0.2489136102417326  0.1245532962969926
  0.2477046727470436  0.2510432629316010  0.6257409277401954
  0.2522678150199941  0.7463339577206828  0.1250841984504336
  0.2486425698156723  0.7516281772100943  0.6254885663523414
  0.7515738706636385  0.2476948976547619  0.1250619117879779
  0.7306361475607637  0.2648670764316463  0.6280996690008537
  0.7492672058427916  0.7498113540140585  0.1244644292599860
  0.7499101958355404  0.7516080294228342  0.6269808606497037
  0.8526721542160332  0.3912965018999718  0.4892221959630563
  0.3873046728671689  0.6432657590028049  0.5004802085763840
  0.5067806771835248  0.4884320819782199  0.3775203080197939
  0.3716052612051685  0.3816338794839946  0.5007471414866534
  0.8916810346807110  0.6387674638501261  0.4995802231574550
  0.7503489170588699  0.7512017868869176  0.3729619074726649
  0.6406996245649252  0.6035969987555135  0.5008735343717948
 
  0.00000000E+00  0.00000000E+00  0.00000000E+00
  0.00000000E+00  0.00000000E+00  0.00000000E+00
  0.00000000E+00  0.00000000E+00  0.00000000E+00
  0.00000000E+00  0.00000000E+00  0.00000000E+00
  0.00000000E+00  0.00000000E+00  0.00000000E+00
  0.00000000E+00  0.00000000E+00  0.00000000E+00
  0.00000000E+00  0.00000000E+00  0.00000000E+00
  0.00000000E+00  0.00000000E+00  0.00000000E+00
  0.00000000E+00  0.00000000E+00  0.00000000E+00
  0.00000000E+00  0.00000000E+00  0.00000000E+00
  0.00000000E+00  0.00000000E+00  0.00000000E+00
  0.00000000E+00  0.00000000E+00  0.00000000E+00
  0.00000000E+00  0.00000000E+00  0.00000000E+00
  0.00000000E+00  0.00000000E+00  0.00000000E+00
  0.00000000E+00  0.00000000E+00  0.00000000E+00
  0.00000000E+00  0.00000000E+00  0.00000000E+00
  0.00000000E+00  0.00000000E+00  0.00000000E+00
  0.00000000E+00  0.00000000E+00  0.00000000E+00
  0.00000000E+00  0.00000000E+00  0.00000000E+00
  0.00000000E+00  0.00000000E+00  0.00000000E+00
  0.00000000E+00  0.00000000E+00  0.00000000E+00
  0.00000000E+00  0.00000000E+00  0.00000000E+00
  0.00000000E+00  0.00000000E+00  0.00000000E+00
  0.00000000E+00  0.00000000E+00  0.00000000E+00
  0.00000000E+00  0.00000000E+00  0.00000000E+00
  0.00000000E+00  0.00000000E+00  0.00000000E+00
  0.00000000E+00  0.00000000E+00  0.00000000E+00
  0.00000000E+00  0.00000000E+00  0.00000000E+00
  0.00000000E+00  0.00000000E+00  0.00000000E+00
  0.00000000E+00  0.00000000E+00  0.00000000E+00
  0.00000000E+00  0.00000000E+00  0.00000000E+00
  0.00000000E+00  0.00000000E+00  0.00000000E+00
  0.00000000E+00  0.00000000E+00  0.00000000E+00
  0.00000000E+00  0.00000000E+00  0.00000000E+00
  0.00000000E+00  0.00000000E+00  0.00000000E+00
  0.00000000E+00  0.00000000E+00  0.00000000E+00
  0.00000000E+00  0.00000000E+00  0.00000000E+00
  0.00000000E+00  0.00000000E+00  0.00000000E+00
  0.00000000E+00  0.00000000E+00  0.00000000E+00
  0.00000000E+00  0.00000000E+00  0.00000000E+00
  0.00000000E+00  0.00000000E+00  0.00000000E+00
  0.00000000E+00  0.00000000E+00  0.00000000E+00
  0.00000000E+00  0.00000000E+00  0.00000000E+00
  0.00000000E+00  0.00000000E+00  0.00000000E+00
  0.00000000E+00  0.00000000E+00  0.00000000E+00
  0.00000000E+00  0.00000000E+00  0.00000000E+00
  0.00000000E+00  0.00000000E+00  0.00000000E+00
  0.00000000E+00  0.00000000E+00  0.00000000E+00
  0.00000000E+00  0.00000000E+00  0.00000000E+00
  0.00000000E+00  0.00000000E+00  0.00000000E+00
  0.00000000E+00  0.00000000E+00  0.00000000E+00
  0.00000000E+00  0.00000000E+00  0.00000000E+00
  0.00000000E+00  0.00000000E+00  0.00000000E+00
  0.00000000E+00  0.00000000E+00  0.00000000E+00
  0.00000000E+00  0.00000000E+00  0.00000000E+00
  0.00000000E+00  0.00000000E+00  0.00000000E+00
  0.00000000E+00  0.00000000E+00  0.00000000E+00
  0.00000000E+00  0.00000000E+00  0.00000000E+00
  0.00000000E+00  0.00000000E+00  0.00000000E+00
  0.00000000E+00  0.00000000E+00  0.00000000E+00
  0.00000000E+00  0.00000000E+00  0.00000000E+00
  0.00000000E+00  0.00000000E+00  0.00000000E+00
  0.00000000E+00  0.00000000E+00  0.00000000E+00
  0.00000000E+00  0.00000000E+00  0.00000000E+00
  0.00000000E+00  0.00000000E+00  0.00000000E+00
  0.00000000E+00  0.00000000E+00  0.00000000E+00
  0.00000000E+00  0.00000000E+00  0.00000000E+00
  0.00000000E+00  0.00000000E+00  0.00000000E+00
  0.00000000E+00  0.00000000E+00  0.00000000E+00
  0.00000000E+00  0.00000000E+00  0.00000000E+00
  0.00000000E+00  0.00000000E+00  0.00000000E+00
  0.00000000E+00  0.00000000E+00  0.00000000E+00
  0.00000000E+00  0.00000000E+00  0.00000000E+00
  0.00000000E+00  0.00000000E+00  0.00000000E+00
  0.00000000E+00  0.00000000E+00  0.00000000E+00
  0.00000000E+00  0.00000000E+00  0.00000000E+00
  0.00000000E+00  0.00000000E+00  0.00000000E+00
  0.00000000E+00  0.00000000E+00  0.00000000E+00
  0.00000000E+00  0.00000000E+00  0.00000000E+00
  0.00000000E+00  0.00000000E+00  0.00000000E+00
  0.00000000E+00  0.00000000E+00  0.00000000E+00
  0.00000000E+00  0.00000000E+00  0.00000000E+00
  0.00000000E+00  0.00000000E+00  0.00000000E+00
  0.00000000E+00  0.00000000E+00  0.00000000E+00
  0.00000000E+00  0.00000000E+00  0.00000000E+00
  0.00000000E+00  0.00000000E+00  0.00000000E+00
  0.00000000E+00  0.00000000E+00  0.00000000E+00
  0.00000000E+00  0.00000000E+00  0.00000000E+00
  0.00000000E+00  0.00000000E+00  0.00000000E+00
  0.00000000E+00  0.00000000E+00  0.00000000E+00
  0.00000000E+00  0.00000000E+00  0.00000000E+00
  0.00000000E+00  0.00000000E+00  0.00000000E+00
  0.00000000E+00  0.00000000E+00  0.00000000E+00
  0.00000000E+00  0.00000000E+00  0.00000000E+00
  0.00000000E+00  0.00000000E+00  0.00000000E+00
  0.00000000E+00  0.00000000E+00  0.00000000E+00
  0.00000000E+00  0.00000000E+00  0.00000000E+00
  0.00000000E+00  0.00000000E+00  0.00000000E+00
  0.00000000E+00  0.00000000E+00  0.00000000E+00
  0.00000000E+00  0.00000000E+00  0.00000000E+00
  0.00000000E+00  0.00000000E+00  0.00000000E+00
  0.00000000E+00  0.00000000E+00  0.00000000E+00
  0.00000000E+00  0.00000000E+00  0.00000000E+00
  0.00000000E+00  0.00000000E+00  0.00000000E+00
  0.00000000E+00  0.00000000E+00  0.00000000E+00
  0.00000000E+00  0.00000000E+00  0.00000000E+00
  0.00000000E+00  0.00000000E+00  0.00000000E+00
  0.00000000E+00  0.00000000E+00  0.00000000E+00
  0.00000000E+00  0.00000000E+00  0.00000000E+00
  0.00000000E+00  0.00000000E+00  0.00000000E+00
  0.00000000E+00  0.00000000E+00  0.00000000E+00
  0.00000000E+00  0.00000000E+00  0.00000000E+00
  0.00000000E+00  0.00000000E+00  0.00000000E+00
  0.00000000E+00  0.00000000E+00  0.00000000E+00
  0.00000000E+00  0.00000000E+00  0.00000000E+00
  0.00000000E+00  0.00000000E+00  0.00000000E+00
  0.00000000E+00  0.00000000E+00  0.00000000E+00
  0.00000000E+00  0.00000000E+00  0.00000000E+00
  0.00000000E+00  0.00000000E+00  0.00000000E+00
  0.00000000E+00  0.00000000E+00  0.00000000E+00
  0.00000000E+00  0.00000000E+00  0.00000000E+00
  0.00000000E+00  0.00000000E+00  0.00000000E+00
  0.00000000E+00  0.00000000E+00  0.00000000E+00
  0.00000000E+00  0.00000000E+00  0.00000000E+00
  0.00000000E+00  0.00000000E+00  0.00000000E+00
  0.00000000E+00  0.00000000E+00  0.00000000E+00
  0.00000000E+00  0.00000000E+00  0.00000000E+00
  0.00000000E+00  0.00000000E+00  0.00000000E+00
  0.00000000E+00  0.00000000E+00  0.00000000E+00
  0.00000000E+00  0.00000000E+00  0.00000000E+00
  0.00000000E+00  0.00000000E+00  0.00000000E+00
  0.00000000E+00  0.00000000E+00  0.00000000E+00
  0.00000000E+00  0.00000000E+00  0.00000000E+00
  0.00000000E+00  0.00000000E+00  0.00000000E+00
  0.00000000E+00  0.00000000E+00  0.00000000E+00
  0.00000000E+00  0.00000000E+00  0.00000000E+00
  0.00000000E+00  0.00000000E+00  0.00000000E+00
  0.00000000E+00  0.00000000E+00  0.00000000E+00
  0.00000000E+00  0.00000000E+00  0.00000000E+00
  0.00000000E+00  0.00000000E+00  0.00000000E+00
  0.00000000E+00  0.00000000E+00  0.00000000E+00
  0.00000000E+00  0.00000000E+00  0.00000000E+00
  0.00000000E+00  0.00000000E+00  0.00000000E+00
  0.00000000E+00  0.00000000E+00  0.00000000E+00
  0.00000000E+00  0.00000000E+00  0.00000000E+00
  0.00000000E+00  0.00000000E+00  0.00000000E+00
  0.00000000E+00  0.00000000E+00  0.00000000E+00
  0.00000000E+00  0.00000000E+00  0.00000000E+00
  0.00000000E+00  0.00000000E+00  0.00000000E+00
  0.00000000E+00  0.00000000E+00  0.00000000E+00
  0.00000000E+00  0.00000000E+00  0.00000000E+00
  0.00000000E+00  0.00000000E+00  0.00000000E+00
  0.00000000E+00  0.00000000E+00  0.00000000E+00
  0.00000000E+00  0.00000000E+00  0.00000000E+00
  0.00000000E+00  0.00000000E+00  0.00000000E+00
  0.00000000E+00  0.00000000E+00  0.00000000E+00
  0.00000000E+00  0.00000000E+00  0.00000000E+00
  0.00000000E+00  0.00000000E+00  0.00000000E+00
