Sr   Ti   Fe   O                        
   1.00000000000000     
    11.1989999999999998    0.0000000000000000    0.0000000000000000
     0.0000000000000000   11.1989999999999998    0.0000000000000000
     0.0000000000000000    0.0000000000000000   15.9830000000000005
   Sr   Ti   Fe   O 
    32    29     3    94
Direct
  0.0040039369309402  0.2500269442408596  0.1233903290467640
  0.0012187612353352  0.2497039956883687  0.6227099598016570
  0.9987627447105564  0.7512777263300383  0.1257713067951698
  1.0012157559896411  0.7483603172809681  0.6228748704206316
  0.4957596883939741  0.2507498774691551  0.1228437892970897
  0.4955683267861760  0.2490149421741348  0.6276084645967105
  0.4998274298011563  0.7480159721353478  0.1249466016537899
  0.4994161143727485  0.7541015017065590  0.6269289964486963
  0.0103087057880029  0.2496680875182509  0.3769135573541987
 -0.0003362899443015  0.2500677153901327  0.8737466317564918
  1.0040571698330378  0.7496280811721925  0.3763383370086654
  0.9982767828715586  0.7507542058829482  0.8736310672098280
  0.4878361089609272  0.2485012540524180  0.3736983604472339
  0.4989191997533038  0.2519722780338946  0.8749012092236172
  0.4980769036318821  0.7527216448235019  0.3728308750136314
  0.4984509068876148  0.7490738756845553  0.8754558561208151
  0.2502523665767905 -0.0003737180592659  0.1250499818634913
  0.2491917915037274  0.9992644504183283  0.6239878837399858
  0.2505989512949440  0.5002623206325738  0.1247680680519677
  0.2501660695497723  0.4996780047140471  0.6261110049564959
  0.7496148821082688  0.9950690454232914  0.1236692662183381
  0.7497150492153236  1.0017034736438943  0.6233478646259973
  0.7485326124255444  0.5053211963473929  0.1234542018477533
  0.7526512671152329  0.4981162077793509  0.6274961908718043
  0.2509476344828572  0.9978775159523949  0.3759867709769994
  0.2493617845757781  0.9993911472430437  0.8747679728993515
  0.2495333882643309  0.5009877086015817  0.3748901134110825
  0.2501198061934969  0.4998413268288527  0.8758848756682965
  0.7486880912193176  0.9914881176359668  0.3772710353900689
  0.7493032316907986  0.9992373453261073  0.8729314057535225
  0.7606613379483643  0.5087243691619353  0.3735488421261546
  0.7485052824608779  0.5022511721018139  0.8748095063000606
  0.9985538639494930  0.0004177865269995  0.9998865204352531
  1.0016034028122782  0.0014594936435076  0.4990258058611994
  0.9991391768460204  0.4996894154045915  0.9998405634349073
  0.9990881204275743  0.4992463737559399  0.4990029256046601
  0.5002932039159390  0.0002546971102421  0.9997150239595017
  0.5019125337704263  0.0008718257356667  0.4988290703789605
  0.4999005217085907  0.4995722581991722  1.0002828583955503
  0.2492683365995590  0.2493744517434399  0.9995030765354951
  0.2519346648997512  0.2493172437368446  0.5008375497362448
  0.2489899896883856  0.7504674141800322  0.0003561834689309
  0.2519995938038516  0.7504544496550184  0.5006758462270849
  0.7502614967049925  0.2499340766862493  0.9945243515973538
  0.7498444500183147  0.7507215975574668  0.9991779186243007
  0.2498704439615344  0.2496187334962874  0.2489948810631981
  0.2488575767819524  0.2498301919697485  0.7504148673679231
  0.2500888102390327  0.7500207316871590  0.2480538478265446
  0.2491115469020413  0.7496805381741986  0.7500281584639853
  0.7503456482938476  0.2498378198172872  0.2413036923844976
  0.7479325413617333  0.2510976885146984  0.7475018323331785
  0.7495229637983487  0.7492152898342490  0.2511842092776296
  0.7487002882256237  0.7489941604760754  0.7473886543274467
  0.0004794669484705  0.9998916278825616  0.2519613648094753
  0.9987698329593144  0.0004465413749837  0.7485238985272616
  0.0012837365255505  0.5004241986150538  0.2500285041315133
  0.9992781145296659  0.4994302770510022  0.7500106424112792
  0.5006051130834857  0.9996992866397283  0.2503071728371496
  0.5002795663546106  0.0009229798836289  0.7500529806178075
  0.4992800844282193  0.4996548630915679  0.2529651410404343
  0.4988942676313388  0.5005366914385331  0.7495595990678945
  0.7576894230570032  0.2491831375738617  0.5039716831473968
  0.4875898703660808  0.5035652724458662  0.5004264659876410
  0.7596579899084104  0.7585790458285373  0.5007173287050616
  0.1101378387454023  0.1393748067520659  0.2489275752118323
  0.1075110085429331  0.1412409801123584  0.7509653161712712
  0.1107825925503588  0.6398694477993594  0.2463456432395739
  0.1081991987830988  0.6405022834045200  0.7494736430590456
  0.6151811725923085  0.1407089042665758  0.2612678442850149
  0.6076872651649009  0.1411501893777933  0.7542762450834721
  0.6115869974467346  0.6371913933597499  0.2481626735577148
  0.6083142851745138  0.6411166103475049  0.7541521111511701
  0.3887317780566912  0.3588945670703512  0.2461587271003466
  0.3885157575005181  0.3582909600367424  0.7523198679525324
  0.3898929947056681  0.8608212642458025  0.2460638562149670
  0.3900225756145669  0.8610274879145566  0.7489202568764378
  0.8855558180961670  0.3592592149065043  0.2617532939612053
  0.8900315275488000  0.3594746626920973  0.7492280383533281
  0.8871533884103099  0.8616507961993196  0.2538932909516954
  0.8884609991229733  0.8595114501238865  0.7444375515028062
  0.3622523972898979  0.1114789693399394  0.2503692370401087
  0.3589633362686920  0.1093292356208701  0.7487215042784406
  0.3598501969246782  0.6112029553325059  0.2445208137499846
  0.3570782009582532  0.6107277129706052  0.7544510212230769
  0.8586412124537411  0.1155964898137848  0.2646990815534758
  0.8572254241475811  0.1094706706655383  0.7473546249760454
  0.8626088338113027  0.6122517861627523  0.2468811941821079
  0.8602093815896650  0.6104835577766533  0.7516387619216344
  0.1390616069751177  0.3887581119947526  0.2494319975846402
  0.1400381035519694  0.3908748231859838  0.7509880269088447
  0.1393331480292666  0.8897906822606183  0.2457795151190452
  0.1387007713799281  0.8908704931034246  0.7502881165129561
  0.6416164410627444  0.3830872433148235  0.2640404171576839
  0.6385966823611862  0.3917452676777717  0.7558816801753752
  0.6391764558879330  0.8887835879805456  0.2503042252236801
  0.6404341228834354  0.8910336434542424  0.7479957975928830
  0.3588729136174376  0.3891329781763377  0.0016561685303186
  0.3597209553199217  0.8912588725230854  0.0016635577427598
  0.3607098592318311  0.8917015967561077  0.5023628807893354
  0.8577246382966318  0.3911893666836774  1.0004612383254559
  0.8582043949091606  0.8915741475165107  1.0002533775168923
  0.8647087878881128  0.8889811435814425  0.5016833754638739
  0.1394964699006410  0.1082988747010964  0.0006209183706947
  0.1399943152972995  0.1118053295449236  0.4993452341816550
  0.1393344555171644  0.6090134303115623  0.0011642858324413
  0.1432956939838470  0.6108268692943551  0.5012803322089473
  0.6420682376995065  0.1091441994454891  0.9992359878101446
  0.6310495923632159  0.1274964726378702  0.4847620986163305
  0.6405500403731089  0.6102891289547624  0.9997899738995450
  0.1088828011181347  0.3587708729377468  0.9995042982566344
  0.1202486103446860  0.3647694790569174  0.4996216639935350
  0.1074975091261134  0.8606127429246750  0.0013542012429272
  0.1132614413141145  0.8591855696056792  0.5020936845952829
  0.6100406986606991  0.3578334810604424  0.9994742655082802
  0.6088646108361310  0.8596874213483530  0.0010285474661286
  0.6116448030982558  0.8606823542612286  0.4995466500094624
  0.3906370256190361  0.1404113158034433  0.9999014170674903
  0.3855988823159135  0.1344684734375082  0.5004780932022262
  0.3894517184733675  0.6399422775043228  0.0023372164290783
  0.8911752878548568  0.1425870408129927  1.0004859136938080
  0.8915578978823480  0.1311922805584297  0.4884700720247980
  0.8903241921368268  0.6407215887169309  0.0009965346942677
  0.9910838795294253  0.0035829004321478  0.1268583070425529
  1.0013004413412538  0.0048174421499542  0.6243445319431228
  0.9966679971423227  0.4931593995095587  0.1257215282451832
  0.9982126685864642  0.4966924383343748  0.6244535141708411
  0.5050817303174664  0.0064668400269255  0.1260242081462582
  0.5074958675299150  0.0063615805232892  0.6241378325684638
  0.5068875519781869  0.4944580922010078  0.1254855931375723
  0.4926754204537435  0.5017968971476869  0.6297310967157165
  0.0111981573422076  0.9913441801647013  0.3740956317227317
  0.9958902371908769 -0.0008530185918852  0.8745985369820224
  0.0083119932106700  0.5082095864134413  0.3732238378783039
 -0.0008351346006956  0.4995189164268220  0.8754691780012459
  0.4939204595611880  0.9933321277583421  0.3738027313577180
  0.4989905546027266  0.9982114799799290  0.8753396653574819
  0.4967134457741423  0.5001675915237587  0.8777620911122886
  0.2512857560265721  0.2498652315352452  0.3739921662588063
  0.2488172499565881  0.2478112682542540  0.8755687714689935
  0.2506662633866904  0.7508458142704462  0.3734713509244867
  0.2482697375929575  0.7525561732563063  0.8761425289105232
  0.7532083631883428  0.2491679150492538  0.8752167202703776
  0.7514310862288518  0.7529603595560749  0.8748078681109456
  0.2480821219291286  0.2474898307364148  0.1243434446163758
  0.2480717041513809  0.2495497528779057  0.6259852956810186
  0.2485257898080864  0.7514475436500619  0.1236261321182904
  0.2506845863098934  0.7489908511995410  0.6264194850197369
  0.7504875599257682  0.2492697045165106  0.1260924163732069
  0.7361300121769078  0.2570321175077240  0.6284928642977442
  0.7501848964765462  0.7518104021606928  0.1251366266942215
  0.7399943571093464  0.7376715687650157  0.6229109077088562
  0.8748865710044005  0.3790666945499214  0.4869240846853691
  0.3977537762219637  0.6497685707724568  0.5008969364425852
  0.4844561634971314  0.5042389479371098  0.3716467946295889
  0.3738505707202791  0.3760911833642186  0.5011415090713351
  0.8870881739244380  0.6345537066988868  0.4992844790171350
  0.7423015527876400  0.7414466436640431  0.3768581413110283
  0.6481771642490360  0.4823174027784571  0.4981114391799546
 
  0.00000000E+00  0.00000000E+00  0.00000000E+00
  0.00000000E+00  0.00000000E+00  0.00000000E+00
  0.00000000E+00  0.00000000E+00  0.00000000E+00
  0.00000000E+00  0.00000000E+00  0.00000000E+00
  0.00000000E+00  0.00000000E+00  0.00000000E+00
  0.00000000E+00  0.00000000E+00  0.00000000E+00
  0.00000000E+00  0.00000000E+00  0.00000000E+00
  0.00000000E+00  0.00000000E+00  0.00000000E+00
  0.00000000E+00  0.00000000E+00  0.00000000E+00
  0.00000000E+00  0.00000000E+00  0.00000000E+00
  0.00000000E+00  0.00000000E+00  0.00000000E+00
  0.00000000E+00  0.00000000E+00  0.00000000E+00
  0.00000000E+00  0.00000000E+00  0.00000000E+00
  0.00000000E+00  0.00000000E+00  0.00000000E+00
  0.00000000E+00  0.00000000E+00  0.00000000E+00
  0.00000000E+00  0.00000000E+00  0.00000000E+00
  0.00000000E+00  0.00000000E+00  0.00000000E+00
  0.00000000E+00  0.00000000E+00  0.00000000E+00
  0.00000000E+00  0.00000000E+00  0.00000000E+00
  0.00000000E+00  0.00000000E+00  0.00000000E+00
  0.00000000E+00  0.00000000E+00  0.00000000E+00
  0.00000000E+00  0.00000000E+00  0.00000000E+00
  0.00000000E+00  0.00000000E+00  0.00000000E+00
  0.00000000E+00  0.00000000E+00  0.00000000E+00
  0.00000000E+00  0.00000000E+00  0.00000000E+00
  0.00000000E+00  0.00000000E+00  0.00000000E+00
  0.00000000E+00  0.00000000E+00  0.00000000E+00
  0.00000000E+00  0.00000000E+00  0.00000000E+00
  0.00000000E+00  0.00000000E+00  0.00000000E+00
  0.00000000E+00  0.00000000E+00  0.00000000E+00
  0.00000000E+00  0.00000000E+00  0.00000000E+00
  0.00000000E+00  0.00000000E+00  0.00000000E+00
  0.00000000E+00  0.00000000E+00  0.00000000E+00
  0.00000000E+00  0.00000000E+00  0.00000000E+00
  0.00000000E+00  0.00000000E+00  0.00000000E+00
  0.00000000E+00  0.00000000E+00  0.00000000E+00
  0.00000000E+00  0.00000000E+00  0.00000000E+00
  0.00000000E+00  0.00000000E+00  0.00000000E+00
  0.00000000E+00  0.00000000E+00  0.00000000E+00
  0.00000000E+00  0.00000000E+00  0.00000000E+00
  0.00000000E+00  0.00000000E+00  0.00000000E+00
  0.00000000E+00  0.00000000E+00  0.00000000E+00
  0.00000000E+00  0.00000000E+00  0.00000000E+00
  0.00000000E+00  0.00000000E+00  0.00000000E+00
  0.00000000E+00  0.00000000E+00  0.00000000E+00
  0.00000000E+00  0.00000000E+00  0.00000000E+00
  0.00000000E+00  0.00000000E+00  0.00000000E+00
  0.00000000E+00  0.00000000E+00  0.00000000E+00
  0.00000000E+00  0.00000000E+00  0.00000000E+00
  0.00000000E+00  0.00000000E+00  0.00000000E+00
  0.00000000E+00  0.00000000E+00  0.00000000E+00
  0.00000000E+00  0.00000000E+00  0.00000000E+00
  0.00000000E+00  0.00000000E+00  0.00000000E+00
  0.00000000E+00  0.00000000E+00  0.00000000E+00
  0.00000000E+00  0.00000000E+00  0.00000000E+00
  0.00000000E+00  0.00000000E+00  0.00000000E+00
  0.00000000E+00  0.00000000E+00  0.00000000E+00
  0.00000000E+00  0.00000000E+00  0.00000000E+00
  0.00000000E+00  0.00000000E+00  0.00000000E+00
  0.00000000E+00  0.00000000E+00  0.00000000E+00
  0.00000000E+00  0.00000000E+00  0.00000000E+00
  0.00000000E+00  0.00000000E+00  0.00000000E+00
  0.00000000E+00  0.00000000E+00  0.00000000E+00
  0.00000000E+00  0.00000000E+00  0.00000000E+00
  0.00000000E+00  0.00000000E+00  0.00000000E+00
  0.00000000E+00  0.00000000E+00  0.00000000E+00
  0.00000000E+00  0.00000000E+00  0.00000000E+00
  0.00000000E+00  0.00000000E+00  0.00000000E+00
  0.00000000E+00  0.00000000E+00  0.00000000E+00
  0.00000000E+00  0.00000000E+00  0.00000000E+00
  0.00000000E+00  0.00000000E+00  0.00000000E+00
  0.00000000E+00  0.00000000E+00  0.00000000E+00
  0.00000000E+00  0.00000000E+00  0.00000000E+00
  0.00000000E+00  0.00000000E+00  0.00000000E+00
  0.00000000E+00  0.00000000E+00  0.00000000E+00
  0.00000000E+00  0.00000000E+00  0.00000000E+00
  0.00000000E+00  0.00000000E+00  0.00000000E+00
  0.00000000E+00  0.00000000E+00  0.00000000E+00
  0.00000000E+00  0.00000000E+00  0.00000000E+00
  0.00000000E+00  0.00000000E+00  0.00000000E+00
  0.00000000E+00  0.00000000E+00  0.00000000E+00
  0.00000000E+00  0.00000000E+00  0.00000000E+00
  0.00000000E+00  0.00000000E+00  0.00000000E+00
  0.00000000E+00  0.00000000E+00  0.00000000E+00
  0.00000000E+00  0.00000000E+00  0.00000000E+00
  0.00000000E+00  0.00000000E+00  0.00000000E+00
  0.00000000E+00  0.00000000E+00  0.00000000E+00
  0.00000000E+00  0.00000000E+00  0.00000000E+00
  0.00000000E+00  0.00000000E+00  0.00000000E+00
  0.00000000E+00  0.00000000E+00  0.00000000E+00
  0.00000000E+00  0.00000000E+00  0.00000000E+00
  0.00000000E+00  0.00000000E+00  0.00000000E+00
  0.00000000E+00  0.00000000E+00  0.00000000E+00
  0.00000000E+00  0.00000000E+00  0.00000000E+00
  0.00000000E+00  0.00000000E+00  0.00000000E+00
  0.00000000E+00  0.00000000E+00  0.00000000E+00
  0.00000000E+00  0.00000000E+00  0.00000000E+00
  0.00000000E+00  0.00000000E+00  0.00000000E+00
  0.00000000E+00  0.00000000E+00  0.00000000E+00
  0.00000000E+00  0.00000000E+00  0.00000000E+00
  0.00000000E+00  0.00000000E+00  0.00000000E+00
  0.00000000E+00  0.00000000E+00  0.00000000E+00
  0.00000000E+00  0.00000000E+00  0.00000000E+00
  0.00000000E+00  0.00000000E+00  0.00000000E+00
  0.00000000E+00  0.00000000E+00  0.00000000E+00
  0.00000000E+00  0.00000000E+00  0.00000000E+00
  0.00000000E+00  0.00000000E+00  0.00000000E+00
  0.00000000E+00  0.00000000E+00  0.00000000E+00
  0.00000000E+00  0.00000000E+00  0.00000000E+00
  0.00000000E+00  0.00000000E+00  0.00000000E+00
  0.00000000E+00  0.00000000E+00  0.00000000E+00
  0.00000000E+00  0.00000000E+00  0.00000000E+00
  0.00000000E+00  0.00000000E+00  0.00000000E+00
  0.00000000E+00  0.00000000E+00  0.00000000E+00
  0.00000000E+00  0.00000000E+00  0.00000000E+00
  0.00000000E+00  0.00000000E+00  0.00000000E+00
  0.00000000E+00  0.00000000E+00  0.00000000E+00
  0.00000000E+00  0.00000000E+00  0.00000000E+00
  0.00000000E+00  0.00000000E+00  0.00000000E+00
  0.00000000E+00  0.00000000E+00  0.00000000E+00
  0.00000000E+00  0.00000000E+00  0.00000000E+00
  0.00000000E+00  0.00000000E+00  0.00000000E+00
  0.00000000E+00  0.00000000E+00  0.00000000E+00
  0.00000000E+00  0.00000000E+00  0.00000000E+00
  0.00000000E+00  0.00000000E+00  0.00000000E+00
  0.00000000E+00  0.00000000E+00  0.00000000E+00
  0.00000000E+00  0.00000000E+00  0.00000000E+00
  0.00000000E+00  0.00000000E+00  0.00000000E+00
  0.00000000E+00  0.00000000E+00  0.00000000E+00
  0.00000000E+00  0.00000000E+00  0.00000000E+00
  0.00000000E+00  0.00000000E+00  0.00000000E+00
  0.00000000E+00  0.00000000E+00  0.00000000E+00
  0.00000000E+00  0.00000000E+00  0.00000000E+00
  0.00000000E+00  0.00000000E+00  0.00000000E+00
  0.00000000E+00  0.00000000E+00  0.00000000E+00
  0.00000000E+00  0.00000000E+00  0.00000000E+00
  0.00000000E+00  0.00000000E+00  0.00000000E+00
  0.00000000E+00  0.00000000E+00  0.00000000E+00
  0.00000000E+00  0.00000000E+00  0.00000000E+00
  0.00000000E+00  0.00000000E+00  0.00000000E+00
  0.00000000E+00  0.00000000E+00  0.00000000E+00
  0.00000000E+00  0.00000000E+00  0.00000000E+00
  0.00000000E+00  0.00000000E+00  0.00000000E+00
  0.00000000E+00  0.00000000E+00  0.00000000E+00
  0.00000000E+00  0.00000000E+00  0.00000000E+00
  0.00000000E+00  0.00000000E+00  0.00000000E+00
  0.00000000E+00  0.00000000E+00  0.00000000E+00
  0.00000000E+00  0.00000000E+00  0.00000000E+00
  0.00000000E+00  0.00000000E+00  0.00000000E+00
  0.00000000E+00  0.00000000E+00  0.00000000E+00
  0.00000000E+00  0.00000000E+00  0.00000000E+00
  0.00000000E+00  0.00000000E+00  0.00000000E+00
  0.00000000E+00  0.00000000E+00  0.00000000E+00
  0.00000000E+00  0.00000000E+00  0.00000000E+00
  0.00000000E+00  0.00000000E+00  0.00000000E+00
  0.00000000E+00  0.00000000E+00  0.00000000E+00
  0.00000000E+00  0.00000000E+00  0.00000000E+00
  0.00000000E+00  0.00000000E+00  0.00000000E+00
