SrTiFeO                                 
   1.00000000000000     
    11.1989999999999998    0.0000000000000000    0.0000000000000000
     0.0000000000000000   11.1989999999999998    0.0000000000000000
     0.0000000000000000    0.0000000000000000   15.9830000000000005
   Sr   Ti   Fe   O 
    32    31     1    94
Direct
  0.0004323959537928  0.2498449516238384  0.1248743508788357
  0.0018653702030475  0.2486271848494828  0.6242192517033418
  0.9997439126701023  0.7505811283118636  0.1258177636369713
  0.0069859114508031  0.7489178635682436  0.6246132572563925
  0.4996511627026949  0.2517732477070859  0.1256939421933977
  0.5007041293826389  0.2520230952011582  0.6226787700760690
  0.4985208988537214  0.7504059335228022  0.1233565374573849
  0.4883376700485672  0.7498183978119233  0.6280343046990178
  0.0008349609585042  0.2477424320458573  0.3757359627800827
  0.0000564336418908  0.2505500886591291  0.8749522440674047
  0.0049247631066545  0.7490722075209365  0.3744170023713888
  0.0017017216683729  0.7510947791948627  0.8760516597458918
  0.5009706273469297  0.2524040996514678  0.3776831993477497
  0.4995690532651797  0.2519936284628181  0.8740868513515880
  0.4946489286635175  0.7506045048518121  0.3711085110653386
  0.4980759444962127  0.7491507019530933  0.8758782368297672
  0.2499081983324922  0.0007235148166133  0.1250184667278920
  0.2488275860863321  0.0019852585787117  0.6247164312703174
  0.2512738084579691  0.4999507526867772  0.1252579639446101
  0.2513584407679437  0.4990524920309550  0.6230430462713626
  0.7495767378297101  0.9997104903573880  0.1248888913059942
  0.7516524609846019  0.0088640426597646  0.6268064425326705
  0.7484728340734850  0.4995975384017057  0.1245694607010611
  0.7541919273754679  0.4864909897010341  0.6276504334662681
  0.2488044278931862  0.0011513482056254  0.3750665011525108
  0.2501942511709296  0.0011925708891724  0.8747849193681784
  0.2506312143869180  0.5002761122698545  0.3772258291866593
  0.2520903621509603  0.5006786609861236  0.8747303979050202
  0.7519931978908367  0.0047382592876659  0.3735454796913709
  0.7496399016773267  0.0017063886063560  0.8762625992120509
  0.7543423750937890  0.4910933837222066  0.3706255975658042
  0.7494534881888866  0.4990288973926993  0.8759917847969493
  0.9995307411796392  0.9997558337474137  0.0000041933747439
  0.0011259976963189  0.0006394857732809  0.5006621712921230
  0.9999852023234254  0.5003157839865356  0.0000510015439890
  0.9992383935222219  0.4975387680911206  0.5006885981306696
  0.5002342586903625  0.0003511084030366  0.9998743638874911
  0.4987133515618151  0.9988053938064365  0.5004812378801622
  0.4997171792764797  0.5000057532028637 -0.0000287768224324
  0.2504265015555316  0.2507310657548631  0.9997210021906466
  0.2505452667955027  0.2502443169823898  0.4996375603608503
  0.2497533317156813  0.7500960426577711  0.0001096239665817
  0.2514033044883750  0.7507524232655330  0.4994712469144392
  0.7502408567151333  0.2500953908988672  0.0002554622635723
  0.7494108462134899  0.2493747004893581  0.4996560506229776
  0.7504742801666018  0.7506060009640056  0.0024675017848780
  0.2505902687989122  0.2501951943898111  0.2508272076081896
  0.2506626278643838  0.2506373976364472  0.7499913536045320
  0.2495541903850448  0.7500514020792310  0.2494509635846309
  0.2493250914944689  0.7504270859364849  0.7506014009330068
  0.7500711834198397  0.2489973485804598  0.2493078602220953
  0.7502926737008779  0.2494231603299340  0.7513284098147671
  0.7488487709725814  0.7484140210538529  0.2499189366885777
  0.7506584759297029  0.7505561276831108  0.7550055458032601
  0.9996707638557134  0.9991679978001934  0.2500845928428042
  0.0008190262505459  0.0005568839349403  0.7497634365006524
  0.0004552863423212  0.5000039216362396  0.2497742888349049
  0.0011246132317957  0.5001625179095562  0.7498002012901586
  0.5004557690762320  0.0000914888878168  0.2500637908148521
  0.5001914354021623  0.0005691084407300  0.7494950081774114
  0.5011363305009890  0.5013673092363793  0.2519853346600164
  0.5019365369247502  0.5015180706889829  0.7470229834327601
  0.7525762453585403  0.7567623157091324  0.4968709540618920
  0.4953132843175212  0.4970126310420113  0.4994924219532723
  0.1094112063530765  0.1401858694931719  0.2483329945837300
  0.1101140683979570  0.1410057482780006  0.7543771706561890
  0.1084937043844961  0.6411409625414975  0.2491927139935912
  0.1094362580382003  0.6409031434446358  0.7512298242584425
  0.6092737111359674  0.1404280392190868  0.2501768096581744
  0.6102119202800208  0.1402706603898792  0.7500679108022773
  0.6088824572524110  0.6418825470254883  0.2416190030318353
  0.3911951247459063  0.3604135275452541  0.2541549719145118
  0.3910075139408523  0.3612117000306988  0.7461716980106521
  0.3899862431488766  0.8598294600213062  0.2487514487686470
  0.3897289385954499  0.8607078352518025  0.7512880390228829
  0.8906438276640846  0.3594147222727241  0.2517238472529869
  0.8895502227529747  0.3611078071330449  0.7488211394865895
  0.8896326943371419  0.8576760541327640  0.2543233779645831
  0.8887409435319569  0.8590828061381538  0.7416160063436540
  0.3602437853420757  0.1094771032943803  0.2492395059041973
  0.3603417778634688  0.1104736162042930  0.7507928833856691
  0.3587871771475899  0.6099974338560562  0.2511911027161860
  0.3603886257907515  0.6112421743664134  0.7481296721976441
  0.8590398575024594  0.1085068457081447  0.2482664702340439
  0.8602411297421033  0.1100007223326569  0.7520418468321141
  0.8586193930009803  0.6082799565176805  0.2466919228508634
  0.8590127015937784  0.6121475579239373  0.7411576841514330
  0.1406635196852866  0.3915804533829170  0.2527161701493002
  0.1410257814973092  0.3913515690098235  0.7528559054612456
  0.1397630987164505  0.8904307199404073  0.2487468626674935
  0.1398907345395845  0.8901581149424311  0.7515714646394803
  0.6415672187370742  0.3897823334734962  0.2483915449437888
  0.6413669759927433  0.8905839555533656  0.2517695015796215
  0.6418413640679173  0.8895070550135293  0.7438487680172083
  0.3591536073987202  0.3909281728619730  0.9989759298928663
  0.3594586999541781  0.8909075255852678  0.9997684009874948
  0.3553585294387800  0.8947107504944806  0.5000368595178526
  0.8591513975686625  0.3911132041592283  0.0000492166327451
  0.8642324456904817  0.3844895831894852  0.4994389832856488
  0.8586904667383916  0.8915788053168133  0.9995249272876420
  0.8606601673433295  0.8928723304654133  0.5091039737548906
  0.1405047700964124  0.1096429591953976  0.9997010654874200
  0.1404141565676917  0.1089914112135729  0.4988411725665169
  0.1404915941954005  0.6091521475384940  0.9991785086306193
  0.1325136187810615  0.6138253645546209  0.5000104509887568
  0.6411488502702207  0.1093596064672671  0.0001207935160198
  0.6413332743383516  0.1049995844133241  0.4997915697954124
  0.6411432039374529  0.6102615228169078  0.0006961905449458
  0.1090094318480327  0.3595224484760490  0.9981080714044389
  0.1080308646722194  0.3599145906370976  0.4970839777214519
  0.1093568111252853  0.8591000252247103  0.0000660894156199
  0.1069848261596857  0.8600611979500589  0.4996628228003804
  0.6097407819442887  0.3594192754426356  0.9992131656502490
  0.6094550428775170  0.8591218671713230  0.9991478581952866
  0.6021275339166924  0.8465220289245385  0.5058255678894585
  0.3910736897441504  0.1405363288357392  0.0001685654808090
  0.3921394226501264  0.1401704223643661  0.4998868503462220
  0.3903316557694210  0.6410515169887286  0.9999689691273951
  0.3861923016631186  0.6477111440534414  0.4986962254454005
  0.8912790132980620  0.1409556417976227  0.9998217381417498
  0.8906978949569685  0.1384093818294190  0.5003189182273762
  0.8910112163315826  0.6413042662363777  0.0015393548634355
  0.9982516062859379  0.9975464496833507  0.1248056442159133
  0.0065040601976274  0.0064858834183118  0.6269458156440223
  0.0019654436598169  0.4974528531833586  0.1249231582160544
  0.0064118156307472  0.4952643698292177  0.6253919781544732
  0.5015519005445106  0.9990277577542042  0.1249151930734452
  0.4977347848821268  0.0019111789507707  0.6250190818239133
  0.4972173938639794  0.4972408522337240  0.1241001931977630
  0.9982931022851725  0.0002315270559349  0.3744468807691672
  0.9973064209076521  0.9957766171394240  0.8749487969171640
  0.9949506262938226  0.5072421185502016  0.3756660332599240
  0.9945163213983667  0.5032744358158768  0.8743164001351111
  0.5013857483259669  0.9969972770487052  0.3755930483141653
  0.5029930669023203  0.9987427368982640  0.8744833081827996
  0.5001256396338893  0.5024593370259144  0.8745992348366683
  0.2487333099753979  0.2459752869873890  0.3741744668757058
  0.2536696343823739  0.2510326199661425  0.8751951879480290
  0.2465186993133000  0.7524377045524566  0.3737515551523433
  0.2506633915753838  0.7494698107450373  0.8752867351616895
  0.7509316235212521  0.2462617824898563  0.3738251844512661
  0.7514221114420627  0.2494166720573904  0.8756033361899401
  0.7403681299784699  0.7338104862208963  0.3749431223469405
  0.7536918928595370  0.7507085301074503  0.8755709472278566
  0.2508300948043924  0.2531459633884148  0.1251284965738426
  0.2451851280971907  0.2478502084679553  0.6257791895354998
  0.2498630865466125  0.7493859196071055  0.1245531459203754
  0.2475446503725262  0.7520282210257271  0.6257549677035142
  0.7509585458996537  0.2499540502309478  0.1246530613494532
  0.7506955069656420  0.2476869340839229  0.6262049762679521
  0.7526283103284354  0.7552831763030257  0.1247921720023485
  0.6413712126725237  0.3897061100057981  0.7528467416938086
  0.6119857994484823  0.6436818955797771  0.7486263863250578
  0.5139273331732394  0.5117503774182741  0.3732432287059613
  0.6200147154231996  0.3600250282735382  0.4999071145805924
  0.3521765318506713  0.3855580049908070  0.4997452762340893
  0.8691852585868103  0.6279572123888660  0.5123022643463530
  0.5127226744153572  0.5067360153528345  0.6257311788118181
 
  0.00000000E+00  0.00000000E+00  0.00000000E+00
  0.00000000E+00  0.00000000E+00  0.00000000E+00
  0.00000000E+00  0.00000000E+00  0.00000000E+00
  0.00000000E+00  0.00000000E+00  0.00000000E+00
  0.00000000E+00  0.00000000E+00  0.00000000E+00
  0.00000000E+00  0.00000000E+00  0.00000000E+00
  0.00000000E+00  0.00000000E+00  0.00000000E+00
  0.00000000E+00  0.00000000E+00  0.00000000E+00
  0.00000000E+00  0.00000000E+00  0.00000000E+00
  0.00000000E+00  0.00000000E+00  0.00000000E+00
  0.00000000E+00  0.00000000E+00  0.00000000E+00
  0.00000000E+00  0.00000000E+00  0.00000000E+00
  0.00000000E+00  0.00000000E+00  0.00000000E+00
  0.00000000E+00  0.00000000E+00  0.00000000E+00
  0.00000000E+00  0.00000000E+00  0.00000000E+00
  0.00000000E+00  0.00000000E+00  0.00000000E+00
  0.00000000E+00  0.00000000E+00  0.00000000E+00
  0.00000000E+00  0.00000000E+00  0.00000000E+00
  0.00000000E+00  0.00000000E+00  0.00000000E+00
  0.00000000E+00  0.00000000E+00  0.00000000E+00
  0.00000000E+00  0.00000000E+00  0.00000000E+00
  0.00000000E+00  0.00000000E+00  0.00000000E+00
  0.00000000E+00  0.00000000E+00  0.00000000E+00
  0.00000000E+00  0.00000000E+00  0.00000000E+00
  0.00000000E+00  0.00000000E+00  0.00000000E+00
  0.00000000E+00  0.00000000E+00  0.00000000E+00
  0.00000000E+00  0.00000000E+00  0.00000000E+00
  0.00000000E+00  0.00000000E+00  0.00000000E+00
  0.00000000E+00  0.00000000E+00  0.00000000E+00
  0.00000000E+00  0.00000000E+00  0.00000000E+00
  0.00000000E+00  0.00000000E+00  0.00000000E+00
  0.00000000E+00  0.00000000E+00  0.00000000E+00
  0.00000000E+00  0.00000000E+00  0.00000000E+00
  0.00000000E+00  0.00000000E+00  0.00000000E+00
  0.00000000E+00  0.00000000E+00  0.00000000E+00
  0.00000000E+00  0.00000000E+00  0.00000000E+00
  0.00000000E+00  0.00000000E+00  0.00000000E+00
  0.00000000E+00  0.00000000E+00  0.00000000E+00
  0.00000000E+00  0.00000000E+00  0.00000000E+00
  0.00000000E+00  0.00000000E+00  0.00000000E+00
  0.00000000E+00  0.00000000E+00  0.00000000E+00
  0.00000000E+00  0.00000000E+00  0.00000000E+00
  0.00000000E+00  0.00000000E+00  0.00000000E+00
  0.00000000E+00  0.00000000E+00  0.00000000E+00
  0.00000000E+00  0.00000000E+00  0.00000000E+00
  0.00000000E+00  0.00000000E+00  0.00000000E+00
  0.00000000E+00  0.00000000E+00  0.00000000E+00
  0.00000000E+00  0.00000000E+00  0.00000000E+00
  0.00000000E+00  0.00000000E+00  0.00000000E+00
  0.00000000E+00  0.00000000E+00  0.00000000E+00
  0.00000000E+00  0.00000000E+00  0.00000000E+00
  0.00000000E+00  0.00000000E+00  0.00000000E+00
  0.00000000E+00  0.00000000E+00  0.00000000E+00
  0.00000000E+00  0.00000000E+00  0.00000000E+00
  0.00000000E+00  0.00000000E+00  0.00000000E+00
  0.00000000E+00  0.00000000E+00  0.00000000E+00
  0.00000000E+00  0.00000000E+00  0.00000000E+00
  0.00000000E+00  0.00000000E+00  0.00000000E+00
  0.00000000E+00  0.00000000E+00  0.00000000E+00
  0.00000000E+00  0.00000000E+00  0.00000000E+00
  0.00000000E+00  0.00000000E+00  0.00000000E+00
  0.00000000E+00  0.00000000E+00  0.00000000E+00
  0.00000000E+00  0.00000000E+00  0.00000000E+00
  0.00000000E+00  0.00000000E+00  0.00000000E+00
  0.00000000E+00  0.00000000E+00  0.00000000E+00
  0.00000000E+00  0.00000000E+00  0.00000000E+00
  0.00000000E+00  0.00000000E+00  0.00000000E+00
  0.00000000E+00  0.00000000E+00  0.00000000E+00
  0.00000000E+00  0.00000000E+00  0.00000000E+00
  0.00000000E+00  0.00000000E+00  0.00000000E+00
  0.00000000E+00  0.00000000E+00  0.00000000E+00
  0.00000000E+00  0.00000000E+00  0.00000000E+00
  0.00000000E+00  0.00000000E+00  0.00000000E+00
  0.00000000E+00  0.00000000E+00  0.00000000E+00
  0.00000000E+00  0.00000000E+00  0.00000000E+00
  0.00000000E+00  0.00000000E+00  0.00000000E+00
  0.00000000E+00  0.00000000E+00  0.00000000E+00
  0.00000000E+00  0.00000000E+00  0.00000000E+00
  0.00000000E+00  0.00000000E+00  0.00000000E+00
  0.00000000E+00  0.00000000E+00  0.00000000E+00
  0.00000000E+00  0.00000000E+00  0.00000000E+00
  0.00000000E+00  0.00000000E+00  0.00000000E+00
  0.00000000E+00  0.00000000E+00  0.00000000E+00
  0.00000000E+00  0.00000000E+00  0.00000000E+00
  0.00000000E+00  0.00000000E+00  0.00000000E+00
  0.00000000E+00  0.00000000E+00  0.00000000E+00
  0.00000000E+00  0.00000000E+00  0.00000000E+00
  0.00000000E+00  0.00000000E+00  0.00000000E+00
  0.00000000E+00  0.00000000E+00  0.00000000E+00
  0.00000000E+00  0.00000000E+00  0.00000000E+00
  0.00000000E+00  0.00000000E+00  0.00000000E+00
  0.00000000E+00  0.00000000E+00  0.00000000E+00
  0.00000000E+00  0.00000000E+00  0.00000000E+00
  0.00000000E+00  0.00000000E+00  0.00000000E+00
  0.00000000E+00  0.00000000E+00  0.00000000E+00
  0.00000000E+00  0.00000000E+00  0.00000000E+00
  0.00000000E+00  0.00000000E+00  0.00000000E+00
  0.00000000E+00  0.00000000E+00  0.00000000E+00
  0.00000000E+00  0.00000000E+00  0.00000000E+00
  0.00000000E+00  0.00000000E+00  0.00000000E+00
  0.00000000E+00  0.00000000E+00  0.00000000E+00
  0.00000000E+00  0.00000000E+00  0.00000000E+00
  0.00000000E+00  0.00000000E+00  0.00000000E+00
  0.00000000E+00  0.00000000E+00  0.00000000E+00
  0.00000000E+00  0.00000000E+00  0.00000000E+00
  0.00000000E+00  0.00000000E+00  0.00000000E+00
  0.00000000E+00  0.00000000E+00  0.00000000E+00
  0.00000000E+00  0.00000000E+00  0.00000000E+00
  0.00000000E+00  0.00000000E+00  0.00000000E+00
  0.00000000E+00  0.00000000E+00  0.00000000E+00
  0.00000000E+00  0.00000000E+00  0.00000000E+00
  0.00000000E+00  0.00000000E+00  0.00000000E+00
  0.00000000E+00  0.00000000E+00  0.00000000E+00
  0.00000000E+00  0.00000000E+00  0.00000000E+00
  0.00000000E+00  0.00000000E+00  0.00000000E+00
  0.00000000E+00  0.00000000E+00  0.00000000E+00
  0.00000000E+00  0.00000000E+00  0.00000000E+00
  0.00000000E+00  0.00000000E+00  0.00000000E+00
  0.00000000E+00  0.00000000E+00  0.00000000E+00
  0.00000000E+00  0.00000000E+00  0.00000000E+00
  0.00000000E+00  0.00000000E+00  0.00000000E+00
  0.00000000E+00  0.00000000E+00  0.00000000E+00
  0.00000000E+00  0.00000000E+00  0.00000000E+00
  0.00000000E+00  0.00000000E+00  0.00000000E+00
  0.00000000E+00  0.00000000E+00  0.00000000E+00
  0.00000000E+00  0.00000000E+00  0.00000000E+00
  0.00000000E+00  0.00000000E+00  0.00000000E+00
  0.00000000E+00  0.00000000E+00  0.00000000E+00
  0.00000000E+00  0.00000000E+00  0.00000000E+00
  0.00000000E+00  0.00000000E+00  0.00000000E+00
  0.00000000E+00  0.00000000E+00  0.00000000E+00
  0.00000000E+00  0.00000000E+00  0.00000000E+00
  0.00000000E+00  0.00000000E+00  0.00000000E+00
  0.00000000E+00  0.00000000E+00  0.00000000E+00
  0.00000000E+00  0.00000000E+00  0.00000000E+00
  0.00000000E+00  0.00000000E+00  0.00000000E+00
  0.00000000E+00  0.00000000E+00  0.00000000E+00
  0.00000000E+00  0.00000000E+00  0.00000000E+00
  0.00000000E+00  0.00000000E+00  0.00000000E+00
  0.00000000E+00  0.00000000E+00  0.00000000E+00
  0.00000000E+00  0.00000000E+00  0.00000000E+00
  0.00000000E+00  0.00000000E+00  0.00000000E+00
  0.00000000E+00  0.00000000E+00  0.00000000E+00
  0.00000000E+00  0.00000000E+00  0.00000000E+00
  0.00000000E+00  0.00000000E+00  0.00000000E+00
  0.00000000E+00  0.00000000E+00  0.00000000E+00
  0.00000000E+00  0.00000000E+00  0.00000000E+00
  0.00000000E+00  0.00000000E+00  0.00000000E+00
  0.00000000E+00  0.00000000E+00  0.00000000E+00
  0.00000000E+00  0.00000000E+00  0.00000000E+00
  0.00000000E+00  0.00000000E+00  0.00000000E+00
  0.00000000E+00  0.00000000E+00  0.00000000E+00
  0.00000000E+00  0.00000000E+00  0.00000000E+00
  0.00000000E+00  0.00000000E+00  0.00000000E+00
  0.00000000E+00  0.00000000E+00  0.00000000E+00
  0.00000000E+00  0.00000000E+00  0.00000000E+00
  0.00000000E+00  0.00000000E+00  0.00000000E+00
  0.00000000E+00  0.00000000E+00  0.00000000E+00
