SrTiFeO                                 
   1.00000000000000     
    11.1989999999999998    0.0000000000000000    0.0000000000000000
     0.0000000000000000   11.1989999999999998    0.0000000000000000
     0.0000000000000000    0.0000000000000000   15.9830000000000005
   Sr   Ti   O 
    32    32    94
Direct
  0.0003047618208852  0.2496952381791148  0.1250360660007612
  0.0013820353662819  0.2486179646337181  0.6250055531507236
  0.0007964811285651  0.7501713282888550  0.1249509576294172
  0.0072742543278481  0.7509564397037422  0.6247872426008118
  0.4998286717111453  0.2492035188714349  0.1249509576294172
  0.4990435602962576  0.2427257456721519  0.6247872426008118
  0.4989881268290445  0.7510118731709555  0.1250577461593189
  0.4919134668644965  0.7580865331355033  0.6248293315826814
  0.0005718695132060  0.2494281304867940  0.3751283335165454
  0.0001922926832217  0.2498077073167783  0.8750595056211097
  0.0017538160858749  0.7495091305944734  0.3744808525244178
  0.0018871069465112  0.7506704765711184  0.8749879721580066
  0.5004908694055263  0.2482461839141251  0.3744808525244178
  0.4993295234288812  0.2481128930534889  0.8749879721580066
  0.4973204219332925  0.7526795780667074  0.3735474339242330
  0.4974183349957824  0.7525816650042180  0.8774462038101729
  0.2496952381791148  0.0003047618208852  0.1249639339992387
  0.2486179646337181  0.0013820353662819  0.6249944468492764
  0.2492035188714349  0.4998286717111453  0.1250490423705828
  0.2427257456721519  0.4990435602962576  0.6252127573991882
  0.7501713282888550  0.0007964811285651  0.1250490423705828
  0.7509564397037422  0.0072742543278481  0.6252127573991882
  0.7510118731709555  0.4989881268290445  0.1249422538406810
  0.7580865331355033  0.4919134668644965  0.6251706684173186
  0.2498077073167783  0.0001922926832217  0.3749404943788903
  0.2494281304867940  0.0005718695132060  0.8748716664834545
  0.2481128930534889  0.4993295234288812  0.3750120278419930
  0.2482461839141251  0.5004908694055263  0.8755191474755820
  0.7506704765711184  0.0018871069465112  0.3750120278419930
  0.7495091305944734  0.0017538160858749  0.8755191474755820
  0.7525816650042180  0.4974183349957824  0.3725537961898269
  0.7526795780667074  0.4973204219332925  0.8764525660757670
 -0.0005528260894898 -0.0003533566078946 -0.0004086007718807
  0.0000155985630889 -0.0002992615543974  0.5000015496292191
 -0.0001492441221231  0.5003977655081061  0.0000658255214994
 -0.0001138352567496  0.4997714079776082  0.5001693350046161
  0.5002751270519262 -0.0000564173282062  0.0001349331401899
  0.4998761950546500  0.0003055628802058  0.5000410016349367
  0.5003571201591270  0.5003068545069270  0.0015949390111947
  0.2503533566078945  0.2505528260894898 -0.0004086007718807
  0.2502992615543974  0.2499844014369110  0.5000015496292191
  0.2500564173282062  0.7497248729480739  0.0001349331401899
  0.2496944371197942  0.7501238049453500  0.5000410016349367
  0.7496022344918939  0.2501492441221231  0.0000658255214994
  0.7502285920223919  0.2501138352567495  0.5001693350046161
  0.7496931454930730  0.7496428798408730  0.0015949390111947
  0.2505528260894898  0.2503533566078945  0.2504086007718807
  0.2499844014369110  0.2502992615543974  0.7499984503707808
  0.2501492441221231  0.7496022344918939  0.2499341744785005
  0.2501138352567495  0.7502285920223919  0.7498306649953840
  0.7497248729480739  0.2500564173282062  0.2498650668598101
  0.7501238049453500  0.2496944371197942  0.7499589983650633
  0.7496428798408730  0.7496931454930730  0.2484050609888054
  0.7491923313251125  0.7489947082833150  0.7529199464269222
 -0.0003533566078946 -0.0005528260894898  0.2504086007718807
 -0.0002992615543974  0.0000155985630889  0.7499984503707808
 -0.0000564173282062  0.5002751270519262  0.2498650668598101
  0.0003055628802058  0.4998761950546500  0.7499589983650633
  0.5003977655081061 -0.0001492441221231  0.2499341744785005
  0.4997714079776082 -0.0001138352567496  0.7498306649953840
  0.5003068545069270  0.5003571201591270  0.2484050609888054
  0.5010052917166851  0.5008076686748876  0.7529199464269222
  0.5008076686748876  0.5010052917166851  0.4970800535730779
  0.7489947082833150  0.7491923313251125  0.4970800535730779
  0.1101708798321321  0.1398291201678680  0.2523944845791060
  0.1106203981080323  0.1393796018919677  0.7533185852711707
  0.1092731288989663  0.6407607278755026  0.2502643352619812
  0.1116520893921630  0.6386276444528989  0.7497024993012249
  0.6092392721244974  0.1407268711010337  0.2502643352619812
  0.6113723555471011  0.1383479106078370  0.7497024993012249
  0.6084876030005641  0.6415123969994359  0.2494474099208014
  0.3917952623338916  0.3598861378935642  0.2509144390009167
  0.3913139619783498  0.3632879094399555  0.7419693333952280
  0.3908699149487708  0.8591300850512290  0.2500013760044297
  0.3889541951318138  0.8610458048681864  0.7513731380289540
  0.8904703878621647  0.3595296121378352  0.2512407801167771
  0.8888602903447822  0.3611397096552174  0.7501542183556664
  0.8901138621064358  0.8582047376661084  0.2509144390009167
  0.8867120905600444  0.8586860380216503  0.7419693333952280
  0.3600768085732537  0.1094726656713514  0.2513869908537365
  0.3613555927313536  0.1112007010854546  0.7514672538120625
  0.3594249513983320  0.6085614345841879  0.2505967151495616
  0.3640594056738085  0.6102724489079343  0.7410130801859790
  0.8591481185012030  0.1097155008124083  0.2511309802016523
  0.8603334621758505  0.1101841946002039  0.7516121125366606
  0.8583885440016505  0.6090674318873133  0.2495632772721571
  0.8601437048079262  0.6126503030821038  0.7429457380963976
  0.1402844991875916  0.3908518814987972  0.2511309802016523
  0.1398158053997961  0.3896665378241493  0.7516121125366606
  0.1405273343286486  0.8899231914267461  0.2513869908537365
  0.1387992989145454  0.8886444072686462  0.7514672538120625
  0.6409325681126867  0.3916114559983493  0.2495632772721571
  0.6414385654158121  0.8905750486016679  0.2505967151495616
  0.6397275510920657  0.8859405943261913  0.7410130801859790
  0.3598861378935642  0.3917952623338916 -0.0009144390009166
  0.3595296121378352  0.8904703878621647 -0.0012407801167772
  0.3611397096552174  0.8888602903447822  0.4998457816443336
  0.8591300850512290  0.3908699149487708 -0.0000013760044297
  0.8610458048681864  0.3889541951318138  0.4986268619710460
  0.8582047376661084  0.8901138621064358 -0.0009144390009166
  0.8586860380216503  0.8867120905600444  0.5080306666047720
  0.1398291201678680  0.1101708798321321 -0.0023944845791061
  0.1393796018919677  0.1106203981080323  0.4966814147288297
  0.1407268711010337  0.6092392721244974 -0.0002643352619812
  0.1383479106078370  0.6113723555471011  0.5002975006987751
  0.6407607278755026  0.1092731288989663 -0.0002643352619812
  0.6386276444528989  0.1116520893921630  0.5002975006987751
  0.6415123969994359  0.6084876030005641  0.0005525900791987
  0.1094726656713514  0.3600768085732537 -0.0013869908537365
  0.1112007010854546  0.3613555927313536  0.4985327461879375
  0.1097155008124083  0.8591481185012030 -0.0011309802016523
  0.1101841946002039  0.8603334621758505  0.4983878874633393
  0.6085614345841879  0.3594249513983320 -0.0005967151495616
  0.6090674318873133  0.8583885440016505  0.0004367227278429
  0.6126503030821038  0.8601437048079262  0.5070542619036024
  0.3908518814987972  0.1402844991875916 -0.0011309802016523
  0.3896665378241493  0.1398158053997961  0.4983878874633393
  0.3916114559983493  0.6409325681126867  0.0004367227278429
  0.3898562951920738  0.6373496969178962  0.5070542619036024
  0.8899231914267461  0.1405273343286486 -0.0013869908537365
  0.8886444072686462  0.1387992989145454  0.4985327461879375
  0.8905750486016679  0.6414385654158121 -0.0005967151495616
  0.0001013561902033  0.0001013561902033  0.1250000000000000
  0.0045996918236917  0.0045996918236917  0.6250000000000000
  0.0001880267103360  0.4996859228559142  0.1249815918757246
  0.0036002468246571  0.4950406382460959  0.6250594744790422
  0.4996859228559142  0.0001880267103360  0.1250184081242754
  0.4950406382460959  0.0036002468246571  0.6249405255209578
  0.4995814826851338  0.4995814826851338  0.1250000000000000
 -0.0047556856340736 -0.0037210852219191  0.3759096682456843
 -0.0037210852219191 -0.0047556856340736  0.8740903317543154
 -0.0028811525342030  0.5048275932732949  0.3758817630870113
 -0.0032306053575159  0.5028424963505645  0.8741922991554999
  0.5028424963505645 -0.0032306053575159  0.3758077008445001
  0.5048275932732949 -0.0028811525342030  0.8741182369129888
  0.5030500153567229  0.5050896720717947  0.8731549995825729
  0.2537210852219191  0.2547556856340736  0.3759096682456843
  0.2547556856340736  0.2537210852219191  0.8740903317543154
  0.2532306053575160  0.7471575036494355  0.3758077008445001
  0.2528811525342029  0.7451724067267051  0.8741182369129888
  0.7451724067267051  0.2528811525342029  0.3758817630870113
  0.7471575036494355  0.2532306053575160  0.8741922991554999
  0.7469499846432771  0.7449103279282054  0.3768450004174272
  0.7449103279282054  0.7469499846432771  0.8731549995825729
  0.2498986438097967  0.2498986438097967  0.1250000000000000
  0.2454003081763083  0.2454003081763083  0.6250000000000000
  0.2498119732896640  0.7503140771440859  0.1250184081242754
  0.2463997531753429  0.7549593617539042  0.6249405255209578
  0.7503140771440859  0.2498119732896640  0.1249815918757246
  0.7549593617539042  0.2463997531753429  0.6250594744790422
  0.7504185173148661  0.7504185173148661  0.1250000000000000
  0.6373496969178962  0.3898562951920738  0.7429457380963976
  0.6129825429987784  0.6370174570012216  0.7317045793467315
  0.5050896720717947  0.5030500153567229  0.3768450004174272
  0.6102724489079343  0.3640594056738085  0.5089869198140210
  0.3632879094399555  0.3913139619783498  0.5080306666047720
  0.8859405943261913  0.6397275510920657  0.5089869198140210
  0.6370174570012216  0.6129825429987784  0.5182954206532685
 
  0.00000000E+00  0.00000000E+00  0.00000000E+00
  0.00000000E+00  0.00000000E+00  0.00000000E+00
  0.00000000E+00  0.00000000E+00  0.00000000E+00
  0.00000000E+00  0.00000000E+00  0.00000000E+00
  0.00000000E+00  0.00000000E+00  0.00000000E+00
  0.00000000E+00  0.00000000E+00  0.00000000E+00
  0.00000000E+00  0.00000000E+00  0.00000000E+00
  0.00000000E+00  0.00000000E+00  0.00000000E+00
  0.00000000E+00  0.00000000E+00  0.00000000E+00
  0.00000000E+00  0.00000000E+00  0.00000000E+00
  0.00000000E+00  0.00000000E+00  0.00000000E+00
  0.00000000E+00  0.00000000E+00  0.00000000E+00
  0.00000000E+00  0.00000000E+00  0.00000000E+00
  0.00000000E+00  0.00000000E+00  0.00000000E+00
  0.00000000E+00  0.00000000E+00  0.00000000E+00
  0.00000000E+00  0.00000000E+00  0.00000000E+00
  0.00000000E+00  0.00000000E+00  0.00000000E+00
  0.00000000E+00  0.00000000E+00  0.00000000E+00
  0.00000000E+00  0.00000000E+00  0.00000000E+00
  0.00000000E+00  0.00000000E+00  0.00000000E+00
  0.00000000E+00  0.00000000E+00  0.00000000E+00
  0.00000000E+00  0.00000000E+00  0.00000000E+00
  0.00000000E+00  0.00000000E+00  0.00000000E+00
  0.00000000E+00  0.00000000E+00  0.00000000E+00
  0.00000000E+00  0.00000000E+00  0.00000000E+00
  0.00000000E+00  0.00000000E+00  0.00000000E+00
  0.00000000E+00  0.00000000E+00  0.00000000E+00
  0.00000000E+00  0.00000000E+00  0.00000000E+00
  0.00000000E+00  0.00000000E+00  0.00000000E+00
  0.00000000E+00  0.00000000E+00  0.00000000E+00
  0.00000000E+00  0.00000000E+00  0.00000000E+00
  0.00000000E+00  0.00000000E+00  0.00000000E+00
  0.00000000E+00  0.00000000E+00  0.00000000E+00
  0.00000000E+00  0.00000000E+00  0.00000000E+00
  0.00000000E+00  0.00000000E+00  0.00000000E+00
  0.00000000E+00  0.00000000E+00  0.00000000E+00
  0.00000000E+00  0.00000000E+00  0.00000000E+00
  0.00000000E+00  0.00000000E+00  0.00000000E+00
  0.00000000E+00  0.00000000E+00  0.00000000E+00
  0.00000000E+00  0.00000000E+00  0.00000000E+00
  0.00000000E+00  0.00000000E+00  0.00000000E+00
  0.00000000E+00  0.00000000E+00  0.00000000E+00
  0.00000000E+00  0.00000000E+00  0.00000000E+00
  0.00000000E+00  0.00000000E+00  0.00000000E+00
  0.00000000E+00  0.00000000E+00  0.00000000E+00
  0.00000000E+00  0.00000000E+00  0.00000000E+00
  0.00000000E+00  0.00000000E+00  0.00000000E+00
  0.00000000E+00  0.00000000E+00  0.00000000E+00
  0.00000000E+00  0.00000000E+00  0.00000000E+00
  0.00000000E+00  0.00000000E+00  0.00000000E+00
  0.00000000E+00  0.00000000E+00  0.00000000E+00
  0.00000000E+00  0.00000000E+00  0.00000000E+00
  0.00000000E+00  0.00000000E+00  0.00000000E+00
  0.00000000E+00  0.00000000E+00  0.00000000E+00
  0.00000000E+00  0.00000000E+00  0.00000000E+00
  0.00000000E+00  0.00000000E+00  0.00000000E+00
  0.00000000E+00  0.00000000E+00  0.00000000E+00
  0.00000000E+00  0.00000000E+00  0.00000000E+00
  0.00000000E+00  0.00000000E+00  0.00000000E+00
  0.00000000E+00  0.00000000E+00  0.00000000E+00
  0.00000000E+00  0.00000000E+00  0.00000000E+00
  0.00000000E+00  0.00000000E+00  0.00000000E+00
  0.00000000E+00  0.00000000E+00  0.00000000E+00
  0.00000000E+00  0.00000000E+00  0.00000000E+00
  0.00000000E+00  0.00000000E+00  0.00000000E+00
  0.00000000E+00  0.00000000E+00  0.00000000E+00
  0.00000000E+00  0.00000000E+00  0.00000000E+00
  0.00000000E+00  0.00000000E+00  0.00000000E+00
  0.00000000E+00  0.00000000E+00  0.00000000E+00
  0.00000000E+00  0.00000000E+00  0.00000000E+00
  0.00000000E+00  0.00000000E+00  0.00000000E+00
  0.00000000E+00  0.00000000E+00  0.00000000E+00
  0.00000000E+00  0.00000000E+00  0.00000000E+00
  0.00000000E+00  0.00000000E+00  0.00000000E+00
  0.00000000E+00  0.00000000E+00  0.00000000E+00
  0.00000000E+00  0.00000000E+00  0.00000000E+00
  0.00000000E+00  0.00000000E+00  0.00000000E+00
  0.00000000E+00  0.00000000E+00  0.00000000E+00
  0.00000000E+00  0.00000000E+00  0.00000000E+00
  0.00000000E+00  0.00000000E+00  0.00000000E+00
  0.00000000E+00  0.00000000E+00  0.00000000E+00
  0.00000000E+00  0.00000000E+00  0.00000000E+00
  0.00000000E+00  0.00000000E+00  0.00000000E+00
  0.00000000E+00  0.00000000E+00  0.00000000E+00
  0.00000000E+00  0.00000000E+00  0.00000000E+00
  0.00000000E+00  0.00000000E+00  0.00000000E+00
  0.00000000E+00  0.00000000E+00  0.00000000E+00
  0.00000000E+00  0.00000000E+00  0.00000000E+00
  0.00000000E+00  0.00000000E+00  0.00000000E+00
  0.00000000E+00  0.00000000E+00  0.00000000E+00
  0.00000000E+00  0.00000000E+00  0.00000000E+00
  0.00000000E+00  0.00000000E+00  0.00000000E+00
  0.00000000E+00  0.00000000E+00  0.00000000E+00
  0.00000000E+00  0.00000000E+00  0.00000000E+00
  0.00000000E+00  0.00000000E+00  0.00000000E+00
  0.00000000E+00  0.00000000E+00  0.00000000E+00
  0.00000000E+00  0.00000000E+00  0.00000000E+00
  0.00000000E+00  0.00000000E+00  0.00000000E+00
  0.00000000E+00  0.00000000E+00  0.00000000E+00
  0.00000000E+00  0.00000000E+00  0.00000000E+00
  0.00000000E+00  0.00000000E+00  0.00000000E+00
  0.00000000E+00  0.00000000E+00  0.00000000E+00
  0.00000000E+00  0.00000000E+00  0.00000000E+00
  0.00000000E+00  0.00000000E+00  0.00000000E+00
  0.00000000E+00  0.00000000E+00  0.00000000E+00
  0.00000000E+00  0.00000000E+00  0.00000000E+00
  0.00000000E+00  0.00000000E+00  0.00000000E+00
  0.00000000E+00  0.00000000E+00  0.00000000E+00
  0.00000000E+00  0.00000000E+00  0.00000000E+00
  0.00000000E+00  0.00000000E+00  0.00000000E+00
  0.00000000E+00  0.00000000E+00  0.00000000E+00
  0.00000000E+00  0.00000000E+00  0.00000000E+00
  0.00000000E+00  0.00000000E+00  0.00000000E+00
  0.00000000E+00  0.00000000E+00  0.00000000E+00
  0.00000000E+00  0.00000000E+00  0.00000000E+00
  0.00000000E+00  0.00000000E+00  0.00000000E+00
  0.00000000E+00  0.00000000E+00  0.00000000E+00
  0.00000000E+00  0.00000000E+00  0.00000000E+00
  0.00000000E+00  0.00000000E+00  0.00000000E+00
  0.00000000E+00  0.00000000E+00  0.00000000E+00
  0.00000000E+00  0.00000000E+00  0.00000000E+00
  0.00000000E+00  0.00000000E+00  0.00000000E+00
  0.00000000E+00  0.00000000E+00  0.00000000E+00
  0.00000000E+00  0.00000000E+00  0.00000000E+00
  0.00000000E+00  0.00000000E+00  0.00000000E+00
  0.00000000E+00  0.00000000E+00  0.00000000E+00
  0.00000000E+00  0.00000000E+00  0.00000000E+00
  0.00000000E+00  0.00000000E+00  0.00000000E+00
  0.00000000E+00  0.00000000E+00  0.00000000E+00
  0.00000000E+00  0.00000000E+00  0.00000000E+00
  0.00000000E+00  0.00000000E+00  0.00000000E+00
  0.00000000E+00  0.00000000E+00  0.00000000E+00
  0.00000000E+00  0.00000000E+00  0.00000000E+00
  0.00000000E+00  0.00000000E+00  0.00000000E+00
  0.00000000E+00  0.00000000E+00  0.00000000E+00
  0.00000000E+00  0.00000000E+00  0.00000000E+00
  0.00000000E+00  0.00000000E+00  0.00000000E+00
  0.00000000E+00  0.00000000E+00  0.00000000E+00
  0.00000000E+00  0.00000000E+00  0.00000000E+00
  0.00000000E+00  0.00000000E+00  0.00000000E+00
  0.00000000E+00  0.00000000E+00  0.00000000E+00
  0.00000000E+00  0.00000000E+00  0.00000000E+00
  0.00000000E+00  0.00000000E+00  0.00000000E+00
  0.00000000E+00  0.00000000E+00  0.00000000E+00
  0.00000000E+00  0.00000000E+00  0.00000000E+00
  0.00000000E+00  0.00000000E+00  0.00000000E+00
  0.00000000E+00  0.00000000E+00  0.00000000E+00
  0.00000000E+00  0.00000000E+00  0.00000000E+00
  0.00000000E+00  0.00000000E+00  0.00000000E+00
  0.00000000E+00  0.00000000E+00  0.00000000E+00
  0.00000000E+00  0.00000000E+00  0.00000000E+00
  0.00000000E+00  0.00000000E+00  0.00000000E+00
  0.00000000E+00  0.00000000E+00  0.00000000E+00
  0.00000000E+00  0.00000000E+00  0.00000000E+00
  0.00000000E+00  0.00000000E+00  0.00000000E+00
  0.00000000E+00  0.00000000E+00  0.00000000E+00
  0.00000000E+00  0.00000000E+00  0.00000000E+00
  0.00000000E+00  0.00000000E+00  0.00000000E+00
