SrTiFeO                                 
   1.00000000000000     
    11.1989999999999998    0.0000000000000000    0.0000000000000000
     0.0000000000000000   11.1989999999999998    0.0000000000000000
     0.0000000000000000    0.0000000000000000   15.9830000000000005
   Sr   Ti   O 
    32    32    94
Direct
  0.9999391514930892  0.2500577053038829  0.1248438664697229
  0.0013083766169286  0.2488760697480467  0.6248905668652730
  0.0000528885727147  0.7502316699319493  0.1254870921898635
  0.0071673345577722  0.7487335841152269  0.6256135237661719
  0.5000650474048881  0.2504638263188136  0.1250220637207771
  0.5003824086662135  0.2478893903316419  0.6251163096735237
  0.4988719364724906  0.7508021769153608  0.1243640000822119
  0.4887064344195299  0.7512278826995693  0.6289257018595907
  0.0001882897261924  0.2484119856618440  0.3746940636096630
  0.0002298839928116  0.2501539175402038  0.8749996726237473
  0.0001909824208673  0.7493625233704974  0.3750381640336407
  0.0016713521828395  0.7507303308947175  0.8762222682320026
  0.5011460746456607  0.2477536569470464  0.3741909216867910
  0.4997637471894124  0.2506528802260180  0.8747175506297993
  0.4973943565657518  0.7509452333581760  0.3719547653473923
  0.4981131294716267  0.7499318351333272  0.8766244972120485
  0.2501180262854210  0.0002702101431261  0.1250124040071707
  0.2488599699592126  0.0009164958524808  0.6255878006975741
  0.2503201584638811  0.5003080268930240  0.1248045272458723
  0.2472450956786874  0.4985722009335560  0.6262917210266146
  0.7502299047150324  0.0000162724317576  0.1249990839900081
  0.7509325844313666  0.0074974202377401  0.6257117695776510
  0.7493028770363734  0.4996593322755432  0.1248194711976444
  0.7535741836534281  0.4882131435917885  0.6274168646008642
  0.2489732423075791  0.9995153086604847  0.3745482892329606
  0.2502251959908185  0.0001653429001849  0.8749716564628498
  0.2464064868045896  0.5002469552088685  0.3739738144650185
  0.2505453845094819  0.5006902608309817  0.8751580408233859
  0.7511946529443726  0.0007531104039151  0.3742382459885092
  0.7496754626754190  0.0017952939201381  0.8762996342211697
  0.7530926915668761  0.4944632707159447  0.3712544926580313
  0.7503842818814160  0.4982636156665065  0.8763100021593169
  0.9997516323173198  0.9998823142540031  0.0000444649548637
  0.9987068991314940  0.9986892436041362  0.5003666051549568
  0.9998408881978704  0.5002081937298547  0.0000519837674397
  0.9996825752807649  0.4983742377529515  0.5007940730516338
  0.5002782852833928  0.0000843026133847  0.0000471125996088
  0.4989761814584439  0.9989423669491228  0.5007367738767482
  0.4998982814375751  0.5000979110828410  0.0000837450855456
  0.2503946338261274  0.2503621361167668  0.9996476718525493
  0.2481999503254639  0.2469230829021036  0.4992935534893536
  0.2497369556693891  0.7500282429141066  0.0003352268776853
  0.2500877432838690  0.7506874999665289  0.4995882524161452
  0.7502574923325728  0.2500329084598510  0.0002416095657559
  0.7509267322790972  0.2491270941337563  0.4994334619200019
  0.7503595924425535  0.7503825222588819  0.0027435115174807
  0.2500964824102546  0.2499753439964995  0.2502959955705245
  0.2501602937771991  0.2500342524679053  0.7503170519732113
  0.2495181749513019  0.7498276189960017  0.2498561794239211
  0.2492078803621237  0.7499804665865224  0.7509785062515993
  0.7500384771312408  0.2489718158118524  0.2494241445741866
  0.7500220612171299  0.2492081585114813  0.7510469579320707
  0.7493937799816197  0.7491233900491611  0.2508819115365689
  0.7499691018342817  0.7500230383494575  0.7545518075374140
  0.9999163273639207  0.9991566148286034  0.2500374813051419
  0.9999919169189576  0.9997848958900242  0.7496455072101034
  0.9995357184169172  0.5003118688670313  0.2495367143183686
  0.0001680294183686  0.4996428448128864  0.7499778439721638
  0.5004839182212915  0.9993701405192624  0.2498747072365459
  0.5000129736193448  0.0000793562636962  0.7499108106348463
  0.5006152961356666  0.5007374724005834  0.2499214370357552
  0.5011235051230797  0.5005420518464152  0.7493356467624905
  0.4935501364224433  0.4961674818781446  0.4997899737697307
  0.7487778749118221  0.7511067413436382  0.5004130965901267
  0.1100364266137083  0.1408071552753459  0.2489641804476702
  0.1106771165557462  0.1405106258210517  0.7520825609914800
  0.1086917327296305  0.6409099947699263  0.2504098247724689
  0.1099291728901550  0.6397757669874653  0.7504868109722130
  0.6092040152168551  0.1403204046449885  0.2500183965084229
  0.6102910269613020  0.1397846105415019  0.7500353009935024
  0.6081106393802659  0.6410734632084882  0.2447528674508828
  0.3910860587270601  0.3604625429998849  0.2535768172863896
  0.3911467022706475  0.3613388642420299  0.7468397889973200
  0.3902189525669064  0.8596667011185629  0.2495991607481673
  0.3890959851352332  0.8609968287705543  0.7516037678208386
  0.8904233701451326  0.3595611414606746  0.2514243740304453
  0.8894118390280648  0.3605565565793883  0.7489148879728179
  0.8910930348381415  0.8587896028432797  0.2512976578002188
  0.8887387256080078  0.8589404566801783  0.7422351827981047
  0.3602490065457628  0.1097807778656892  0.2514014252776490
  0.3604013133314705  0.1109239796675961  0.7515039769154400
  0.3592461971037786  0.6091387533424302  0.2513722024990960
  0.3609847706112634  0.6106863587336945  0.7482281313566940
  0.8593458736093690  0.1089546745348345  0.2498394116897567
  0.8601746466819480  0.1100069502359088  0.7507021284435280
  0.8586399847627638  0.6084909975536190  0.2479395592221555
  0.8588987760125100  0.6117526160007020  0.7421976802687260
  0.1402206994504165  0.3910759863761341  0.2512316358778511
  0.1407204481716043  0.3903238098266746  0.7522349503046624
  0.1406775258909956  0.8905622418632068  0.2497979983307285
  0.1394301489481166  0.8895145528025364  0.7501104676194889
  0.6405740099388515  0.3903810852138043  0.2494546884279543
  0.6411052143529852  0.8908335786101402  0.2494853596485013
  0.6412124879866644  0.8886399647306128  0.7424648759222814
  0.3595714084428355  0.3910946747485473  0.9987415235965382
  0.3595414847274954  0.8906117431869370  0.9993780347309612
  0.3569021636883057  0.8928102826239488  0.5002041808282328
  0.8593643101765147  0.3908747193714936  0.0001772263633898
  0.8614827545569508  0.3876026369246116  0.4997047448346325
  0.8589917059279535  0.8912170361288290  0.9998939702309292
  0.8604989989015130  0.8938244579672550  0.5038618599577468
  0.1408409438981345  0.1097422913736208  0.9990420587213383
  0.1416777215493710  0.1093560246876913  0.4990170314234902
  0.1403946881776172  0.6091813218177461  0.9993815293661145
  0.1382990387681811  0.6108561350920660  0.5003770481565518
  0.6408517166844724  0.1094233083673527  0.0002926117174633
  0.6399754341836027  0.1091984116652761  0.5001122353854733
  0.6409137307771546  0.6096962870586135  0.0002243911476308
  0.1094010321953548  0.3595004723354338  0.9989888002721831
  0.1097217625352200  0.3594738986726430  0.4982240218346561
  0.1094311901532035  0.8593237031374413  0.0001478121127501
  0.1087198668532186  0.8588610769972566  0.4997963227233411
  0.6094406024772331  0.3597536280710598  0.9992490647513498
  0.6094618455286234  0.8590602627489566  0.0001629212090741
  0.6048615912683855  0.8524242354423840  0.5088906994040627
  0.3908935858716205  0.1405995532658438  0.9991141037030666
  0.3918340644559336  0.1423425397699736  0.4986088615101799
  0.3907960884891024  0.6406266410840116  0.9999680118457397
  0.3947564225551325  0.6433942219907626  0.4996775363261473
  0.8909898268657266  0.1406912612163863  0.9993620274935474
  0.8907599660357749  0.1409494423603271  0.5000964814970997
  0.8907344788207612  0.6411888080143310  0.0003440978848192
  0.9999526224805685  0.9998253892287849  0.1246855015432043
  0.0046922510035695  0.0052078732662312  0.6254732748457121
  0.0008539265908565  0.4990367402801535  0.1249325773444166
  0.0059449806352745  0.4947458512211905  0.6254572635949791
  0.4992370656498327  0.0002893660561914  0.1249393237367206
  0.4951688038236350  0.0043905952628710  0.6252485280403771
  0.4977166309201234  0.4976670906182121  0.1247350786304276
  0.0000702127152251  0.0006009916154268  0.3748524040127337
  0.9978933259555501  0.9964094276967188  0.8743246764575350
  0.9963233408759653  0.5056764686484621  0.3760625103171451
  0.9956616288640051  0.5022349822997570  0.8742723615423978
  0.5032382070152025  0.9958980521308529  0.3760427585595130
  0.5039212375177079  0.9979041751863899  0.8744321107740275
  0.5011614246626538  0.5028847351461143  0.8737823347594982
  0.2491590961155972  0.2496914210081327  0.3749123332214041
  0.2524613356993932  0.2517055829094296  0.8748791093489595
  0.2495370321021552  0.7500208497210619  0.3752111252968066
  0.2499938447526192  0.7489975479384233  0.8750898728509086
  0.7488786932769315  0.2489211947311896  0.3749413541118593
  0.7506117710320550  0.2501087781499253  0.8751340978735525
  0.7455024978239888  0.7431344896335194  0.3731127190108472
  0.7517827944349215  0.7514915371659737  0.8751402599801557
  0.2520955132544537  0.2517555149126328  0.1250633514241737
  0.2489953503909872  0.2499008578908538  0.6247215888897364
  0.2501119697444796  0.7490261482595130  0.1250541790782167
  0.2495406414463166  0.7502517306181942  0.6250191174401990
  0.7506834282492996  0.2501169310755245  0.1249660178462120
  0.7489907664229207  0.2494931335256187  0.6250327139385703
  0.7518688881208576  0.7520225326173933  0.1245756597155690
  0.6402830537598712  0.3901437504288256  0.7509824231392194
  0.6119035091518864  0.6423333497964151  0.7455400741132665
  0.5101839243930131  0.5083473937625926  0.3765508442891228
  0.6142658474799775  0.3672691056696641  0.4998414305596348
  0.3573989264057937  0.3918506408490770  0.4989919699247128
  0.8784512483434841  0.6329494984803219  0.5117661673392840
  0.5073684974724090  0.5050196134568394  0.6226809399035236
 
  0.00000000E+00  0.00000000E+00  0.00000000E+00
  0.00000000E+00  0.00000000E+00  0.00000000E+00
  0.00000000E+00  0.00000000E+00  0.00000000E+00
  0.00000000E+00  0.00000000E+00  0.00000000E+00
  0.00000000E+00  0.00000000E+00  0.00000000E+00
  0.00000000E+00  0.00000000E+00  0.00000000E+00
  0.00000000E+00  0.00000000E+00  0.00000000E+00
  0.00000000E+00  0.00000000E+00  0.00000000E+00
  0.00000000E+00  0.00000000E+00  0.00000000E+00
  0.00000000E+00  0.00000000E+00  0.00000000E+00
  0.00000000E+00  0.00000000E+00  0.00000000E+00
  0.00000000E+00  0.00000000E+00  0.00000000E+00
  0.00000000E+00  0.00000000E+00  0.00000000E+00
  0.00000000E+00  0.00000000E+00  0.00000000E+00
  0.00000000E+00  0.00000000E+00  0.00000000E+00
  0.00000000E+00  0.00000000E+00  0.00000000E+00
  0.00000000E+00  0.00000000E+00  0.00000000E+00
  0.00000000E+00  0.00000000E+00  0.00000000E+00
  0.00000000E+00  0.00000000E+00  0.00000000E+00
  0.00000000E+00  0.00000000E+00  0.00000000E+00
  0.00000000E+00  0.00000000E+00  0.00000000E+00
  0.00000000E+00  0.00000000E+00  0.00000000E+00
  0.00000000E+00  0.00000000E+00  0.00000000E+00
  0.00000000E+00  0.00000000E+00  0.00000000E+00
  0.00000000E+00  0.00000000E+00  0.00000000E+00
  0.00000000E+00  0.00000000E+00  0.00000000E+00
  0.00000000E+00  0.00000000E+00  0.00000000E+00
  0.00000000E+00  0.00000000E+00  0.00000000E+00
  0.00000000E+00  0.00000000E+00  0.00000000E+00
  0.00000000E+00  0.00000000E+00  0.00000000E+00
  0.00000000E+00  0.00000000E+00  0.00000000E+00
  0.00000000E+00  0.00000000E+00  0.00000000E+00
  0.00000000E+00  0.00000000E+00  0.00000000E+00
  0.00000000E+00  0.00000000E+00  0.00000000E+00
  0.00000000E+00  0.00000000E+00  0.00000000E+00
  0.00000000E+00  0.00000000E+00  0.00000000E+00
  0.00000000E+00  0.00000000E+00  0.00000000E+00
  0.00000000E+00  0.00000000E+00  0.00000000E+00
  0.00000000E+00  0.00000000E+00  0.00000000E+00
  0.00000000E+00  0.00000000E+00  0.00000000E+00
  0.00000000E+00  0.00000000E+00  0.00000000E+00
  0.00000000E+00  0.00000000E+00  0.00000000E+00
  0.00000000E+00  0.00000000E+00  0.00000000E+00
  0.00000000E+00  0.00000000E+00  0.00000000E+00
  0.00000000E+00  0.00000000E+00  0.00000000E+00
  0.00000000E+00  0.00000000E+00  0.00000000E+00
  0.00000000E+00  0.00000000E+00  0.00000000E+00
  0.00000000E+00  0.00000000E+00  0.00000000E+00
  0.00000000E+00  0.00000000E+00  0.00000000E+00
  0.00000000E+00  0.00000000E+00  0.00000000E+00
  0.00000000E+00  0.00000000E+00  0.00000000E+00
  0.00000000E+00  0.00000000E+00  0.00000000E+00
  0.00000000E+00  0.00000000E+00  0.00000000E+00
  0.00000000E+00  0.00000000E+00  0.00000000E+00
  0.00000000E+00  0.00000000E+00  0.00000000E+00
  0.00000000E+00  0.00000000E+00  0.00000000E+00
  0.00000000E+00  0.00000000E+00  0.00000000E+00
  0.00000000E+00  0.00000000E+00  0.00000000E+00
  0.00000000E+00  0.00000000E+00  0.00000000E+00
  0.00000000E+00  0.00000000E+00  0.00000000E+00
  0.00000000E+00  0.00000000E+00  0.00000000E+00
  0.00000000E+00  0.00000000E+00  0.00000000E+00
  0.00000000E+00  0.00000000E+00  0.00000000E+00
  0.00000000E+00  0.00000000E+00  0.00000000E+00
  0.00000000E+00  0.00000000E+00  0.00000000E+00
  0.00000000E+00  0.00000000E+00  0.00000000E+00
  0.00000000E+00  0.00000000E+00  0.00000000E+00
  0.00000000E+00  0.00000000E+00  0.00000000E+00
  0.00000000E+00  0.00000000E+00  0.00000000E+00
  0.00000000E+00  0.00000000E+00  0.00000000E+00
  0.00000000E+00  0.00000000E+00  0.00000000E+00
  0.00000000E+00  0.00000000E+00  0.00000000E+00
  0.00000000E+00  0.00000000E+00  0.00000000E+00
  0.00000000E+00  0.00000000E+00  0.00000000E+00
  0.00000000E+00  0.00000000E+00  0.00000000E+00
  0.00000000E+00  0.00000000E+00  0.00000000E+00
  0.00000000E+00  0.00000000E+00  0.00000000E+00
  0.00000000E+00  0.00000000E+00  0.00000000E+00
  0.00000000E+00  0.00000000E+00  0.00000000E+00
  0.00000000E+00  0.00000000E+00  0.00000000E+00
  0.00000000E+00  0.00000000E+00  0.00000000E+00
  0.00000000E+00  0.00000000E+00  0.00000000E+00
  0.00000000E+00  0.00000000E+00  0.00000000E+00
  0.00000000E+00  0.00000000E+00  0.00000000E+00
  0.00000000E+00  0.00000000E+00  0.00000000E+00
  0.00000000E+00  0.00000000E+00  0.00000000E+00
  0.00000000E+00  0.00000000E+00  0.00000000E+00
  0.00000000E+00  0.00000000E+00  0.00000000E+00
  0.00000000E+00  0.00000000E+00  0.00000000E+00
  0.00000000E+00  0.00000000E+00  0.00000000E+00
  0.00000000E+00  0.00000000E+00  0.00000000E+00
  0.00000000E+00  0.00000000E+00  0.00000000E+00
  0.00000000E+00  0.00000000E+00  0.00000000E+00
  0.00000000E+00  0.00000000E+00  0.00000000E+00
  0.00000000E+00  0.00000000E+00  0.00000000E+00
  0.00000000E+00  0.00000000E+00  0.00000000E+00
  0.00000000E+00  0.00000000E+00  0.00000000E+00
  0.00000000E+00  0.00000000E+00  0.00000000E+00
  0.00000000E+00  0.00000000E+00  0.00000000E+00
  0.00000000E+00  0.00000000E+00  0.00000000E+00
  0.00000000E+00  0.00000000E+00  0.00000000E+00
  0.00000000E+00  0.00000000E+00  0.00000000E+00
  0.00000000E+00  0.00000000E+00  0.00000000E+00
  0.00000000E+00  0.00000000E+00  0.00000000E+00
  0.00000000E+00  0.00000000E+00  0.00000000E+00
  0.00000000E+00  0.00000000E+00  0.00000000E+00
  0.00000000E+00  0.00000000E+00  0.00000000E+00
  0.00000000E+00  0.00000000E+00  0.00000000E+00
  0.00000000E+00  0.00000000E+00  0.00000000E+00
  0.00000000E+00  0.00000000E+00  0.00000000E+00
  0.00000000E+00  0.00000000E+00  0.00000000E+00
  0.00000000E+00  0.00000000E+00  0.00000000E+00
  0.00000000E+00  0.00000000E+00  0.00000000E+00
  0.00000000E+00  0.00000000E+00  0.00000000E+00
  0.00000000E+00  0.00000000E+00  0.00000000E+00
  0.00000000E+00  0.00000000E+00  0.00000000E+00
  0.00000000E+00  0.00000000E+00  0.00000000E+00
  0.00000000E+00  0.00000000E+00  0.00000000E+00
  0.00000000E+00  0.00000000E+00  0.00000000E+00
  0.00000000E+00  0.00000000E+00  0.00000000E+00
  0.00000000E+00  0.00000000E+00  0.00000000E+00
  0.00000000E+00  0.00000000E+00  0.00000000E+00
  0.00000000E+00  0.00000000E+00  0.00000000E+00
  0.00000000E+00  0.00000000E+00  0.00000000E+00
  0.00000000E+00  0.00000000E+00  0.00000000E+00
  0.00000000E+00  0.00000000E+00  0.00000000E+00
  0.00000000E+00  0.00000000E+00  0.00000000E+00
  0.00000000E+00  0.00000000E+00  0.00000000E+00
  0.00000000E+00  0.00000000E+00  0.00000000E+00
  0.00000000E+00  0.00000000E+00  0.00000000E+00
  0.00000000E+00  0.00000000E+00  0.00000000E+00
  0.00000000E+00  0.00000000E+00  0.00000000E+00
  0.00000000E+00  0.00000000E+00  0.00000000E+00
  0.00000000E+00  0.00000000E+00  0.00000000E+00
  0.00000000E+00  0.00000000E+00  0.00000000E+00
  0.00000000E+00  0.00000000E+00  0.00000000E+00
  0.00000000E+00  0.00000000E+00  0.00000000E+00
  0.00000000E+00  0.00000000E+00  0.00000000E+00
  0.00000000E+00  0.00000000E+00  0.00000000E+00
  0.00000000E+00  0.00000000E+00  0.00000000E+00
  0.00000000E+00  0.00000000E+00  0.00000000E+00
  0.00000000E+00  0.00000000E+00  0.00000000E+00
  0.00000000E+00  0.00000000E+00  0.00000000E+00
  0.00000000E+00  0.00000000E+00  0.00000000E+00
  0.00000000E+00  0.00000000E+00  0.00000000E+00
  0.00000000E+00  0.00000000E+00  0.00000000E+00
  0.00000000E+00  0.00000000E+00  0.00000000E+00
  0.00000000E+00  0.00000000E+00  0.00000000E+00
  0.00000000E+00  0.00000000E+00  0.00000000E+00
  0.00000000E+00  0.00000000E+00  0.00000000E+00
  0.00000000E+00  0.00000000E+00  0.00000000E+00
  0.00000000E+00  0.00000000E+00  0.00000000E+00
  0.00000000E+00  0.00000000E+00  0.00000000E+00
  0.00000000E+00  0.00000000E+00  0.00000000E+00
  0.00000000E+00  0.00000000E+00  0.00000000E+00
  0.00000000E+00  0.00000000E+00  0.00000000E+00
  0.00000000E+00  0.00000000E+00  0.00000000E+00
  0.00000000E+00  0.00000000E+00  0.00000000E+00
