SrTiFeO                                 
   1.00000000000000     
    11.1989999999999998    0.0000000000000000    0.0000000000000000
     0.0000000000000000   11.1989999999999998    0.0000000000000000
     0.0000000000000000    0.0000000000000000   15.9830000000000005
   Sr   Ti   Fe   O 
    32    29     3    94
Direct
  0.9992705071253866  0.2506386452022039  0.1245549461219212
  0.9992197264323368  0.2435476700854340  0.6275073991921607
  0.9977311767569216  0.7497873346291907  0.1251818684205275
  0.0067075476221215  0.7550392910576228  0.6271765157939058
  0.5002887480342406  0.2512451323098209  0.1257815206198016
  0.5061816966115722  0.2494668437681262  0.6231239502068263
  0.5009749971344288  0.7494654380376689  0.1238437982607046
  0.4965797635915654  0.7504857286322951  0.6278510050794933
  0.9992197264323368  0.2435476700854340  0.3724926008078393
  0.9992705071253866  0.2506386452022039  0.8754450538780789
  0.0067075476221215  0.7550392910576228  0.3728234842060871
  0.9977311767569216  0.7497873346291907  0.8748181315794725
  0.5061816966115722  0.2494668437681262  0.3768760497931737
  0.5002887480342406  0.2512451323098209  0.8742184793801984
  0.4965797635915654  0.7504857286322951  0.3721489949205066
  0.5009749971344288  0.7494654380376689  0.8761562017392953
  0.2503717628610617  0.0001996018631848  0.1249610984819187
  0.2507954554519610  0.9996603585721408  0.6252862720287664
  0.2497945908939236  0.4996983697924632  0.1249681915029684
  0.2518604572042021  0.5029030770275480  0.6267123072412323
  0.7492355657685276  0.9980912884894999  0.1255894865553950
  0.7530678002549229  0.0058075902779267  0.6230403644243770
  0.7484372590377992  0.5002036594045397  0.1235887381689146
  0.7497059626214724  0.4905218350875224  0.6311224699347049
  0.2507954554519610  0.9996603585721408  0.3747137279712338
  0.2503717628610617  0.0001996018631848  0.8750389015180814
  0.2518604572042021  0.5029030770275480  0.3732876927587677
  0.2497945908939236  0.4996983697924632  0.8750318084970317
  0.7530678002549229  0.0058075902779267  0.3769596355756229
  0.7492355657685276  0.9980912884894999  0.8744105134446051
  0.7497059626214724  0.4905218350875224  0.3688775300652952
  0.7484372590377992  0.5002036594045397  0.8764112618310852
  0.9997531502258458  0.9994754097691425 -0.0000000000000000
  1.0000103290619233  0.0014781577336900  0.5000000000000000
  0.0004499184905837  0.4994132770830743 -0.0000000000000000
  0.0075606820590179  0.4863291021509951  0.5000000000000000
  0.5004891655385632  0.9999074835357354 -0.0000000000000000
  0.5022758425612583  0.9977565385075899  0.5000000000000000
  0.4990445082147191  0.4995977122016378 -0.0000000000000000
  0.2502092059540757  0.2506873292637695 -0.0000000000000000
  0.2537897784088865  0.2429515095619557  0.5000000000000000
  0.2495096695730934  0.7501749369414233 -0.0000000000000000
  0.2520819438505137  0.7520760269382865  0.5000000000000000
  0.7501548974376080  0.2493616225191294 -0.0000000000000000
  0.7499807198366208  0.7509412651064893 -0.0000000000000000
  0.2509197533538029  0.2500053946349328  0.2508047008743636
  0.2509197533538029  0.2500053946349328  0.7491952991256363
  0.2504863231169814  0.7501070538275111  0.2487870553491395
  0.2504863231169814  0.7501070538275111  0.7512129446508604
  0.7502326441998717  0.2489062003348095  0.2501346419707516
  0.7502326441998717  0.2489062003348095  0.7498653580292484
  0.7502646757132435  0.7474651166345199  0.2534689913534107
  0.7502646757132435  0.7474651166345199  0.7465310086465892
  0.0003980871643798  0.9998529286878726  0.2495972121703595
  0.0003980871643798  0.9998529286878726  0.7504027878296404
  0.9996746649408149  0.5009605890881542  0.2498924391202407
  0.9996746649408149  0.5009605890881542  0.7501075608797593
  0.5008110551432412  0.9998561623114054  0.2506271204929384
  0.5008110551432412  0.9998561623114054  0.7493728795070617
  0.5004568562614662  0.5008477477939143  0.2512649667374908
  0.5004568562614662  0.5008477477939143  0.7487350332625091
  0.7494226134258047  0.2535098740282298  0.5000000000000000
  0.4853066609658445  0.4901993236478592  0.5000000000000000
  0.7464336324870776  0.7632623846448329  0.5000000000000000
  0.1095769332749830  0.1407074087166828  0.2470673577651026
  0.1095769332749830  0.1407074087166828  0.7529326422348974
  0.1092156364697646  0.6411129395411541  0.2492228679648832
  0.1092156364697646  0.6411129395411541  0.7507771320351168
  0.6099241305651320  0.1395076908064442  0.2493339363536822
  0.6099241305651320  0.1395076908064442  0.7506660636463179
  0.6093243116865217  0.6405758456304255  0.2456560099502535
  0.6093243116865217  0.6405758456304255  0.7543439900497466
  0.3906500193141114  0.3606353470266727  0.2547156190141354
  0.3906500193141114  0.3606353470266727  0.7452843809858646
  0.3903496590255998  0.8594954265061328  0.2488479330957322
  0.3903496590255998  0.8594954265061328  0.7511520669042678
  0.8907201773311371  0.3602788734192359  0.2517190844866408
  0.8907201773311371  0.3602788734192359  0.7482809155133593
  0.8899043320270851  0.8583457522289553  0.2548797837544013
  0.8899043320270851  0.8583457522289553  0.7451202162455985
  0.3596671611441996  0.1098261601892173  0.2480704522023520
  0.3596671611441996  0.1098261601892173  0.7519295477976480
  0.3587990259167887  0.6094703051635745  0.2493429145478439
  0.3587990259167887  0.6094703051635745  0.7506570854521560
  0.8599407144454618  0.1086999233226892  0.2493556782531192
  0.8599407144454618  0.1086999233226892  0.7506443217468808
  0.8595786049795339  0.6082028308209608  0.2442996595587196
  0.8595786049795339  0.6082028308209608  0.7557003404412805
  0.1395528136311731  0.3916222675529807  0.2545168800482227
  0.1395528136311731  0.3916222675529807  0.7454831199517773
  0.1400035835780535  0.8898077536023398  0.2505565700399392
  0.1400035835780535  0.8898077536023398  0.7494434299600607
  0.6394726749400140  0.3892988118833929  0.2480931716910504
  0.6394726749400140  0.3892988118833929  0.7519068283089496
  0.6414777733254921  0.8886529986031233  0.2570072939415191
  0.6414777733254921  0.8886529986031233  0.7429927060584808
  0.3586799941570800  0.3909066459705630 -0.0000000000000000
  0.3592245130144057  0.8911680846121415 -0.0000000000000000
  0.3539419342947809  0.8946190515799164  0.5000000000000000
  0.8598400311675630  0.3906396275102141 -0.0000000000000000
  0.8592463409318851  0.8910995766345288 -0.0000000000000000
  0.8711947236940224  0.8883348100343614  0.5000000000000000
  0.1411400268170847  0.1092354613434741 -0.0000000000000000
  0.1442516402402285  0.1078889483750004  0.5000000000000000
  0.1407542422936559  0.6088920590223525 -0.0000000000000000
  0.1289886682520738  0.6152702948473494  0.5000000000000000
  0.6412079903598170  0.1089282490086421 -0.0000000000000000
  0.6394933461777715  0.1079385294794563  0.5000000000000000
  0.6399224476243419  0.6101091905900911 -0.0000000000000000
  0.1092545754345291  0.3583757870284163 -0.0000000000000000
  0.1029726800188884  0.3529092494726410  0.5000000000000000
  0.1089160996008412  0.8588605601382453 -0.0000000000000000
  0.1122962795328660  0.8608876172068999  0.5000000000000000
  0.6096288645029651  0.3593573491248399 -0.0000000000000000
  0.6091162236050495  0.8593270268335703 -0.0000000000000000
  0.5942291270880745  0.8532212893391742  0.5000000000000000
  0.3909678199491955  0.1405958996179728 -0.0000000000000000
  0.3931411109450006  0.1445575933083974  0.5000000000000000
  0.3903006162210939  0.6409755304814090 -0.0000000000000000
  0.8917848589130097  0.1404997566724015 -0.0000000000000000
  0.8930135470022916  0.1429891592156855  0.5000000000000000
  0.8903131488677811  0.6398795399436095 -0.0000000000000000
  0.9989415985852947  0.9967531215706286  0.1251345133367728
  0.0031697040722568  0.0038966786932023  0.6260347040401509
  0.0028033608628690  0.4972799477519229  0.1251213426421812
  0.9921659268356139  0.5130608539746901  0.6223347344410020
  0.5029616489421950  0.9976903968057684  0.1254128447569015
  0.4962373166103104  0.0025318332027119  0.6254047529176107
  0.4976996654184955  0.4979784976102379  0.1248634217974989
  0.5077749773977719  0.5110006528088494  0.6240876642967449
  0.0031697040722568  0.0038966786932023  0.3739652959598490
  0.9989415985852947  0.9967531215706286  0.8748654866632272
  0.9921659268356139  0.5130608539746901  0.3776652655589980
  0.0028033608628690  0.4972799477519229  0.8748786573578187
  0.4962373166103104  0.0025318332027119  0.3745952470823893
  0.5029616489421950  0.9976903968057684  0.8745871552430986
  0.4976996654184955  0.4979784976102379  0.8751365782025011
  0.2479329753817293  0.2466126499525235  0.3751416971126362
  0.2510687916102330  0.2540741988435162  0.8744481736757258
  0.2501119889662273  0.7488958360487457  0.3742322000067780
  0.2494568961710415  0.7506307730036791  0.8753588663123782
  0.7514894062017693  0.2499343834565569  0.8753383683795932
  0.7503808624151357  0.7543899433903051  0.8744425272793123
  0.2510687916102330  0.2540741988435162  0.1255518263242743
  0.2479329753817293  0.2466126499525235  0.6248583028873639
  0.2494568961710415  0.7506307730036791  0.1246411336876217
  0.2501119889662273  0.7488958360487457  0.6257677999932219
  0.7514894062017693  0.2499343834565569  0.1246616316204067
  0.7503740153085533  0.2495136174277916  0.6266960867987157
  0.7503808624151357  0.7543899433903051  0.1255574727206878
  0.7525470313927184  0.7240979669202005  0.6206205175134935
  0.7503740153085533  0.2495136174277916  0.3733039132012845
  0.8533381373492485  0.4106148971516704  0.5000000000000000
  0.3922276849787770  0.6430961267217231  0.5000000000000000
  0.5077749773977719  0.5110006528088494  0.3759123357032552
  0.3479343565269524  0.3926044172018078  0.5000000000000000
  0.7525470313927184  0.7240979669202005  0.3793794824865065
  0.6107246621002425  0.3704062298483154  0.5000000000000000
 
  0.00000000E+00  0.00000000E+00  0.00000000E+00
  0.00000000E+00  0.00000000E+00  0.00000000E+00
  0.00000000E+00  0.00000000E+00  0.00000000E+00
  0.00000000E+00  0.00000000E+00  0.00000000E+00
  0.00000000E+00  0.00000000E+00  0.00000000E+00
  0.00000000E+00  0.00000000E+00  0.00000000E+00
  0.00000000E+00  0.00000000E+00  0.00000000E+00
  0.00000000E+00  0.00000000E+00  0.00000000E+00
  0.00000000E+00  0.00000000E+00  0.00000000E+00
  0.00000000E+00  0.00000000E+00  0.00000000E+00
  0.00000000E+00  0.00000000E+00  0.00000000E+00
  0.00000000E+00  0.00000000E+00  0.00000000E+00
  0.00000000E+00  0.00000000E+00  0.00000000E+00
  0.00000000E+00  0.00000000E+00  0.00000000E+00
  0.00000000E+00  0.00000000E+00  0.00000000E+00
  0.00000000E+00  0.00000000E+00  0.00000000E+00
  0.00000000E+00  0.00000000E+00  0.00000000E+00
  0.00000000E+00  0.00000000E+00  0.00000000E+00
  0.00000000E+00  0.00000000E+00  0.00000000E+00
  0.00000000E+00  0.00000000E+00  0.00000000E+00
  0.00000000E+00  0.00000000E+00  0.00000000E+00
  0.00000000E+00  0.00000000E+00  0.00000000E+00
  0.00000000E+00  0.00000000E+00  0.00000000E+00
  0.00000000E+00  0.00000000E+00  0.00000000E+00
  0.00000000E+00  0.00000000E+00  0.00000000E+00
  0.00000000E+00  0.00000000E+00  0.00000000E+00
  0.00000000E+00  0.00000000E+00  0.00000000E+00
  0.00000000E+00  0.00000000E+00  0.00000000E+00
  0.00000000E+00  0.00000000E+00  0.00000000E+00
  0.00000000E+00  0.00000000E+00  0.00000000E+00
  0.00000000E+00  0.00000000E+00  0.00000000E+00
  0.00000000E+00  0.00000000E+00  0.00000000E+00
  0.00000000E+00  0.00000000E+00  0.00000000E+00
  0.00000000E+00  0.00000000E+00  0.00000000E+00
  0.00000000E+00  0.00000000E+00  0.00000000E+00
  0.00000000E+00  0.00000000E+00  0.00000000E+00
  0.00000000E+00  0.00000000E+00  0.00000000E+00
  0.00000000E+00  0.00000000E+00  0.00000000E+00
  0.00000000E+00  0.00000000E+00  0.00000000E+00
  0.00000000E+00  0.00000000E+00  0.00000000E+00
  0.00000000E+00  0.00000000E+00  0.00000000E+00
  0.00000000E+00  0.00000000E+00  0.00000000E+00
  0.00000000E+00  0.00000000E+00  0.00000000E+00
  0.00000000E+00  0.00000000E+00  0.00000000E+00
  0.00000000E+00  0.00000000E+00  0.00000000E+00
  0.00000000E+00  0.00000000E+00  0.00000000E+00
  0.00000000E+00  0.00000000E+00  0.00000000E+00
  0.00000000E+00  0.00000000E+00  0.00000000E+00
  0.00000000E+00  0.00000000E+00  0.00000000E+00
  0.00000000E+00  0.00000000E+00  0.00000000E+00
  0.00000000E+00  0.00000000E+00  0.00000000E+00
  0.00000000E+00  0.00000000E+00  0.00000000E+00
  0.00000000E+00  0.00000000E+00  0.00000000E+00
  0.00000000E+00  0.00000000E+00  0.00000000E+00
  0.00000000E+00  0.00000000E+00  0.00000000E+00
  0.00000000E+00  0.00000000E+00  0.00000000E+00
  0.00000000E+00  0.00000000E+00  0.00000000E+00
  0.00000000E+00  0.00000000E+00  0.00000000E+00
  0.00000000E+00  0.00000000E+00  0.00000000E+00
  0.00000000E+00  0.00000000E+00  0.00000000E+00
  0.00000000E+00  0.00000000E+00  0.00000000E+00
  0.00000000E+00  0.00000000E+00  0.00000000E+00
  0.00000000E+00  0.00000000E+00  0.00000000E+00
  0.00000000E+00  0.00000000E+00  0.00000000E+00
  0.00000000E+00  0.00000000E+00  0.00000000E+00
  0.00000000E+00  0.00000000E+00  0.00000000E+00
  0.00000000E+00  0.00000000E+00  0.00000000E+00
  0.00000000E+00  0.00000000E+00  0.00000000E+00
  0.00000000E+00  0.00000000E+00  0.00000000E+00
  0.00000000E+00  0.00000000E+00  0.00000000E+00
  0.00000000E+00  0.00000000E+00  0.00000000E+00
  0.00000000E+00  0.00000000E+00  0.00000000E+00
  0.00000000E+00  0.00000000E+00  0.00000000E+00
  0.00000000E+00  0.00000000E+00  0.00000000E+00
  0.00000000E+00  0.00000000E+00  0.00000000E+00
  0.00000000E+00  0.00000000E+00  0.00000000E+00
  0.00000000E+00  0.00000000E+00  0.00000000E+00
  0.00000000E+00  0.00000000E+00  0.00000000E+00
  0.00000000E+00  0.00000000E+00  0.00000000E+00
  0.00000000E+00  0.00000000E+00  0.00000000E+00
  0.00000000E+00  0.00000000E+00  0.00000000E+00
  0.00000000E+00  0.00000000E+00  0.00000000E+00
  0.00000000E+00  0.00000000E+00  0.00000000E+00
  0.00000000E+00  0.00000000E+00  0.00000000E+00
  0.00000000E+00  0.00000000E+00  0.00000000E+00
  0.00000000E+00  0.00000000E+00  0.00000000E+00
  0.00000000E+00  0.00000000E+00  0.00000000E+00
  0.00000000E+00  0.00000000E+00  0.00000000E+00
  0.00000000E+00  0.00000000E+00  0.00000000E+00
  0.00000000E+00  0.00000000E+00  0.00000000E+00
  0.00000000E+00  0.00000000E+00  0.00000000E+00
  0.00000000E+00  0.00000000E+00  0.00000000E+00
  0.00000000E+00  0.00000000E+00  0.00000000E+00
  0.00000000E+00  0.00000000E+00  0.00000000E+00
  0.00000000E+00  0.00000000E+00  0.00000000E+00
  0.00000000E+00  0.00000000E+00  0.00000000E+00
  0.00000000E+00  0.00000000E+00  0.00000000E+00
  0.00000000E+00  0.00000000E+00  0.00000000E+00
  0.00000000E+00  0.00000000E+00  0.00000000E+00
  0.00000000E+00  0.00000000E+00  0.00000000E+00
  0.00000000E+00  0.00000000E+00  0.00000000E+00
  0.00000000E+00  0.00000000E+00  0.00000000E+00
  0.00000000E+00  0.00000000E+00  0.00000000E+00
  0.00000000E+00  0.00000000E+00  0.00000000E+00
  0.00000000E+00  0.00000000E+00  0.00000000E+00
  0.00000000E+00  0.00000000E+00  0.00000000E+00
  0.00000000E+00  0.00000000E+00  0.00000000E+00
  0.00000000E+00  0.00000000E+00  0.00000000E+00
  0.00000000E+00  0.00000000E+00  0.00000000E+00
  0.00000000E+00  0.00000000E+00  0.00000000E+00
  0.00000000E+00  0.00000000E+00  0.00000000E+00
  0.00000000E+00  0.00000000E+00  0.00000000E+00
  0.00000000E+00  0.00000000E+00  0.00000000E+00
  0.00000000E+00  0.00000000E+00  0.00000000E+00
  0.00000000E+00  0.00000000E+00  0.00000000E+00
  0.00000000E+00  0.00000000E+00  0.00000000E+00
  0.00000000E+00  0.00000000E+00  0.00000000E+00
  0.00000000E+00  0.00000000E+00  0.00000000E+00
  0.00000000E+00  0.00000000E+00  0.00000000E+00
  0.00000000E+00  0.00000000E+00  0.00000000E+00
  0.00000000E+00  0.00000000E+00  0.00000000E+00
  0.00000000E+00  0.00000000E+00  0.00000000E+00
  0.00000000E+00  0.00000000E+00  0.00000000E+00
  0.00000000E+00  0.00000000E+00  0.00000000E+00
  0.00000000E+00  0.00000000E+00  0.00000000E+00
  0.00000000E+00  0.00000000E+00  0.00000000E+00
  0.00000000E+00  0.00000000E+00  0.00000000E+00
  0.00000000E+00  0.00000000E+00  0.00000000E+00
  0.00000000E+00  0.00000000E+00  0.00000000E+00
  0.00000000E+00  0.00000000E+00  0.00000000E+00
  0.00000000E+00  0.00000000E+00  0.00000000E+00
  0.00000000E+00  0.00000000E+00  0.00000000E+00
  0.00000000E+00  0.00000000E+00  0.00000000E+00
  0.00000000E+00  0.00000000E+00  0.00000000E+00
  0.00000000E+00  0.00000000E+00  0.00000000E+00
  0.00000000E+00  0.00000000E+00  0.00000000E+00
  0.00000000E+00  0.00000000E+00  0.00000000E+00
  0.00000000E+00  0.00000000E+00  0.00000000E+00
  0.00000000E+00  0.00000000E+00  0.00000000E+00
  0.00000000E+00  0.00000000E+00  0.00000000E+00
  0.00000000E+00  0.00000000E+00  0.00000000E+00
  0.00000000E+00  0.00000000E+00  0.00000000E+00
  0.00000000E+00  0.00000000E+00  0.00000000E+00
  0.00000000E+00  0.00000000E+00  0.00000000E+00
  0.00000000E+00  0.00000000E+00  0.00000000E+00
  0.00000000E+00  0.00000000E+00  0.00000000E+00
  0.00000000E+00  0.00000000E+00  0.00000000E+00
  0.00000000E+00  0.00000000E+00  0.00000000E+00
  0.00000000E+00  0.00000000E+00  0.00000000E+00
  0.00000000E+00  0.00000000E+00  0.00000000E+00
  0.00000000E+00  0.00000000E+00  0.00000000E+00
  0.00000000E+00  0.00000000E+00  0.00000000E+00
  0.00000000E+00  0.00000000E+00  0.00000000E+00
  0.00000000E+00  0.00000000E+00  0.00000000E+00
  0.00000000E+00  0.00000000E+00  0.00000000E+00
  0.00000000E+00  0.00000000E+00  0.00000000E+00
  0.00000000E+00  0.00000000E+00  0.00000000E+00
  0.00000000E+00  0.00000000E+00  0.00000000E+00
