SrTiFeO                                 
   1.00000000000000     
    11.1989999999999998    0.0000000000000000    0.0000000000000000
     0.0000000000000000   11.1989999999999998    0.0000000000000000
     0.0000000000000000    0.0000000000000000   15.9830000000000005
   Sr   Ti   Fe   O 
    32    29     3    94
Direct
  0.9985045130870390  0.2507890929024465  0.1245862801929072
  0.0027625835112038  0.2435234704760941  0.6275951658377540
  0.9987256745332437  0.7493357317541206  0.1245910921953100
  0.0043301043128595  0.7555822431631051  0.6286430722006726
  0.5013792943992034  0.2511632723128115  0.1246901357412217
  0.4968372591116976  0.2453295084620205  0.6285090335106643
  0.5015788788445007  0.7487086883407278  0.1248859728961506
  0.5011919716931267  0.7517803718265347  0.6246026235247369
  0.0027625835112038  0.2435234704760941  0.3724048341622455
  0.9985045130870390  0.2507890929024465  0.8754137198070928
  0.0043301043128595  0.7555822431631051  0.3713569277993281
  0.9987256745332437  0.7493357317541206  0.8754089078046896
  0.4968372591116976  0.2453295084620205  0.3714909664893438
  0.5013792943992034  0.2511632723128115  0.8753098642587792
  0.5011919716931267  0.7517803718265347  0.3753973764752632
  0.5015788788445007  0.7487086883407278  0.8751140271038493
  0.2500607308226199  0.0004601683170899  0.1248966147571663
  0.2505258898687490 -0.0001736882536657  0.6248744167911591
  0.2506319739850131  0.4999069299297095  0.1259356174662789
  0.2549824055510050  0.5001312987899836  0.6243519447555903
  0.7500389301904864  0.9999393324874992  0.1264596576654729
  0.7502354080249318  0.9953846573715179  0.6213521312626439
  0.7490615606313251  0.5000529084863934  0.1227836182441619
  0.7473247545815009  0.4998526531065363  0.6298460335947571
  0.2505258898687490 -0.0001736882536657  0.3751255832088410
  0.2500607308226199  0.0004601683170899  0.8751033852428338
  0.2549824055510050  0.5001312987899836  0.3756480552444102
  0.2506319739850131  0.4999069299297095  0.8740643825337213
  0.7502354080249318  0.9953846573715179  0.3786478687373560
  0.7500389301904864  0.9999393324874992  0.8735403423345278
  0.7473247545815009  0.4998526531065363  0.3701539664052361
  0.7490615606313251  0.5000529084863934  0.8772163817558382
  0.9997156946238595  0.0004786108278364 -0.0000000000000000
  0.0002487659173915  0.9973305070777170  0.5000000000000000
  0.0008856745570479  0.4992568036399287 -0.0000000000000000
  0.0050362321755354  0.4873819788973801  0.5000000000000000
  0.5000527649004786  0.9996356796497174 -0.0000000000000000
  0.5023623865808154  1.0002145711966182  0.5000000000000000
  0.4991826217157666  0.5006675532965932 -0.0000000000000000
  0.2495645106022024  0.2504185559263568 -0.0000000000000000
  0.2566498671537134  0.2455059630729145  0.5000000000000000
  0.2503457081364964  0.7499886856679665 -0.0000000000000000
  0.2488331991283329  0.7533397477943096  0.5000000000000000
  0.7506475630413877  0.2490253895482387 -0.0000000000000000
  0.7493828184532831  0.7509702936994500 -0.0000000000000000
  0.2497638662009233  0.2503478939260807  0.2497419903594887
  0.2497638662009233  0.2503478939260807  0.7502580096405114
  0.2509509341085714  0.7496752850551037  0.2499003323703649
  0.2509509341085714  0.7496752850551037  0.7500996676296353
  0.7490840567323784  0.2506162440461961  0.2524178313244352
  0.7490840567323784  0.2506162440461961  0.7475821686755644
  0.7512321938847653  0.7487218282015899  0.2519671833817342
  0.7512321938847653  0.7487218282015899  0.7480328166182661
  0.9999921651361587  0.0002006534950209  0.2497391298872653
  0.9999921651361587  0.0002006534950209  0.7502608701127349
  0.9990566078595321  0.5009327617360952  0.2501587166655103
  0.9990566078595321  0.5009327617360952  0.7498412833344898
  0.5006224330740040  0.9993037830264778  0.2500131465093394
  0.5006224330740040  0.9993037830264778  0.7499868534906599
  0.5006863689636973  0.4989362711987796  0.2514264421449826
  0.5006863689636973  0.4989362711987796  0.7485735578550179
  0.7619435944574166  0.2435580577601001  0.5000000000000000
  0.4935333990194823  0.5110147422341540  0.5000000000000000
  0.7431774561670833  0.7466544423087040  0.5000000000000000
  0.1091569641769485  0.1412399550899965  0.2485814386141772
  0.1091569641769485  0.1412399550899965  0.7514185613858225
  0.1095716504525009  0.6406915410484071  0.2497125380997539
  0.1095716504525009  0.6406915410484071  0.7502874619002462
  0.6092207168011654  0.1402608071457392  0.2489939915943678
  0.6092207168011654  0.1402608071457392  0.7510060084056319
  0.6091249659163808  0.6402511601810041  0.2521294190431936
  0.6091249659163808  0.6402511601810041  0.7478705809568061
  0.3892067881235785  0.3590390920080416  0.2480988081667021
  0.3892067881235785  0.3590390920080416  0.7519011918332984
  0.3912185753479479  0.8586427562738005  0.2501257153227429
  0.3912185753479479  0.8586427562738005  0.7498742846772575
  0.8912280054638075  0.3593429229245024  0.2534721115611477
  0.8912280054638075  0.3593429229245024  0.7465278884388523
  0.8913593939961812  0.8604769940577580  0.2483924944268250
  0.8913593939961812  0.8604769940577580  0.7516075055731749
  0.3594141321533538  0.1101737398320287  0.2497818910424555
  0.3594141321533538  0.1101737398320287  0.7502181089575443
  0.3598067686870005  0.6087705418699979  0.2535190299187534
  0.3598067686870005  0.6087705418699979  0.7464809700812465
  0.8587087706361475  0.1106942006986072  0.2562557079123037
  0.8587087706361475  0.1106942006986072  0.7437442920876964
  0.8600747673374816  0.6087943361247878  0.2429549619892595
  0.8600747673374816  0.6087943361247878  0.7570450380107402
  0.1391732952233235  0.3920405205401399  0.2561990662402205
  0.1391732952233235  0.3920405205401399  0.7438009337597792
  0.1405278530582286  0.8902610328163529  0.2495801639371314
  0.1405278530582286  0.8902610328163529  0.7504198360628688
  0.6403075612354604  0.3902918485868366  0.2439533134555093
  0.6403075612354604  0.3902918485868366  0.7560466865444907
  0.6412121406071107  0.8899292540412381  0.2543492380789708
  0.6412121406071107  0.8899292540412381  0.7456507619210290
  0.3589927405038151  0.3907274033816194 -0.0000000000000000
  0.3583887743128483  0.8914318319996816 -0.0000000000000000
  0.3581094695837198  0.8908973697888137  0.5000000000000000
  0.8600437597161240  0.3903443428566547 -0.0000000000000000
  0.8594299465713624  0.8910397112384041 -0.0000000000000000
  0.8693392486525726  0.8888955466454037  0.5000000000000000
  0.1413610748801108  0.1087192230076917 -0.0000000000000000
  0.1415912116222663  0.1121975694196114  0.5000000000000000
  0.1406052616214112  0.6091255517074634 -0.0000000000000000
  0.1246569141473593  0.6178834827909306  0.5000000000000000
  0.6407228225998884  0.1092548206146378 -0.0000000000000000
  0.6332015962324244  0.1221313169015863  0.5000000000000000
  0.6400203491560716  0.6098486836960179 -0.0000000000000000
  0.1089765429495803  0.3584182257114452 -0.0000000000000000
  0.1098926508579737  0.3603578655217493  0.5000000000000000
  0.1090634601950215  0.8593732650696853 -0.0000000000000000
  0.1131755946074223  0.8628119192973329  0.5000000000000000
  0.6103215583050864  0.3598340207194229 -0.0000000000000000
  0.6080933231758473  0.8596233796436396 -0.0000000000000000
  0.6063656031274776  0.8670436360074436  0.5000000000000000
  0.3905212751060265  0.1410116389564551 -0.0000000000000000
  0.3885187333777682  0.1386478536263236  0.5000000000000000
  0.3904043704867176  0.6417248953479574 -0.0000000000000000
  0.8916281558702205  0.1408620578187209 -0.0000000000000000
  0.8941422508503597  0.1412104165198470  0.5000000000000000
  0.8904858062936118  0.6394833503554959 -0.0000000000000000
  0.9982487510120275  0.0023171782001901  0.1252061840730484
  0.0039755049254775  1.0007982045489423  0.6257767214050105
  0.0032022598507771  0.4962593923307648  0.1254999607865018
  0.9875042279462534  0.5153528903363372  0.6213965871860623
  0.5006768252079253  0.9987079163817464  0.1252833825846799
  0.4974682013652215  0.0017092754053290  0.6256096126471838
  0.4977711506085400  0.5024001464274791  0.1247163325435799
  0.5040373032892524  0.4869356636815280  0.6251800195451577
  0.0039755049254775  1.0007982045489423  0.3742232785949890
  0.9982487510120275  0.0023171782001901  0.8747938159269517
  0.9875042279462534  0.5153528903363372  0.3786034128139374
  0.0032022598507771  0.4962593923307648  0.8745000392134982
  0.4974682013652215  0.0017092754053290  0.3743903873528161
  0.5006768252079253  0.9987079163817464  0.8747166174153199
  0.4977711506085400  0.5024001464274791  0.8752836674564196
  0.2498536132074551  0.2494841141034977  0.3749639739886337
  0.2475668644066438  0.2521885506627270  0.8747881572095949
  0.2487897866656933  0.7506093532604043  0.3749625900049786
  0.2511467758167868  0.7487382447940466  0.8747217798131774
  0.7535453281418284  0.2477454214268363  0.8745028858319217
  0.7474377255168798  0.7521894035518656  0.8753856678491480
  0.2475668644066438  0.2521885506627270  0.1252118427904049
  0.2498536132074551  0.2494841141034977  0.6250360260113662
  0.2511467758167868  0.7487382447940466  0.1252782201868226
  0.2487897866656933  0.7506093532604043  0.6250374099950218
  0.7535453281418284  0.2477454214268363  0.1254971141680785
  0.7361460420072217  0.2621604426979788  0.6224454957769299
  0.7474377255168798  0.7521894035518656  0.1246143321508521
  0.7631948722127415  0.7405367151604240  0.6262650202507147
  0.7361460420072217  0.2621604426979788  0.3775545042230700
  0.8527198896550597  0.4016781946365459  0.5000000000000000
  0.3846388786746849  0.6410939417594749  0.5000000000000000
  0.5040373032892524  0.4869356636815280  0.3748199804548428
  0.3690686180522189  0.3829610856555275  0.5000000000000000
  0.7631948722127415  0.7405367151604240  0.3737349797492849
  0.6450815811729562  0.5868558639712133  0.5000000000000000
 
  0.00000000E+00  0.00000000E+00  0.00000000E+00
  0.00000000E+00  0.00000000E+00  0.00000000E+00
  0.00000000E+00  0.00000000E+00  0.00000000E+00
  0.00000000E+00  0.00000000E+00  0.00000000E+00
  0.00000000E+00  0.00000000E+00  0.00000000E+00
  0.00000000E+00  0.00000000E+00  0.00000000E+00
  0.00000000E+00  0.00000000E+00  0.00000000E+00
  0.00000000E+00  0.00000000E+00  0.00000000E+00
  0.00000000E+00  0.00000000E+00  0.00000000E+00
  0.00000000E+00  0.00000000E+00  0.00000000E+00
  0.00000000E+00  0.00000000E+00  0.00000000E+00
  0.00000000E+00  0.00000000E+00  0.00000000E+00
  0.00000000E+00  0.00000000E+00  0.00000000E+00
  0.00000000E+00  0.00000000E+00  0.00000000E+00
  0.00000000E+00  0.00000000E+00  0.00000000E+00
  0.00000000E+00  0.00000000E+00  0.00000000E+00
  0.00000000E+00  0.00000000E+00  0.00000000E+00
  0.00000000E+00  0.00000000E+00  0.00000000E+00
  0.00000000E+00  0.00000000E+00  0.00000000E+00
  0.00000000E+00  0.00000000E+00  0.00000000E+00
  0.00000000E+00  0.00000000E+00  0.00000000E+00
  0.00000000E+00  0.00000000E+00  0.00000000E+00
  0.00000000E+00  0.00000000E+00  0.00000000E+00
  0.00000000E+00  0.00000000E+00  0.00000000E+00
  0.00000000E+00  0.00000000E+00  0.00000000E+00
  0.00000000E+00  0.00000000E+00  0.00000000E+00
  0.00000000E+00  0.00000000E+00  0.00000000E+00
  0.00000000E+00  0.00000000E+00  0.00000000E+00
  0.00000000E+00  0.00000000E+00  0.00000000E+00
  0.00000000E+00  0.00000000E+00  0.00000000E+00
  0.00000000E+00  0.00000000E+00  0.00000000E+00
  0.00000000E+00  0.00000000E+00  0.00000000E+00
  0.00000000E+00  0.00000000E+00  0.00000000E+00
  0.00000000E+00  0.00000000E+00  0.00000000E+00
  0.00000000E+00  0.00000000E+00  0.00000000E+00
  0.00000000E+00  0.00000000E+00  0.00000000E+00
  0.00000000E+00  0.00000000E+00  0.00000000E+00
  0.00000000E+00  0.00000000E+00  0.00000000E+00
  0.00000000E+00  0.00000000E+00  0.00000000E+00
  0.00000000E+00  0.00000000E+00  0.00000000E+00
  0.00000000E+00  0.00000000E+00  0.00000000E+00
  0.00000000E+00  0.00000000E+00  0.00000000E+00
  0.00000000E+00  0.00000000E+00  0.00000000E+00
  0.00000000E+00  0.00000000E+00  0.00000000E+00
  0.00000000E+00  0.00000000E+00  0.00000000E+00
  0.00000000E+00  0.00000000E+00  0.00000000E+00
  0.00000000E+00  0.00000000E+00  0.00000000E+00
  0.00000000E+00  0.00000000E+00  0.00000000E+00
  0.00000000E+00  0.00000000E+00  0.00000000E+00
  0.00000000E+00  0.00000000E+00  0.00000000E+00
  0.00000000E+00  0.00000000E+00  0.00000000E+00
  0.00000000E+00  0.00000000E+00  0.00000000E+00
  0.00000000E+00  0.00000000E+00  0.00000000E+00
  0.00000000E+00  0.00000000E+00  0.00000000E+00
  0.00000000E+00  0.00000000E+00  0.00000000E+00
  0.00000000E+00  0.00000000E+00  0.00000000E+00
  0.00000000E+00  0.00000000E+00  0.00000000E+00
  0.00000000E+00  0.00000000E+00  0.00000000E+00
  0.00000000E+00  0.00000000E+00  0.00000000E+00
  0.00000000E+00  0.00000000E+00  0.00000000E+00
  0.00000000E+00  0.00000000E+00  0.00000000E+00
  0.00000000E+00  0.00000000E+00  0.00000000E+00
  0.00000000E+00  0.00000000E+00  0.00000000E+00
  0.00000000E+00  0.00000000E+00  0.00000000E+00
  0.00000000E+00  0.00000000E+00  0.00000000E+00
  0.00000000E+00  0.00000000E+00  0.00000000E+00
  0.00000000E+00  0.00000000E+00  0.00000000E+00
  0.00000000E+00  0.00000000E+00  0.00000000E+00
  0.00000000E+00  0.00000000E+00  0.00000000E+00
  0.00000000E+00  0.00000000E+00  0.00000000E+00
  0.00000000E+00  0.00000000E+00  0.00000000E+00
  0.00000000E+00  0.00000000E+00  0.00000000E+00
  0.00000000E+00  0.00000000E+00  0.00000000E+00
  0.00000000E+00  0.00000000E+00  0.00000000E+00
  0.00000000E+00  0.00000000E+00  0.00000000E+00
  0.00000000E+00  0.00000000E+00  0.00000000E+00
  0.00000000E+00  0.00000000E+00  0.00000000E+00
  0.00000000E+00  0.00000000E+00  0.00000000E+00
  0.00000000E+00  0.00000000E+00  0.00000000E+00
  0.00000000E+00  0.00000000E+00  0.00000000E+00
  0.00000000E+00  0.00000000E+00  0.00000000E+00
  0.00000000E+00  0.00000000E+00  0.00000000E+00
  0.00000000E+00  0.00000000E+00  0.00000000E+00
  0.00000000E+00  0.00000000E+00  0.00000000E+00
  0.00000000E+00  0.00000000E+00  0.00000000E+00
  0.00000000E+00  0.00000000E+00  0.00000000E+00
  0.00000000E+00  0.00000000E+00  0.00000000E+00
  0.00000000E+00  0.00000000E+00  0.00000000E+00
  0.00000000E+00  0.00000000E+00  0.00000000E+00
  0.00000000E+00  0.00000000E+00  0.00000000E+00
  0.00000000E+00  0.00000000E+00  0.00000000E+00
  0.00000000E+00  0.00000000E+00  0.00000000E+00
  0.00000000E+00  0.00000000E+00  0.00000000E+00
  0.00000000E+00  0.00000000E+00  0.00000000E+00
  0.00000000E+00  0.00000000E+00  0.00000000E+00
  0.00000000E+00  0.00000000E+00  0.00000000E+00
  0.00000000E+00  0.00000000E+00  0.00000000E+00
  0.00000000E+00  0.00000000E+00  0.00000000E+00
  0.00000000E+00  0.00000000E+00  0.00000000E+00
  0.00000000E+00  0.00000000E+00  0.00000000E+00
  0.00000000E+00  0.00000000E+00  0.00000000E+00
  0.00000000E+00  0.00000000E+00  0.00000000E+00
  0.00000000E+00  0.00000000E+00  0.00000000E+00
  0.00000000E+00  0.00000000E+00  0.00000000E+00
  0.00000000E+00  0.00000000E+00  0.00000000E+00
  0.00000000E+00  0.00000000E+00  0.00000000E+00
  0.00000000E+00  0.00000000E+00  0.00000000E+00
  0.00000000E+00  0.00000000E+00  0.00000000E+00
  0.00000000E+00  0.00000000E+00  0.00000000E+00
  0.00000000E+00  0.00000000E+00  0.00000000E+00
  0.00000000E+00  0.00000000E+00  0.00000000E+00
  0.00000000E+00  0.00000000E+00  0.00000000E+00
  0.00000000E+00  0.00000000E+00  0.00000000E+00
  0.00000000E+00  0.00000000E+00  0.00000000E+00
  0.00000000E+00  0.00000000E+00  0.00000000E+00
  0.00000000E+00  0.00000000E+00  0.00000000E+00
  0.00000000E+00  0.00000000E+00  0.00000000E+00
  0.00000000E+00  0.00000000E+00  0.00000000E+00
  0.00000000E+00  0.00000000E+00  0.00000000E+00
  0.00000000E+00  0.00000000E+00  0.00000000E+00
  0.00000000E+00  0.00000000E+00  0.00000000E+00
  0.00000000E+00  0.00000000E+00  0.00000000E+00
  0.00000000E+00  0.00000000E+00  0.00000000E+00
  0.00000000E+00  0.00000000E+00  0.00000000E+00
  0.00000000E+00  0.00000000E+00  0.00000000E+00
  0.00000000E+00  0.00000000E+00  0.00000000E+00
  0.00000000E+00  0.00000000E+00  0.00000000E+00
  0.00000000E+00  0.00000000E+00  0.00000000E+00
  0.00000000E+00  0.00000000E+00  0.00000000E+00
  0.00000000E+00  0.00000000E+00  0.00000000E+00
  0.00000000E+00  0.00000000E+00  0.00000000E+00
  0.00000000E+00  0.00000000E+00  0.00000000E+00
  0.00000000E+00  0.00000000E+00  0.00000000E+00
  0.00000000E+00  0.00000000E+00  0.00000000E+00
  0.00000000E+00  0.00000000E+00  0.00000000E+00
  0.00000000E+00  0.00000000E+00  0.00000000E+00
  0.00000000E+00  0.00000000E+00  0.00000000E+00
  0.00000000E+00  0.00000000E+00  0.00000000E+00
  0.00000000E+00  0.00000000E+00  0.00000000E+00
  0.00000000E+00  0.00000000E+00  0.00000000E+00
  0.00000000E+00  0.00000000E+00  0.00000000E+00
  0.00000000E+00  0.00000000E+00  0.00000000E+00
  0.00000000E+00  0.00000000E+00  0.00000000E+00
  0.00000000E+00  0.00000000E+00  0.00000000E+00
  0.00000000E+00  0.00000000E+00  0.00000000E+00
  0.00000000E+00  0.00000000E+00  0.00000000E+00
  0.00000000E+00  0.00000000E+00  0.00000000E+00
  0.00000000E+00  0.00000000E+00  0.00000000E+00
  0.00000000E+00  0.00000000E+00  0.00000000E+00
  0.00000000E+00  0.00000000E+00  0.00000000E+00
  0.00000000E+00  0.00000000E+00  0.00000000E+00
  0.00000000E+00  0.00000000E+00  0.00000000E+00
  0.00000000E+00  0.00000000E+00  0.00000000E+00
  0.00000000E+00  0.00000000E+00  0.00000000E+00
  0.00000000E+00  0.00000000E+00  0.00000000E+00
  0.00000000E+00  0.00000000E+00  0.00000000E+00
  0.00000000E+00  0.00000000E+00  0.00000000E+00
  0.00000000E+00  0.00000000E+00  0.00000000E+00
