SrTiFeO                                 
   1.00000000000000     
    11.1989999999999998    0.0000000000000000    0.0000000000000000
     0.0000000000000000   11.1989999999999998    0.0000000000000000
     0.0000000000000000    0.0000000000000000   15.9830000000000005
   Sr   Ti   Fe   O 
    32    31     1    94
Direct
  1.0006137914376450  0.2495802904297385  0.1234029029897193
  0.0023437867132174  0.2472430989000462  0.6288170439607570
  0.9988299921437601  0.7497680523539278  0.1254699663907742
  0.9968780867537362  0.7501676962424746  0.6256825311470996
  0.5010139807812664  0.2505875777045024  0.1254056800374597
  0.4991594392704476  0.2458376166842786  0.6263144568962365
  0.4993850851008095  0.7512279670478929  0.1234665169611718
  0.4987428651226404  0.7534561796022037  0.6290414720437782
  0.0023437867132174  0.2472430989000462  0.3711829560392425
  1.0006137914376450  0.2495802904297385  0.8765970970102808
  0.9968780867537362  0.7501676962424746  0.3743174688529010
  0.9988299921437601  0.7497680523539278  0.8745300336092267
  0.4991594392704476  0.2458376166842786  0.3736855431037631
  0.5010139807812664  0.2505875777045024  0.8745943199625399
  0.4987428651226404  0.7534561796022037  0.3709585279562219
  0.4993850851008095  0.7512279670478929  0.8765334830388295
  0.2498998519074826  0.9996991946295818  0.1250183575280566
  0.2492785618594931  0.9991929507985920  0.6271157298712495
  0.2503067780830063  0.5007736927298259  0.1240194630409394
  0.2463958507865012  0.4999148570864219  0.6284495078929347
  0.7501121107009692  0.9994637922136845  0.1246746201447013
  0.7486443225330095  0.9945412804636219  0.6255726737786755
  0.7495759667931526  0.5003674464336975  0.1237998947001801
  0.7520802474144254  0.4992109174696122  0.6309014729761000
  0.2492785618594931  0.9991929507985920  0.3728842701287509
  0.2498998519074826  0.9996991946295818  0.8749816424719434
  0.2463958507865012  0.4999148570864219  0.3715504921070650
  0.2503067780830063  0.5007736927298259  0.8759805369590606
  0.7486443225330095  0.9945412804636219  0.3744273262213243
  0.7501121107009692  0.9994637922136845  0.8753253798552981
  0.7520802474144254  0.4992109174696122  0.3690985270238998
  0.7495759667931526  0.5003674464336975  0.8762001052998192
  0.9996882082592973  0.9994965243299962  0.0000000000000000
  0.9983874949860223  0.9987614706928720  0.5000000000000000
  0.0005410257820529  0.5003087968827282  0.0000000000000000
  0.0031627304994647  0.5008304281357518  0.5000000000000000
  0.5003268199356953  0.0008981148430601  0.0000000000000000
  0.4964582821052360  0.9950554533136846  0.5000000000000000
  0.4994134064498110  0.4997462693271216  0.0000000000000000
  0.2510644112110174  0.2504830242156033  0.0000000000000000
  0.2453341630654194  0.2428687471059000  0.5000000000000000
  0.2491740149280707  0.7498518617278853  0.0000000000000000
  0.2496392001328866  0.7518899485456537  0.5000000000000000
  0.7499604338599827  0.2495437907728195  0.0000000000000000
  0.7502582671208796  0.7506656388978917  0.0000000000000000
  0.2506242654970864  0.2502576496171413  0.2498171844473160
  0.2506242654970864  0.2502576496171413  0.7501828155526841
  0.2490618713743284  0.7497507572570883  0.2499563210511655
  0.2490618713743284  0.7497507572570883  0.7500436789488347
  0.7509924840690743  0.2500876263061742  0.2493877511826505
  0.7509924840690743  0.2500876263061742  0.7506122488173499
  0.7487341918787114  0.7487354902794374  0.2508116797727618
  0.7487341918787114  0.7487354902794374  0.7491883202272386
  0.9993500534113162  0.9996597306333116  0.2500193242558638
  0.9993500534113162  0.9996597306333116  0.7499806757441364
  0.9998072143058618  0.4988806845474071  0.2488702601562377
  0.9998072143058618  0.4988806845474071  0.7511297398437629
  0.5001009802083157  0.0005451950856277  0.2496726013738931
  0.5001009802083157  0.0005451950856277  0.7503273986261064
  0.5006249840416581  0.5010578149745171  0.2494248777414841
  0.5006249840416581  0.5010578149745171  0.7505751222585169
  0.7488760328240440  0.2443676210470551  0.5000000000000000
  0.4900154246593405  0.4950962393103628  0.5000000000000000
  0.7533817888795689  0.7513432284029333  0.5000000000000000
  0.1109458539971131  0.1401265931173539  0.2479935073626939
  0.1109458539971131  0.1401265931173539  0.7520064926373063
  0.1087005807164225  0.6394537948569599  0.2541655091246576
  0.1087005807164225  0.6394537948569599  0.7458344908753425
  0.6108085706998045  0.1411156106369779  0.2535707689318293
  0.6108085706998045  0.1411156106369779  0.7464292310681703
  0.6087770802092601  0.6403370607309102  0.2441797962239966
  0.6087770802092601  0.6403370607309102  0.7558202037760033
  0.3914888641946183  0.3614338268467409  0.2557596440233104
  0.3914888641946183  0.3614338268467409  0.7442403559766897
  0.3888697152836060  0.8612043871909932  0.2488503885187145
  0.3888697152836060  0.8612043871909932  0.7511496114812856
  0.8909333794424810  0.3592630064971111  0.2463914537232335
  0.8909333794424810  0.3592630064971111  0.7536085462767659
  0.8892123836750904  0.8593066737648816  0.2537812881696218
  0.8892123836750904  0.8593066737648816  0.7462187118303794
  0.3606943140369036  0.1115706481654653  0.2495686142310787
  0.3606943140369036  0.1115706481654653  0.7504313857689215
  0.3596284172338717  0.6094709102764019  0.2514080714550054
  0.3596284172338717  0.6094709102764019  0.7485919285449951
  0.8593160280213370  0.1093108488187284  0.2515711805533348
  0.8593160280213370  0.1093108488187284  0.7484288194466657
  0.8602379601957221  0.6089488834055163  0.2477950377755641
  0.8602379601957221  0.6089488834055163  0.7522049622244368
  0.1414263878945793  0.3905771491460282  0.2495696515141662
  0.1414263878945793  0.3905771491460282  0.7504303484858335
  0.1389158402128049  0.8893382435460855  0.2500739894578068
  0.1389158402128049  0.8893382435460855  0.7499260105421930
  0.6402133448357344  0.3904150678377922  0.2492389104396487
  0.6402133448357344  0.3904150678377922  0.7507610895603517
  0.6394912884092634  0.8903698714667283  0.2503424460187974
  0.6394912884092634  0.8903698714667283  0.7496575539812035
  0.3589128671023802  0.3910905822247465  0.0000000000000000
  0.3595617036890178  0.8905958994927288  0.0000000000000000
  0.3520534453511345  0.8959908997828899  0.5000000000000000
  0.8600479292839514  0.3901849549671458  0.0000000000000000
  0.8594322156531116  0.8911707181823266  0.0000000000000000
  0.8605069067720064  0.9007021077654260  0.5000000000000000
  0.1410096170639600  0.1098542104592255  0.0000000000000000
  0.1465763689679947  0.1031269272847755  0.5000000000000000
  0.1408014666977316  0.6091842968063158  0.0000000000000000
  0.1442087068500847  0.6062767500023177  0.5000000000000000
  0.6409273403014960  0.1091832121275629  0.0000000000000000
  0.6395837133238350  0.1158029489302590  0.5000000000000000
  0.6396314430014187  0.6098237663710417  0.0000000000000000
  0.1098985601759034  0.3589251390253201  0.0000000000000000
  0.1066115575684020  0.3527148568112542  0.5000000000000000
  0.1091558262542092  0.8594672237493599  0.0000000000000000
  0.1044607139843888  0.8535735095183575  0.5000000000000000
  0.6096708271210074  0.3598509465677498  0.0000000000000000
  0.6091605590423733  0.8599239122948369  0.0000000000000000
  0.6004820496071378  0.8617107154405085  0.5000000000000000
  0.3910588269266400  0.1413355149901874  0.0000000000000000
  0.3931514057654409  0.1461279755988731  0.5000000000000000
  0.3904128929244585  0.6405761720168329  0.0000000000000000
  0.8910341311582172  0.1405684583463654  0.0000000000000000
  0.8969528746069583  0.1524001685834729  0.5000000000000000
  0.8903952567409276  0.6401684035882036  0.0000000000000000
  0.9983864326325879  0.9988313190871971  0.1253859394524888
  0.0025512148401272  0.0024543340026842  0.6250170118443473
  0.0027287373260608  0.5009963807460777  0.1247740098759526
  0.9952199357295878  0.4914259737686464  0.6245388208632259
  0.5010577444987715  0.0020984730580795  0.1252595952700751
  0.4977388485189893  0.0019052123503533  0.6252653247621570
  0.4970427515467470  0.4973736924478004  0.1252970861153124
  0.5129411077709054  0.5122042973861130  0.6217261494342714
  0.0025512148401272  0.0024543340026842  0.3749829881556533
  0.9983864326325879  0.9988313190871971  0.8746140605475108
  0.9952199357295878  0.4914259737686464  0.3754611791367747
  0.0027287373260608  0.5009963807460777  0.8752259901240477
  0.4977388485189893  0.0019052123503533  0.3747346752378425
  0.5010577444987715  0.0020984730580795  0.8747404047299246
  0.4970427515467470  0.4973736924478004  0.8747029138846872
  0.2491428188350691  0.2495177633102552  0.3751038868922568
  0.2530850971046631  0.2523684093897532  0.8746500030262613
  0.2509938671533412  0.7501114440941531  0.3757993365322271
  0.2482724177813750  0.7482109768606939  0.8744646698642451
  0.7488303891071730  0.2480923631257978  0.8747189742634148
  0.7517532305235579  0.7523305435543634  0.8755635262533185
  0.2530850971046631  0.2523684093897532  0.1253499969737387
  0.2491428188350691  0.2495177633102552  0.6248961131077432
  0.2482724177813750  0.7482109768606939  0.1255353301357548
  0.2509938671533412  0.7501114440941531  0.6242006634677725
  0.7488303891071730  0.2480923631257978  0.1252810257365854
  0.7578602067445185  0.2599931886851886  0.6228762879273858
  0.7517532305235579  0.7523305435543634  0.1244364737466819
  0.7422136900633546  0.7394588894417150  0.6265900578313999
  0.7578602067445185  0.2599931886851886  0.3771237120726137
  0.4028511811747114  0.6465579607403721  0.5000000000000000
  0.5129411077709054  0.5122042973861130  0.3782738505657292
  0.3615789822369346  0.3920424650429510  0.5000000000000000
  0.8660075495158380  0.6032087506029424  0.5000000000000000
  0.7422136900633546  0.7394588894417150  0.3734099421686004
  0.6341108535927845  0.3874066009256011  0.5000000000000000
 
  0.00000000E+00  0.00000000E+00  0.00000000E+00
  0.00000000E+00  0.00000000E+00  0.00000000E+00
  0.00000000E+00  0.00000000E+00  0.00000000E+00
  0.00000000E+00  0.00000000E+00  0.00000000E+00
  0.00000000E+00  0.00000000E+00  0.00000000E+00
  0.00000000E+00  0.00000000E+00  0.00000000E+00
  0.00000000E+00  0.00000000E+00  0.00000000E+00
  0.00000000E+00  0.00000000E+00  0.00000000E+00
  0.00000000E+00  0.00000000E+00  0.00000000E+00
  0.00000000E+00  0.00000000E+00  0.00000000E+00
  0.00000000E+00  0.00000000E+00  0.00000000E+00
  0.00000000E+00  0.00000000E+00  0.00000000E+00
  0.00000000E+00  0.00000000E+00  0.00000000E+00
  0.00000000E+00  0.00000000E+00  0.00000000E+00
  0.00000000E+00  0.00000000E+00  0.00000000E+00
  0.00000000E+00  0.00000000E+00  0.00000000E+00
  0.00000000E+00  0.00000000E+00  0.00000000E+00
  0.00000000E+00  0.00000000E+00  0.00000000E+00
  0.00000000E+00  0.00000000E+00  0.00000000E+00
  0.00000000E+00  0.00000000E+00  0.00000000E+00
  0.00000000E+00  0.00000000E+00  0.00000000E+00
  0.00000000E+00  0.00000000E+00  0.00000000E+00
  0.00000000E+00  0.00000000E+00  0.00000000E+00
  0.00000000E+00  0.00000000E+00  0.00000000E+00
  0.00000000E+00  0.00000000E+00  0.00000000E+00
  0.00000000E+00  0.00000000E+00  0.00000000E+00
  0.00000000E+00  0.00000000E+00  0.00000000E+00
  0.00000000E+00  0.00000000E+00  0.00000000E+00
  0.00000000E+00  0.00000000E+00  0.00000000E+00
  0.00000000E+00  0.00000000E+00  0.00000000E+00
  0.00000000E+00  0.00000000E+00  0.00000000E+00
  0.00000000E+00  0.00000000E+00  0.00000000E+00
  0.00000000E+00  0.00000000E+00  0.00000000E+00
  0.00000000E+00  0.00000000E+00  0.00000000E+00
  0.00000000E+00  0.00000000E+00  0.00000000E+00
  0.00000000E+00  0.00000000E+00  0.00000000E+00
  0.00000000E+00  0.00000000E+00  0.00000000E+00
  0.00000000E+00  0.00000000E+00  0.00000000E+00
  0.00000000E+00  0.00000000E+00  0.00000000E+00
  0.00000000E+00  0.00000000E+00  0.00000000E+00
  0.00000000E+00  0.00000000E+00  0.00000000E+00
  0.00000000E+00  0.00000000E+00  0.00000000E+00
  0.00000000E+00  0.00000000E+00  0.00000000E+00
  0.00000000E+00  0.00000000E+00  0.00000000E+00
  0.00000000E+00  0.00000000E+00  0.00000000E+00
  0.00000000E+00  0.00000000E+00  0.00000000E+00
  0.00000000E+00  0.00000000E+00  0.00000000E+00
  0.00000000E+00  0.00000000E+00  0.00000000E+00
  0.00000000E+00  0.00000000E+00  0.00000000E+00
  0.00000000E+00  0.00000000E+00  0.00000000E+00
  0.00000000E+00  0.00000000E+00  0.00000000E+00
  0.00000000E+00  0.00000000E+00  0.00000000E+00
  0.00000000E+00  0.00000000E+00  0.00000000E+00
  0.00000000E+00  0.00000000E+00  0.00000000E+00
  0.00000000E+00  0.00000000E+00  0.00000000E+00
  0.00000000E+00  0.00000000E+00  0.00000000E+00
  0.00000000E+00  0.00000000E+00  0.00000000E+00
  0.00000000E+00  0.00000000E+00  0.00000000E+00
  0.00000000E+00  0.00000000E+00  0.00000000E+00
  0.00000000E+00  0.00000000E+00  0.00000000E+00
  0.00000000E+00  0.00000000E+00  0.00000000E+00
  0.00000000E+00  0.00000000E+00  0.00000000E+00
  0.00000000E+00  0.00000000E+00  0.00000000E+00
  0.00000000E+00  0.00000000E+00  0.00000000E+00
  0.00000000E+00  0.00000000E+00  0.00000000E+00
  0.00000000E+00  0.00000000E+00  0.00000000E+00
  0.00000000E+00  0.00000000E+00  0.00000000E+00
  0.00000000E+00  0.00000000E+00  0.00000000E+00
  0.00000000E+00  0.00000000E+00  0.00000000E+00
  0.00000000E+00  0.00000000E+00  0.00000000E+00
  0.00000000E+00  0.00000000E+00  0.00000000E+00
  0.00000000E+00  0.00000000E+00  0.00000000E+00
  0.00000000E+00  0.00000000E+00  0.00000000E+00
  0.00000000E+00  0.00000000E+00  0.00000000E+00
  0.00000000E+00  0.00000000E+00  0.00000000E+00
  0.00000000E+00  0.00000000E+00  0.00000000E+00
  0.00000000E+00  0.00000000E+00  0.00000000E+00
  0.00000000E+00  0.00000000E+00  0.00000000E+00
  0.00000000E+00  0.00000000E+00  0.00000000E+00
  0.00000000E+00  0.00000000E+00  0.00000000E+00
  0.00000000E+00  0.00000000E+00  0.00000000E+00
  0.00000000E+00  0.00000000E+00  0.00000000E+00
  0.00000000E+00  0.00000000E+00  0.00000000E+00
  0.00000000E+00  0.00000000E+00  0.00000000E+00
  0.00000000E+00  0.00000000E+00  0.00000000E+00
  0.00000000E+00  0.00000000E+00  0.00000000E+00
  0.00000000E+00  0.00000000E+00  0.00000000E+00
  0.00000000E+00  0.00000000E+00  0.00000000E+00
  0.00000000E+00  0.00000000E+00  0.00000000E+00
  0.00000000E+00  0.00000000E+00  0.00000000E+00
  0.00000000E+00  0.00000000E+00  0.00000000E+00
  0.00000000E+00  0.00000000E+00  0.00000000E+00
  0.00000000E+00  0.00000000E+00  0.00000000E+00
  0.00000000E+00  0.00000000E+00  0.00000000E+00
  0.00000000E+00  0.00000000E+00  0.00000000E+00
  0.00000000E+00  0.00000000E+00  0.00000000E+00
  0.00000000E+00  0.00000000E+00  0.00000000E+00
  0.00000000E+00  0.00000000E+00  0.00000000E+00
  0.00000000E+00  0.00000000E+00  0.00000000E+00
  0.00000000E+00  0.00000000E+00  0.00000000E+00
  0.00000000E+00  0.00000000E+00  0.00000000E+00
  0.00000000E+00  0.00000000E+00  0.00000000E+00
  0.00000000E+00  0.00000000E+00  0.00000000E+00
  0.00000000E+00  0.00000000E+00  0.00000000E+00
  0.00000000E+00  0.00000000E+00  0.00000000E+00
  0.00000000E+00  0.00000000E+00  0.00000000E+00
  0.00000000E+00  0.00000000E+00  0.00000000E+00
  0.00000000E+00  0.00000000E+00  0.00000000E+00
  0.00000000E+00  0.00000000E+00  0.00000000E+00
  0.00000000E+00  0.00000000E+00  0.00000000E+00
  0.00000000E+00  0.00000000E+00  0.00000000E+00
  0.00000000E+00  0.00000000E+00  0.00000000E+00
  0.00000000E+00  0.00000000E+00  0.00000000E+00
  0.00000000E+00  0.00000000E+00  0.00000000E+00
  0.00000000E+00  0.00000000E+00  0.00000000E+00
  0.00000000E+00  0.00000000E+00  0.00000000E+00
  0.00000000E+00  0.00000000E+00  0.00000000E+00
  0.00000000E+00  0.00000000E+00  0.00000000E+00
  0.00000000E+00  0.00000000E+00  0.00000000E+00
  0.00000000E+00  0.00000000E+00  0.00000000E+00
  0.00000000E+00  0.00000000E+00  0.00000000E+00
  0.00000000E+00  0.00000000E+00  0.00000000E+00
  0.00000000E+00  0.00000000E+00  0.00000000E+00
  0.00000000E+00  0.00000000E+00  0.00000000E+00
  0.00000000E+00  0.00000000E+00  0.00000000E+00
  0.00000000E+00  0.00000000E+00  0.00000000E+00
  0.00000000E+00  0.00000000E+00  0.00000000E+00
  0.00000000E+00  0.00000000E+00  0.00000000E+00
  0.00000000E+00  0.00000000E+00  0.00000000E+00
  0.00000000E+00  0.00000000E+00  0.00000000E+00
  0.00000000E+00  0.00000000E+00  0.00000000E+00
  0.00000000E+00  0.00000000E+00  0.00000000E+00
  0.00000000E+00  0.00000000E+00  0.00000000E+00
  0.00000000E+00  0.00000000E+00  0.00000000E+00
  0.00000000E+00  0.00000000E+00  0.00000000E+00
  0.00000000E+00  0.00000000E+00  0.00000000E+00
  0.00000000E+00  0.00000000E+00  0.00000000E+00
  0.00000000E+00  0.00000000E+00  0.00000000E+00
  0.00000000E+00  0.00000000E+00  0.00000000E+00
  0.00000000E+00  0.00000000E+00  0.00000000E+00
  0.00000000E+00  0.00000000E+00  0.00000000E+00
  0.00000000E+00  0.00000000E+00  0.00000000E+00
  0.00000000E+00  0.00000000E+00  0.00000000E+00
  0.00000000E+00  0.00000000E+00  0.00000000E+00
  0.00000000E+00  0.00000000E+00  0.00000000E+00
  0.00000000E+00  0.00000000E+00  0.00000000E+00
  0.00000000E+00  0.00000000E+00  0.00000000E+00
  0.00000000E+00  0.00000000E+00  0.00000000E+00
  0.00000000E+00  0.00000000E+00  0.00000000E+00
  0.00000000E+00  0.00000000E+00  0.00000000E+00
  0.00000000E+00  0.00000000E+00  0.00000000E+00
  0.00000000E+00  0.00000000E+00  0.00000000E+00
  0.00000000E+00  0.00000000E+00  0.00000000E+00
  0.00000000E+00  0.00000000E+00  0.00000000E+00
  0.00000000E+00  0.00000000E+00  0.00000000E+00
  0.00000000E+00  0.00000000E+00  0.00000000E+00
  0.00000000E+00  0.00000000E+00  0.00000000E+00
  0.00000000E+00  0.00000000E+00  0.00000000E+00
