SrTiFeO                                 
   1.00000000000000     
    11.1989999999999998    0.0000000000000000    0.0000000000000000
     0.0000000000000000   11.1989999999999998    0.0000000000000000
     0.0000000000000000    0.0000000000000000   15.9830000000000005
   Sr   Ti   Fe   O 
    32    31     1    94
Direct
  0.0001598578351763  0.2501902356956103  0.1236658426158781
  0.0028246803523714  0.2479828437700314  0.6275416899015380
 -0.0001005664047318  0.7491619527013098  0.1255684900728862
 -0.0042167161914801  0.7525725080041898  0.6242290775356788
  0.5011380689363271  0.2501885444151435  0.1250126045280769
  0.4943407664573297  0.2470871423327261  0.6267959020723265
  0.5005149789482168  0.7498637996183783  0.1249605273069621
  0.5008450081050968  0.7533749159665390  0.6253334671221986
  0.0028246803523714  0.2479828437700314  0.3724583100984620
  0.0001598578351763  0.2501902356956103  0.8763341573841219
 -0.0042167161914801  0.7525725080041898  0.3757709224643211
 -0.0001005664047318  0.7491619527013098  0.8744315099271140
  0.4943407664573297  0.2470871423327261  0.3732040979276736
  0.5011380689363271  0.2501885444151435  0.8749873954719232
  0.5008450081050968  0.7533749159665390  0.3746665328778014
  0.5005149789482168  0.7498637996183783  0.8750394726930378
  0.2499672915994626 -0.0000006740436922  0.1250333016326973
  0.2497932138959024 -0.0002131601450461  0.6249216389893005
  0.2506526718922640  0.5001989457520479  0.1250943370918953
  0.2512948070532856  0.4985480708976138  0.6257002836751697
  0.7506588991834384  0.0009228018945638  0.1253482833896457
  0.7488676341194938 -0.0056115746917018  0.6229078596707506
  0.7508828805507270  0.5011534348522290  0.1234223943816988
  0.7485967920172553  0.5094499611600863  0.6303455430184305
  0.2497932138959024 -0.0002131601450461  0.3750783610106996
  0.2499672915994626 -0.0000006740436922  0.8749666983673029
  0.2512948070532856  0.4985480708976138  0.3742997163248299
  0.2506526718922640  0.5001989457520479  0.8749056629081049
  0.7488676341194938 -0.0056115746917018  0.3770921403292493
  0.7506588991834384  0.0009228018945638  0.8746517166103543
  0.7485967920172553  0.5094499611600863  0.3696544569815698
  0.7508828805507270  0.5011534348522290  0.8765776056183008
 -0.0003699658244708  0.0000514171415861 -0.0000000000000000
 -0.0014643742351937  0.0004118105209179  0.5000000000000000
  0.0009606273008269  0.5004516131642004 -0.0000000000000000
  0.0056161809787138  0.5043128534156017  0.5000000000000000
  0.5001351631941607  0.0004115458089588 -0.0000000000000000
  0.5017004280972944 -0.0010566813293487  0.5000000000000000
  0.4995099288800842  0.5007089694915021 -0.0000000000000000
  0.2503783136365155  0.2500215514978278 -0.0000000000000000
  0.2492221296742860  0.2484671415282927  0.5000000000000000
  0.2499560641372190  0.7497044265212807 -0.0000000000000000
  0.2490684619830535  0.7541435066425920  0.5000000000000000
  0.7500371040622081  0.2493595740431836 -0.0000000000000000
  0.7497214564803995  0.7507313571326738 -0.0000000000000000
  0.2497655781499988  0.2499599528352966  0.2493079328062047
  0.2497655781499988  0.2499599528352966  0.7506920671937953
  0.2495122861135655  0.7497091781842821  0.2506767671082941
  0.2495122861135655  0.7497091781842821  0.7493232328917059
  0.7497885484356228  0.2518825055039410  0.2503713162736003
  0.7497885484356228  0.2518825055039410  0.7496286837263999
  0.7498674509348027  0.7511998631095924  0.2502634903522488
  0.7498674509348027  0.7511998631095924  0.7497365096477511
 -0.0003566643337636  0.0002240978471837  0.2501399052680378
 -0.0003566643337636  0.0002240978471837  0.7498600947319622
 -0.0003265211095570  0.4991575486653923  0.2499769419650529
 -0.0003265211095570  0.4991575486653923  0.7500230580349472
  0.4999909254897967  0.0000159739955231  0.2499915294348430
  0.4999909254897967  0.0000159739955231  0.7500084705651571
  0.5005033828008862  0.4992919801554931  0.2497345581030269
  0.5005033828008862  0.4992919801554931  0.7502654418969732
  0.7507997935662041  0.2506657193227564  0.5000000000000000
  0.4981385582284338  0.5065915690905776  0.5000000000000000
  0.7494182027608715  0.7485839369817935  0.5000000000000000
  0.1094622027583328  0.1406361793408374  0.2487452112710772
  0.1094622027583328  0.1406361793408374  0.7512547887289228
  0.1091187291978581  0.6396958031864416  0.2536771717967976
  0.1091187291978581  0.6396958031864416  0.7463228282032024
  0.6098727184252924  0.1420748475664013  0.2534097174404926
  0.6098727184252924  0.1420748475664013  0.7465902825595075
  0.6092901318426074  0.6401941685360040  0.2513279828086127
  0.6092901318426074  0.6401941685360040  0.7486720171913873
  0.3908337190507500  0.3589246421961804  0.2490918999487473
  0.3908337190507500  0.3589246421961804  0.7509081000512527
  0.3905448571417314  0.8593447857822575  0.2487329696782157
  0.3905448571417314  0.8593447857822575  0.7512670303217842
  0.8913656036935046  0.3590354017732901  0.2459638723239383
  0.8913656036935046  0.3590354017732901  0.7540361276760617
  0.8905528807560394  0.8603306386155187  0.2488412950006857
  0.8905528807560394  0.8603306386155187  0.7511587049993141
  0.3597356189340703  0.1099854842157400  0.2503097590756323
  0.3597356189340703  0.1099854842157400  0.7496902409243678
  0.3601732898270511  0.6086193578793854  0.2531149845420841
  0.3601732898270511  0.6086193578793854  0.7468850154579155
  0.8585845406156902  0.1109989335109141  0.2556826893053806
  0.8585845406156902  0.1109989335109141  0.7443173106946193
  0.8605112063895439  0.6101209953355384  0.2480575214316724
  0.8605112063895439  0.6101209953355384  0.7519424785683274
  0.1412231232342998  0.3910139152904872  0.2503598782874933
  0.1412231232342998  0.3910139152904872  0.7496401217125069
  0.1404475615547769  0.8903860213697823  0.2486662857193805
  0.1404475615547769  0.8903860213697823  0.7513337142806192
  0.6411610244816501  0.3918926503975783  0.2440473760958387
  0.6411610244816501  0.3918926503975783  0.7559526239041613
  0.6405095745408287  0.8915487047423941  0.2491114041481095
  0.6405095745408287  0.8915487047423941  0.7508885958518905
  0.3591740808909412  0.3910228529029764 -0.0000000000000000
  0.3589004646162146  0.8909007257451963 -0.0000000000000000
  0.3576860418652408  0.8908173752302394  0.5000000000000000
  0.8599465246267682  0.3901372225310098 -0.0000000000000000
  0.8589613070608063  0.8910864184464978 -0.0000000000000000
  0.8620093474279584  0.8891372774541717  0.5000000000000000
  0.1407611372360522  0.1090714853165380 -0.0000000000000000
  0.1443211587172193  0.1056347417874342  0.5000000000000000
  0.1411813810945291  0.6092060756676326 -0.0000000000000000
  0.1459548574748251  0.6054232444858487  0.5000000000000000
  0.6407004789195577  0.1091763129503709 -0.0000000000000000
  0.6368649705965967  0.1086327091035200  0.5000000000000000
  0.6401743451142961  0.6095418392868187 -0.0000000000000000
  0.1094660821138504  0.3591990448734321 -0.0000000000000000
  0.1059562278274953  0.3552706007251660  0.5000000000000000
  0.1090003419021297  0.8594809776855505 -0.0000000000000000
  0.1081269448120638  0.8555834415824857  0.5000000000000000
  0.6098563992542336  0.3599049346218156 -0.0000000000000000
  0.6084377220553060  0.8597006339677995 -0.0000000000000000
  0.6071628688238104  0.8575254535776439  0.5000000000000000
  0.3908036881384953  0.1411780792765168 -0.0000000000000000
  0.3900360044790568  0.1400361626817808  0.5000000000000000
  0.3905746607379807  0.6416516042627683 -0.0000000000000000
  0.8909187004615228  0.1408357703101419 -0.0000000000000000
  0.8971007844153244  0.1419028261874573  0.5000000000000000
  0.8904780239751179  0.6403807136879218 -0.0000000000000000
 -0.0023417822111591  0.0022031705864543  0.1251526585054686
  0.0027971833900245 -0.0019157637036770  0.6255062067145326
  0.0024167211729403  0.5014695708692651  0.1248452829877911
 -0.0073172223547947  0.4914545548678743  0.6240793406813270
  0.5004873614211871  0.0024049913291534  0.1251166983001014
  0.4985503364231970 -0.0021706147336214  0.6256110914525059
  0.4975920667160618  0.5024194387853371  0.1247720473260001
  0.5063673008154302  0.4892211084746053  0.6240620394524652
  0.0027971833900245 -0.0019157637036770  0.3744937932854673
 -0.0023417822111591  0.0022031705864543  0.8748473414945315
 -0.0073172223547947  0.4914545548678743  0.3759206593186730
  0.0024167211729403  0.5014695708692651  0.8751547170122087
  0.4985503364231970 -0.0021706147336214  0.3743889085474941
  0.5004873614211871  0.0024049913291534  0.8748833016998988
  0.4975920667160618  0.5024194387853371  0.8752279526740000
  0.2495484213899747  0.2501345362828258  0.3743493344690135
  0.2499481093898647  0.2500194697087222  0.8752822539510112
  0.2507743708553577  0.7513442531139359  0.3751799138581687
  0.2492785381584791  0.7472058993682290  0.8745361801360836
  0.7502856703064961  0.2459232208790581  0.8749610637563836
  0.7487468541468432  0.7500000252873217  0.8755060751187869
  0.2499481093898647  0.2500194697087222  0.1247177460489886
  0.2495484213899747  0.2501345362828258  0.6256506655309865
  0.2492785381584791  0.7472058993682290  0.1254638198639163
  0.2507743708553577  0.7513442531139359  0.6248200861418312
  0.7502856703064961  0.2459232208790581  0.1250389362436164
  0.7476952310313196  0.2718037708547690  0.6229777789988387
  0.7487468541468432  0.7500000252873217  0.1244939248812129
  0.7507777801305592  0.7505321022224009  0.6269925257712066
  0.7476952310313196  0.2718037708547690  0.3770222210011609
  0.3917266703235717  0.6415816669412613  0.5000000000000000
  0.5063673008154302  0.4892211084746053  0.3759379605475350
  0.3636161808873372  0.3866543637579359  0.5000000000000000
  0.8883665087208115  0.6301849549151839  0.5000000000000000
  0.7507777801305592  0.7505321022224009  0.3730074742287934
  0.6429900663956827  0.5992539542462123  0.5000000000000000
 
  0.00000000E+00  0.00000000E+00  0.00000000E+00
  0.00000000E+00  0.00000000E+00  0.00000000E+00
  0.00000000E+00  0.00000000E+00  0.00000000E+00
  0.00000000E+00  0.00000000E+00  0.00000000E+00
  0.00000000E+00  0.00000000E+00  0.00000000E+00
  0.00000000E+00  0.00000000E+00  0.00000000E+00
  0.00000000E+00  0.00000000E+00  0.00000000E+00
  0.00000000E+00  0.00000000E+00  0.00000000E+00
  0.00000000E+00  0.00000000E+00  0.00000000E+00
  0.00000000E+00  0.00000000E+00  0.00000000E+00
  0.00000000E+00  0.00000000E+00  0.00000000E+00
  0.00000000E+00  0.00000000E+00  0.00000000E+00
  0.00000000E+00  0.00000000E+00  0.00000000E+00
  0.00000000E+00  0.00000000E+00  0.00000000E+00
  0.00000000E+00  0.00000000E+00  0.00000000E+00
  0.00000000E+00  0.00000000E+00  0.00000000E+00
  0.00000000E+00  0.00000000E+00  0.00000000E+00
  0.00000000E+00  0.00000000E+00  0.00000000E+00
  0.00000000E+00  0.00000000E+00  0.00000000E+00
  0.00000000E+00  0.00000000E+00  0.00000000E+00
  0.00000000E+00  0.00000000E+00  0.00000000E+00
  0.00000000E+00  0.00000000E+00  0.00000000E+00
  0.00000000E+00  0.00000000E+00  0.00000000E+00
  0.00000000E+00  0.00000000E+00  0.00000000E+00
  0.00000000E+00  0.00000000E+00  0.00000000E+00
  0.00000000E+00  0.00000000E+00  0.00000000E+00
  0.00000000E+00  0.00000000E+00  0.00000000E+00
  0.00000000E+00  0.00000000E+00  0.00000000E+00
  0.00000000E+00  0.00000000E+00  0.00000000E+00
  0.00000000E+00  0.00000000E+00  0.00000000E+00
  0.00000000E+00  0.00000000E+00  0.00000000E+00
  0.00000000E+00  0.00000000E+00  0.00000000E+00
  0.00000000E+00  0.00000000E+00  0.00000000E+00
  0.00000000E+00  0.00000000E+00  0.00000000E+00
  0.00000000E+00  0.00000000E+00  0.00000000E+00
  0.00000000E+00  0.00000000E+00  0.00000000E+00
  0.00000000E+00  0.00000000E+00  0.00000000E+00
  0.00000000E+00  0.00000000E+00  0.00000000E+00
  0.00000000E+00  0.00000000E+00  0.00000000E+00
  0.00000000E+00  0.00000000E+00  0.00000000E+00
  0.00000000E+00  0.00000000E+00  0.00000000E+00
  0.00000000E+00  0.00000000E+00  0.00000000E+00
  0.00000000E+00  0.00000000E+00  0.00000000E+00
  0.00000000E+00  0.00000000E+00  0.00000000E+00
  0.00000000E+00  0.00000000E+00  0.00000000E+00
  0.00000000E+00  0.00000000E+00  0.00000000E+00
  0.00000000E+00  0.00000000E+00  0.00000000E+00
  0.00000000E+00  0.00000000E+00  0.00000000E+00
  0.00000000E+00  0.00000000E+00  0.00000000E+00
  0.00000000E+00  0.00000000E+00  0.00000000E+00
  0.00000000E+00  0.00000000E+00  0.00000000E+00
  0.00000000E+00  0.00000000E+00  0.00000000E+00
  0.00000000E+00  0.00000000E+00  0.00000000E+00
  0.00000000E+00  0.00000000E+00  0.00000000E+00
  0.00000000E+00  0.00000000E+00  0.00000000E+00
  0.00000000E+00  0.00000000E+00  0.00000000E+00
  0.00000000E+00  0.00000000E+00  0.00000000E+00
  0.00000000E+00  0.00000000E+00  0.00000000E+00
  0.00000000E+00  0.00000000E+00  0.00000000E+00
  0.00000000E+00  0.00000000E+00  0.00000000E+00
  0.00000000E+00  0.00000000E+00  0.00000000E+00
  0.00000000E+00  0.00000000E+00  0.00000000E+00
  0.00000000E+00  0.00000000E+00  0.00000000E+00
  0.00000000E+00  0.00000000E+00  0.00000000E+00
  0.00000000E+00  0.00000000E+00  0.00000000E+00
  0.00000000E+00  0.00000000E+00  0.00000000E+00
  0.00000000E+00  0.00000000E+00  0.00000000E+00
  0.00000000E+00  0.00000000E+00  0.00000000E+00
  0.00000000E+00  0.00000000E+00  0.00000000E+00
  0.00000000E+00  0.00000000E+00  0.00000000E+00
  0.00000000E+00  0.00000000E+00  0.00000000E+00
  0.00000000E+00  0.00000000E+00  0.00000000E+00
  0.00000000E+00  0.00000000E+00  0.00000000E+00
  0.00000000E+00  0.00000000E+00  0.00000000E+00
  0.00000000E+00  0.00000000E+00  0.00000000E+00
  0.00000000E+00  0.00000000E+00  0.00000000E+00
  0.00000000E+00  0.00000000E+00  0.00000000E+00
  0.00000000E+00  0.00000000E+00  0.00000000E+00
  0.00000000E+00  0.00000000E+00  0.00000000E+00
  0.00000000E+00  0.00000000E+00  0.00000000E+00
  0.00000000E+00  0.00000000E+00  0.00000000E+00
  0.00000000E+00  0.00000000E+00  0.00000000E+00
  0.00000000E+00  0.00000000E+00  0.00000000E+00
  0.00000000E+00  0.00000000E+00  0.00000000E+00
  0.00000000E+00  0.00000000E+00  0.00000000E+00
  0.00000000E+00  0.00000000E+00  0.00000000E+00
  0.00000000E+00  0.00000000E+00  0.00000000E+00
  0.00000000E+00  0.00000000E+00  0.00000000E+00
  0.00000000E+00  0.00000000E+00  0.00000000E+00
  0.00000000E+00  0.00000000E+00  0.00000000E+00
  0.00000000E+00  0.00000000E+00  0.00000000E+00
  0.00000000E+00  0.00000000E+00  0.00000000E+00
  0.00000000E+00  0.00000000E+00  0.00000000E+00
  0.00000000E+00  0.00000000E+00  0.00000000E+00
  0.00000000E+00  0.00000000E+00  0.00000000E+00
  0.00000000E+00  0.00000000E+00  0.00000000E+00
  0.00000000E+00  0.00000000E+00  0.00000000E+00
  0.00000000E+00  0.00000000E+00  0.00000000E+00
  0.00000000E+00  0.00000000E+00  0.00000000E+00
  0.00000000E+00  0.00000000E+00  0.00000000E+00
  0.00000000E+00  0.00000000E+00  0.00000000E+00
  0.00000000E+00  0.00000000E+00  0.00000000E+00
  0.00000000E+00  0.00000000E+00  0.00000000E+00
  0.00000000E+00  0.00000000E+00  0.00000000E+00
  0.00000000E+00  0.00000000E+00  0.00000000E+00
  0.00000000E+00  0.00000000E+00  0.00000000E+00
  0.00000000E+00  0.00000000E+00  0.00000000E+00
  0.00000000E+00  0.00000000E+00  0.00000000E+00
  0.00000000E+00  0.00000000E+00  0.00000000E+00
  0.00000000E+00  0.00000000E+00  0.00000000E+00
  0.00000000E+00  0.00000000E+00  0.00000000E+00
  0.00000000E+00  0.00000000E+00  0.00000000E+00
  0.00000000E+00  0.00000000E+00  0.00000000E+00
  0.00000000E+00  0.00000000E+00  0.00000000E+00
  0.00000000E+00  0.00000000E+00  0.00000000E+00
  0.00000000E+00  0.00000000E+00  0.00000000E+00
  0.00000000E+00  0.00000000E+00  0.00000000E+00
  0.00000000E+00  0.00000000E+00  0.00000000E+00
  0.00000000E+00  0.00000000E+00  0.00000000E+00
  0.00000000E+00  0.00000000E+00  0.00000000E+00
  0.00000000E+00  0.00000000E+00  0.00000000E+00
  0.00000000E+00  0.00000000E+00  0.00000000E+00
  0.00000000E+00  0.00000000E+00  0.00000000E+00
  0.00000000E+00  0.00000000E+00  0.00000000E+00
  0.00000000E+00  0.00000000E+00  0.00000000E+00
  0.00000000E+00  0.00000000E+00  0.00000000E+00
  0.00000000E+00  0.00000000E+00  0.00000000E+00
  0.00000000E+00  0.00000000E+00  0.00000000E+00
  0.00000000E+00  0.00000000E+00  0.00000000E+00
  0.00000000E+00  0.00000000E+00  0.00000000E+00
  0.00000000E+00  0.00000000E+00  0.00000000E+00
  0.00000000E+00  0.00000000E+00  0.00000000E+00
  0.00000000E+00  0.00000000E+00  0.00000000E+00
  0.00000000E+00  0.00000000E+00  0.00000000E+00
  0.00000000E+00  0.00000000E+00  0.00000000E+00
  0.00000000E+00  0.00000000E+00  0.00000000E+00
  0.00000000E+00  0.00000000E+00  0.00000000E+00
  0.00000000E+00  0.00000000E+00  0.00000000E+00
  0.00000000E+00  0.00000000E+00  0.00000000E+00
  0.00000000E+00  0.00000000E+00  0.00000000E+00
  0.00000000E+00  0.00000000E+00  0.00000000E+00
  0.00000000E+00  0.00000000E+00  0.00000000E+00
  0.00000000E+00  0.00000000E+00  0.00000000E+00
  0.00000000E+00  0.00000000E+00  0.00000000E+00
  0.00000000E+00  0.00000000E+00  0.00000000E+00
  0.00000000E+00  0.00000000E+00  0.00000000E+00
  0.00000000E+00  0.00000000E+00  0.00000000E+00
  0.00000000E+00  0.00000000E+00  0.00000000E+00
  0.00000000E+00  0.00000000E+00  0.00000000E+00
  0.00000000E+00  0.00000000E+00  0.00000000E+00
  0.00000000E+00  0.00000000E+00  0.00000000E+00
  0.00000000E+00  0.00000000E+00  0.00000000E+00
  0.00000000E+00  0.00000000E+00  0.00000000E+00
  0.00000000E+00  0.00000000E+00  0.00000000E+00
  0.00000000E+00  0.00000000E+00  0.00000000E+00
  0.00000000E+00  0.00000000E+00  0.00000000E+00
  0.00000000E+00  0.00000000E+00  0.00000000E+00
  0.00000000E+00  0.00000000E+00  0.00000000E+00
