Sr   Ti   Fe   O                        
   1.00000000000000     
    11.1989999999999998    0.0000000000000000    0.0000000000000000
     0.0000000000000000   11.1989999999999998    0.0000000000000000
     0.0000000000000000    0.0000000000000000   15.9830000000000005
   Sr   Ti   Fe   O 
    32    31     1    94
Direct
  0.0000348564318826  0.2503961037488853  0.1235113146677355
  0.0050868399993376  0.2488091414688665  0.6282685821745344
  0.9986338976677847  0.7494281356061850  0.1258467911650666
  0.9950391501287845  0.7513291728520893  0.6241076290302667
  0.5010281566626028  0.2508406454539411  0.1246225698776969
  0.4923508659567365  0.2441311310567590  0.6286801355614292
  0.4995322571503020  0.7494253519902118  0.1241673827592344
  0.5000656884525130  0.7572503339187179  0.6288442571814139
  0.0050868399993376  0.2488091414688665  0.3717314178254629
  0.0000348564318826  0.2503961037488853  0.8764886853322691
  0.9950391501287845  0.7513291728520893  0.3758923709697290
  0.9986338976677847  0.7494281356061850  0.8741532088349321
  0.4923508659567365  0.2441311310567590  0.3713198644385700
  0.5010281566626028  0.2508406454539411  0.8753774301222993
  0.5000656884525130  0.7572503339187179  0.3711557428185874
  0.4995322571503020  0.7494253519902118  0.8758326172407651
  0.2492573096379626  0.9995071926737455  0.1249582414702927
  0.2496648490626243  0.9990817957192994  0.6255520922230623
  0.2505307780388052  0.5001755033236941  0.1238919309777379
  0.2506345465958738  0.4975825280289946  0.6287599776089531
  0.7502934197970288  0.0001969317202455  0.1254233518549902
  0.7467396190468282  0.9942995116818367  0.6225652499510820
  0.7498129136057387  0.5010296455943232  0.1230847134806832
  0.7518748239799034  0.5049682395086548  0.6351797358454390
  0.2496648490626243  0.9990817957192994  0.3744479077769416
  0.2492573096379626  0.9995071926737455  0.8750417585297073
  0.2506345465958738  0.4975825280289946  0.3712400223910468
  0.2505307780388052  0.5001755033236941  0.8761080690222599
  0.7467396190468282  0.9942995116818367  0.3774347500489203
  0.7502934197970288  0.0001969317202455  0.8745766481450091
  0.7518748239799034  0.5049682395086548  0.3648202641545616
  0.7498129136057387  0.5010296455943232  0.8769152865193133
  0.9991848956938310  0.9998212141325281  0.0000000000000000
  0.9983332304078409  1.0006800430421330  0.5000000000000000
  0.0007529175609453  0.5004779691383158  0.0000000000000000
  0.0083771320901921  0.5049476052591986  0.5000000000000000
  0.5000052197667046  0.0004315292130291  0.0000000000000000
  0.5008296744352897  0.9987543941985888  0.5000000000000000
  0.4993205034920117  0.5003786332753907  0.0000000000000000
  0.2502516709822660  0.2495324020890647  0.0000000000000000
  0.2480543849367369  0.2445320916548460  0.5000000000000000
  0.2490684527326257  0.7500933972027661  0.0000000000000000
  0.2503366411262681  0.7541698263693504  0.5000000000000000
  0.7501879032752389  0.2491342405772909  0.0000000000000000
  0.7495562087545771  0.7509793635246365  0.0000000000000000
  0.2495169050767460  0.2494884925427325  0.2482404780213910
  0.2495169050767460  0.2494884925427325  0.7517595219786116
  0.2488447718012018  0.7499593483459275  0.2500154103423103
  0.2488447718012018  0.7499593483459275  0.7499845896576883
  0.7495846835621012  0.2514785601759463  0.2500673271721076
  0.7495846835621012  0.2514785601759463  0.7499326728278893
  0.7488554115685139  0.7500835636807360  0.2503435712500995
  0.7488554115685139  0.7500835636807360  0.7496564287498975
  0.9989731021368040  1.0000882772868107  0.2506133691375080
  0.9989731021368040  1.0000882772868107  0.7493866308624947
  1.0003882248270066  0.4994442598967128  0.2493067509158246
  1.0003882248270066  0.4994442598967128  0.7506932490841712
  0.4996340670089569  0.0003048970599508  0.2492836224173471
  0.4996340670089569  0.0003048970599508  0.7507163775826543
  0.4988638762796482  0.5000930402807944  0.2493218007956482
  0.4988638762796482  0.5000930402807944  0.7506781992043507
  0.7555758563299568  0.2523675264864283  0.5000000000000000
  0.4913476651549660  0.5042265774434068  0.5000000000000000
  0.7538533051668875  0.7500085495256849  0.5000000000000000
  0.1095271796854258  0.1401906031884394  0.2479282425495575
  0.1095271796854258  0.1401906031884394  0.7520717574504413
  0.1092704967094162  0.6396870185416004  0.2536670854986980
  0.1092704967094162  0.6396870185416004  0.7463329145013015
  0.6101500870601919  0.1415023726851546  0.2529369814528931
  0.6101500870601919  0.1415023726851546  0.7470630185471069
  0.6090065223535344  0.6389539659079699  0.2476615972776789
  0.6090065223535344  0.6389539659079699  0.7523384027223208
  0.3894554839200914  0.3591083101195173  0.2482629701834148
  0.3894554839200914  0.3591083101195173  0.7517370298165850
  0.3892417189644090  0.8605240190080381  0.2475535629296947
  0.3892417189644090  0.8605240190080381  0.7524464370703049
  0.8897838278059605  0.3601828741537650  0.2465436881437505
  0.8897838278059605  0.3601828741537650  0.7534563118562495
  0.8885259273090131  0.8610602734854963  0.2516098832734702
  0.8885259273090131  0.8610602734854963  0.7483901167265290
  0.3600523055545561  0.1106254214280907  0.2497284251352102
  0.3600523055545561  0.1106254214280907  0.7502715748647958
  0.3585456683501563  0.6098227210902926  0.2486501709605140
  0.3585456683501563  0.6098227210902926  0.7513498290394832
  0.8582274046217905  0.1115062021130392  0.2563721920395770
  0.8582274046217905  0.1115062021130392  0.7436278079604245
  0.8621644532647701  0.6115370101156737  0.2456883129655826
  0.8621644532647701  0.6115370101156737  0.7543116870344139
  0.1405431332404249  0.3900777664081732  0.2487185216733547
  0.1405431332404249  0.3900777664081732  0.7512814783266423
  0.1390288356552237  0.8898195319206933  0.2487630876539106
  0.1390288356552237  0.8898195319206933  0.7512369123460907
  0.6389324337978285  0.3907663347960452  0.2448782333874180
  0.6389324337978285  0.3907663347960452  0.7551217666125803
  0.6390358083165139  0.8905653652463185  0.2497713558168705
  0.6390358083165139  0.8905653652463185  0.7502286441831290
  0.3590502808438713  0.3901711546056599  0.0000000000000000
  0.3587657923819197  0.8910398106702682  0.0000000000000000
  0.3536681183262080  0.8951149770065766  0.5000000000000000
  0.8599081875799025  0.3900001417855207  0.0000000000000000
  0.8586467461320230  0.8913613279026584  0.0000000000000000
  0.8625066756932411  0.9001415791164999  0.5000000000000000
  0.1401855493549617  0.1086204237735903  0.0000000000000000
  0.1468193522162226  0.1045028437290283  0.5000000000000000
  0.1407829730527564  0.6093344963696516  0.0000000000000000
  0.1573250629015444  0.6019354115707649  0.5000000000000000
  0.6411157152622112  0.1090588202170938  0.0000000000000000
  0.6337650134478165  0.1160710127763093  0.5000000000000000
  0.6398755371790578  0.6098117734267052  0.0000000000000000
  0.1097184154549667  0.3590188214632659  0.0000000000000000
  0.1113740231058058  0.3547192162439906  0.5000000000000000
  0.1081327680987512  0.8598263070364881  0.0000000000000000
  0.1069253653416839  0.8520932372576941  0.5000000000000000
  0.6103962210151653  0.3597058502363427  0.0000000000000000
  0.6080968722999874  0.8597718681218413  0.0000000000000000
  0.6020629252102245  0.8617299290940725  0.5000000000000000
  0.3910472938947241  0.1410434115685079  0.0000000000000000
  0.3892570992198960  0.1408965269887956  0.5000000000000000
  0.3897545414290116  0.6414777388702002  0.0000000000000000
  0.8910185372869178  0.1411091710460401  0.0000000000000000
  0.9017546964931288  0.1487656134499369  0.5000000000000000
  0.8901874137533042  0.6402434511081452  0.0000000000000000
  0.9960521141809480  0.0013229699018249  0.1255737301365150
  0.0050897953766058 -0.0000642246623423  0.6253898677700354
  0.0027807661499241  0.5006878452206608  0.1244428695437473
  0.9957459460108288  0.4913810568490790  0.6250861607638066
  0.5008271497033769  0.0024929433542657  0.1249040964980630
  0.4973122496959888  0.9998158109687399  0.6264365659034671
  0.4971450031404853  0.5006849543511958  0.1238631425987336
  0.4959075401330263  0.4983254451154623  0.6263155240384836
  0.0050897953766058 -0.0000642246623423  0.3746101322299626
  0.9960521141809480  0.0013229699018249  0.8744262698634879
  0.9957459460108288  0.4913810568490790  0.3749138392361901
  0.0027807661499241  0.5006878452206608  0.8755571304562526
  0.4973122496959888  0.9998158109687399  0.3735634340965364
  0.5008271497033769  0.0024929433542657  0.8750959035019338
  0.4971450031404853  0.5006849543511958  0.8761368574012679
  0.2501421995143612  0.2503257310730251  0.3737586383274198
  0.2498241786119782  0.2488836005001105  0.8757509939194599
  0.2532802514383409  0.7505086885748034  0.3748948137916968
  0.2472788097351872  0.7489648959059423  0.8751163522439683
  0.7504011081134198  0.2462451014414531  0.8747478317092167
  0.7491893887574235  0.7516894321715293  0.8757755232710741
  0.2498241786119782  0.2488836005001105  0.1242490060805426
  0.2501421995143612  0.2503257310730251  0.6262413616725703
  0.2472788097351872  0.7489648959059423  0.1248836477560331
  0.2532802514383409  0.7505086885748034  0.6251051862083045
  0.7504011081134198  0.2462451014414531  0.1252521682907845
  0.7466598617524151  0.2724095305906871  0.6225535648962796
  0.7491893887574235  0.7516894321715293  0.1242244767289290
  0.7447991336976677  0.7425903493343387  0.6274674794958283
  0.7466598617524151  0.2724095305906871  0.3774464351037127
  0.4105893410680133  0.6528462611373826  0.5000000000000000
  0.4959075401330263  0.4983254451154623  0.3736844759615206
  0.3727338882795991  0.3824059244579185  0.5000000000000000
  0.8944016513421269  0.6285064632243121  0.5000000000000000
  0.7447991336976677  0.7425903493343387  0.3725325205041727
  0.6575093695500821  0.4870530869831737  0.5000000000000000
 
  0.00000000E+00  0.00000000E+00  0.00000000E+00
  0.00000000E+00  0.00000000E+00  0.00000000E+00
  0.00000000E+00  0.00000000E+00  0.00000000E+00
  0.00000000E+00  0.00000000E+00  0.00000000E+00
  0.00000000E+00  0.00000000E+00  0.00000000E+00
  0.00000000E+00  0.00000000E+00  0.00000000E+00
  0.00000000E+00  0.00000000E+00  0.00000000E+00
  0.00000000E+00  0.00000000E+00  0.00000000E+00
  0.00000000E+00  0.00000000E+00  0.00000000E+00
  0.00000000E+00  0.00000000E+00  0.00000000E+00
  0.00000000E+00  0.00000000E+00  0.00000000E+00
  0.00000000E+00  0.00000000E+00  0.00000000E+00
  0.00000000E+00  0.00000000E+00  0.00000000E+00
  0.00000000E+00  0.00000000E+00  0.00000000E+00
  0.00000000E+00  0.00000000E+00  0.00000000E+00
  0.00000000E+00  0.00000000E+00  0.00000000E+00
  0.00000000E+00  0.00000000E+00  0.00000000E+00
  0.00000000E+00  0.00000000E+00  0.00000000E+00
  0.00000000E+00  0.00000000E+00  0.00000000E+00
  0.00000000E+00  0.00000000E+00  0.00000000E+00
  0.00000000E+00  0.00000000E+00  0.00000000E+00
  0.00000000E+00  0.00000000E+00  0.00000000E+00
  0.00000000E+00  0.00000000E+00  0.00000000E+00
  0.00000000E+00  0.00000000E+00  0.00000000E+00
  0.00000000E+00  0.00000000E+00  0.00000000E+00
  0.00000000E+00  0.00000000E+00  0.00000000E+00
  0.00000000E+00  0.00000000E+00  0.00000000E+00
  0.00000000E+00  0.00000000E+00  0.00000000E+00
  0.00000000E+00  0.00000000E+00  0.00000000E+00
  0.00000000E+00  0.00000000E+00  0.00000000E+00
  0.00000000E+00  0.00000000E+00  0.00000000E+00
  0.00000000E+00  0.00000000E+00  0.00000000E+00
  0.00000000E+00  0.00000000E+00  0.00000000E+00
  0.00000000E+00  0.00000000E+00  0.00000000E+00
  0.00000000E+00  0.00000000E+00  0.00000000E+00
  0.00000000E+00  0.00000000E+00  0.00000000E+00
  0.00000000E+00  0.00000000E+00  0.00000000E+00
  0.00000000E+00  0.00000000E+00  0.00000000E+00
  0.00000000E+00  0.00000000E+00  0.00000000E+00
  0.00000000E+00  0.00000000E+00  0.00000000E+00
  0.00000000E+00  0.00000000E+00  0.00000000E+00
  0.00000000E+00  0.00000000E+00  0.00000000E+00
  0.00000000E+00  0.00000000E+00  0.00000000E+00
  0.00000000E+00  0.00000000E+00  0.00000000E+00
  0.00000000E+00  0.00000000E+00  0.00000000E+00
  0.00000000E+00  0.00000000E+00  0.00000000E+00
  0.00000000E+00  0.00000000E+00  0.00000000E+00
  0.00000000E+00  0.00000000E+00  0.00000000E+00
  0.00000000E+00  0.00000000E+00  0.00000000E+00
  0.00000000E+00  0.00000000E+00  0.00000000E+00
  0.00000000E+00  0.00000000E+00  0.00000000E+00
  0.00000000E+00  0.00000000E+00  0.00000000E+00
  0.00000000E+00  0.00000000E+00  0.00000000E+00
  0.00000000E+00  0.00000000E+00  0.00000000E+00
  0.00000000E+00  0.00000000E+00  0.00000000E+00
  0.00000000E+00  0.00000000E+00  0.00000000E+00
  0.00000000E+00  0.00000000E+00  0.00000000E+00
  0.00000000E+00  0.00000000E+00  0.00000000E+00
  0.00000000E+00  0.00000000E+00  0.00000000E+00
  0.00000000E+00  0.00000000E+00  0.00000000E+00
  0.00000000E+00  0.00000000E+00  0.00000000E+00
  0.00000000E+00  0.00000000E+00  0.00000000E+00
  0.00000000E+00  0.00000000E+00  0.00000000E+00
  0.00000000E+00  0.00000000E+00  0.00000000E+00
  0.00000000E+00  0.00000000E+00  0.00000000E+00
  0.00000000E+00  0.00000000E+00  0.00000000E+00
  0.00000000E+00  0.00000000E+00  0.00000000E+00
  0.00000000E+00  0.00000000E+00  0.00000000E+00
  0.00000000E+00  0.00000000E+00  0.00000000E+00
  0.00000000E+00  0.00000000E+00  0.00000000E+00
  0.00000000E+00  0.00000000E+00  0.00000000E+00
  0.00000000E+00  0.00000000E+00  0.00000000E+00
  0.00000000E+00  0.00000000E+00  0.00000000E+00
  0.00000000E+00  0.00000000E+00  0.00000000E+00
  0.00000000E+00  0.00000000E+00  0.00000000E+00
  0.00000000E+00  0.00000000E+00  0.00000000E+00
  0.00000000E+00  0.00000000E+00  0.00000000E+00
  0.00000000E+00  0.00000000E+00  0.00000000E+00
  0.00000000E+00  0.00000000E+00  0.00000000E+00
  0.00000000E+00  0.00000000E+00  0.00000000E+00
  0.00000000E+00  0.00000000E+00  0.00000000E+00
  0.00000000E+00  0.00000000E+00  0.00000000E+00
  0.00000000E+00  0.00000000E+00  0.00000000E+00
  0.00000000E+00  0.00000000E+00  0.00000000E+00
  0.00000000E+00  0.00000000E+00  0.00000000E+00
  0.00000000E+00  0.00000000E+00  0.00000000E+00
  0.00000000E+00  0.00000000E+00  0.00000000E+00
  0.00000000E+00  0.00000000E+00  0.00000000E+00
  0.00000000E+00  0.00000000E+00  0.00000000E+00
  0.00000000E+00  0.00000000E+00  0.00000000E+00
  0.00000000E+00  0.00000000E+00  0.00000000E+00
  0.00000000E+00  0.00000000E+00  0.00000000E+00
  0.00000000E+00  0.00000000E+00  0.00000000E+00
  0.00000000E+00  0.00000000E+00  0.00000000E+00
  0.00000000E+00  0.00000000E+00  0.00000000E+00
  0.00000000E+00  0.00000000E+00  0.00000000E+00
  0.00000000E+00  0.00000000E+00  0.00000000E+00
  0.00000000E+00  0.00000000E+00  0.00000000E+00
  0.00000000E+00  0.00000000E+00  0.00000000E+00
  0.00000000E+00  0.00000000E+00  0.00000000E+00
  0.00000000E+00  0.00000000E+00  0.00000000E+00
  0.00000000E+00  0.00000000E+00  0.00000000E+00
  0.00000000E+00  0.00000000E+00  0.00000000E+00
  0.00000000E+00  0.00000000E+00  0.00000000E+00
  0.00000000E+00  0.00000000E+00  0.00000000E+00
  0.00000000E+00  0.00000000E+00  0.00000000E+00
  0.00000000E+00  0.00000000E+00  0.00000000E+00
  0.00000000E+00  0.00000000E+00  0.00000000E+00
  0.00000000E+00  0.00000000E+00  0.00000000E+00
  0.00000000E+00  0.00000000E+00  0.00000000E+00
  0.00000000E+00  0.00000000E+00  0.00000000E+00
  0.00000000E+00  0.00000000E+00  0.00000000E+00
  0.00000000E+00  0.00000000E+00  0.00000000E+00
  0.00000000E+00  0.00000000E+00  0.00000000E+00
  0.00000000E+00  0.00000000E+00  0.00000000E+00
  0.00000000E+00  0.00000000E+00  0.00000000E+00
  0.00000000E+00  0.00000000E+00  0.00000000E+00
  0.00000000E+00  0.00000000E+00  0.00000000E+00
  0.00000000E+00  0.00000000E+00  0.00000000E+00
  0.00000000E+00  0.00000000E+00  0.00000000E+00
  0.00000000E+00  0.00000000E+00  0.00000000E+00
  0.00000000E+00  0.00000000E+00  0.00000000E+00
  0.00000000E+00  0.00000000E+00  0.00000000E+00
  0.00000000E+00  0.00000000E+00  0.00000000E+00
  0.00000000E+00  0.00000000E+00  0.00000000E+00
  0.00000000E+00  0.00000000E+00  0.00000000E+00
  0.00000000E+00  0.00000000E+00  0.00000000E+00
  0.00000000E+00  0.00000000E+00  0.00000000E+00
  0.00000000E+00  0.00000000E+00  0.00000000E+00
  0.00000000E+00  0.00000000E+00  0.00000000E+00
  0.00000000E+00  0.00000000E+00  0.00000000E+00
  0.00000000E+00  0.00000000E+00  0.00000000E+00
  0.00000000E+00  0.00000000E+00  0.00000000E+00
  0.00000000E+00  0.00000000E+00  0.00000000E+00
  0.00000000E+00  0.00000000E+00  0.00000000E+00
  0.00000000E+00  0.00000000E+00  0.00000000E+00
  0.00000000E+00  0.00000000E+00  0.00000000E+00
  0.00000000E+00  0.00000000E+00  0.00000000E+00
  0.00000000E+00  0.00000000E+00  0.00000000E+00
  0.00000000E+00  0.00000000E+00  0.00000000E+00
  0.00000000E+00  0.00000000E+00  0.00000000E+00
  0.00000000E+00  0.00000000E+00  0.00000000E+00
  0.00000000E+00  0.00000000E+00  0.00000000E+00
  0.00000000E+00  0.00000000E+00  0.00000000E+00
  0.00000000E+00  0.00000000E+00  0.00000000E+00
  0.00000000E+00  0.00000000E+00  0.00000000E+00
  0.00000000E+00  0.00000000E+00  0.00000000E+00
  0.00000000E+00  0.00000000E+00  0.00000000E+00
  0.00000000E+00  0.00000000E+00  0.00000000E+00
  0.00000000E+00  0.00000000E+00  0.00000000E+00
  0.00000000E+00  0.00000000E+00  0.00000000E+00
  0.00000000E+00  0.00000000E+00  0.00000000E+00
  0.00000000E+00  0.00000000E+00  0.00000000E+00
  0.00000000E+00  0.00000000E+00  0.00000000E+00
  0.00000000E+00  0.00000000E+00  0.00000000E+00
  0.00000000E+00  0.00000000E+00  0.00000000E+00
  0.00000000E+00  0.00000000E+00  0.00000000E+00
  0.00000000E+00  0.00000000E+00  0.00000000E+00
