SrTiFeO                                 
   1.00000000000000     
    11.1989999999999998    0.0000000000000000    0.0000000000000000
     0.0000000000000000   11.1989999999999998    0.0000000000000000
     0.0000000000000000    0.0000000000000000   15.9830000000000005
   Sr   Ti   O 
    32    32    94
Direct
  0.0002241959290208  0.2498433472283050  0.1249894134226689
  0.0011812903340564  0.2490633785806921  0.6241730560502129
  0.9997425395850635  0.7498380257799063  0.1251184863399265
  0.0026749378207854  0.7512392587828874  0.6236049039113356
  0.4997967816872400  0.2499470297600104  0.1247856116189222
  0.4990597958251195  0.2423291655511310  0.6244241209941125
  0.5005035581055703  0.7502378947735699  0.1249968047299254
  0.4965365349031825  0.7617167665125436  0.6227040800585015
  0.9998655748368004  0.2499265888525875  0.3750287338692205
  0.0010067748055157  0.2506928912565239  0.8755969961283875
  0.9996880568807719  0.7494534002638433  0.3749038207166002
  0.0033303604604575  0.7498150946830204  0.8759824925350316
  0.5002956088492081  0.2482101750583029  0.3738575349453379
  0.4987959428313754  0.2490010628679039  0.8758597407348933
  0.4996668743907202  0.7517433264866725  0.3738869002159660
  0.4969131291306940  0.7553032878391068  0.8785503422328007
  0.2502105504055465  0.9999435810268257  0.1250736221173802
  0.2486310159470763  0.0011318153569767  0.6248663048731259
  0.2499425939913031  0.4997184877021069  0.1243171149142130
  0.2426460817810872  0.5012614002099813  0.6244130525610190
  0.7499380473654174  0.9996640118771498  0.1249296814498576
  0.7495578891268039  0.0020028048380008  0.6246316629867311
  0.7510437350355276  0.4993606501671469  0.1253312767208256
  0.7612149404365697  0.4985823209936993  0.6211107550113687
  0.2498560050779128  0.0001108046228325  0.3749991259039359
  0.2496797747579390  0.0015986231028205  0.8752917534672663
  0.2484502210916772  0.4992912643923735  0.3739023457655896
  0.2498042561315897  0.5007893567730094  0.8751190665345375
  0.7503504015004968  0.9993456432391871  0.3753111325931149
  0.7487588584096146  0.0020021215784426  0.8759020131885128
  0.7518868862593675  0.5000670038115670  0.3733754168622753
  0.7522203100104803  0.4989362163766913  0.8779729319212569
  0.9997676817334906  0.0000250439744359  0.9996407096418124
  0.9998414170035732  0.9999767553986876  0.4996112680593359
  0.0002944086960136  0.5001085032368002  0.0002364270637462
  0.0005354043824939  0.4999609463519031  0.4990436655181113
  0.4999490385797003  0.0006956168691055  0.0004747901166267
  0.4999782105481579  0.0005189908366920  0.4990224862611962
  0.5004963964112289  0.5007679679458485  0.9990144172637000
  0.2500604980919456  0.2504736782364740  0.9998891673221111
  0.2500360684605631  0.2501988173281967  0.5004074413767643
  0.2502077686228502  0.7497645462260727  0.0003444720159266
  0.2498872974410790  0.7502590560472797  0.5000283042590951
  0.7496501383587246  0.2504718611460642  0.0001631511354470
  0.7499418114726145  0.2497747750786023  0.5001988652143236
  0.7493961500288630  0.7492603223418833  0.0001038017670864
  0.2504042302885227  0.2501671543602674  0.2499465535136309
  0.2513467647520951  0.2513743565195308  0.7496269501277847
  0.2502254524018243  0.7497148199831272  0.2499358303774592
  0.2500642443187208  0.7517511564221742  0.7491021756313261
  0.7497238135016152  0.2499811326686726  0.2499492900776290
  0.7509517449115916  0.2507964463378115  0.7493007629941725
  0.7500244339601393  0.7499796859941690  0.2499442937312584
  0.7567416617041868  0.7537759512703476  0.7500827008779211
  0.9996903606542618  0.9996519573653432  0.2503572250112051
  0.0016917381146197  0.0034312643170364  0.7506073128267291
  0.0001872947253812  0.5000311387284769  0.2497211791534532
  0.9998174290530806  0.4990243485946752  0.7504995388364568
  0.4998993345124346  0.9999760864630154  0.2497853225286137
  0.4989893615065718  0.0006451809253810  0.7505831660164727
  0.4996915043153143  0.4997069333239189  0.2472956390035650
  0.5012325688195419  0.4988748610240654  0.7495161814474987
  0.5000763350546384  0.4997700947277273  0.4957090687566871
  0.7490099331873706  0.7492298638900465  0.5005306073626962
  0.1091609358215432  0.1403731230908530  0.2512262842037882
  0.1079608541752838  0.1410052469356894  0.7512419509010333
  0.1093688576219572  0.6410660740323607  0.2506745446372232
  0.1117072882686628  0.6391143434954161  0.7493901430932364
  0.6089314180301821  0.1409091407317398  0.2496106720079589
  0.6099590057144555  0.1406976577260456  0.7498491573975881
  0.6086460332271251  0.6406592692531535  0.2498745855168256
  0.3912399637359325  0.3585846987818114  0.2499173268577240
  0.3896990883391874  0.3560528037863704  0.7459226023775151
  0.3908698919154708  0.8588874187403245  0.2497058049516379
  0.3884009875696158  0.8625493078066111  0.7503466791479300
  0.8905414357752115  0.3593027376276559  0.2507498642385136
  0.8934653612368592  0.3566683296311986  0.7497472745028744
  0.8905316604056979  0.8588846048361199  0.2513909898551363
  0.8931277779169662  0.8577436712924664  0.7509479218656955
  0.3588831658228094  0.1091179129640072  0.2506684776913176
  0.3591122736918471  0.1089190182505790  0.7498106507883447
  0.3589327912581639  0.6085061761179860  0.2495400498897903
  0.3716004582228478  0.6171311447674848  0.7381738225904073
  0.8589265257152878  0.1094134886769918  0.2511340486403561
  0.8577561761632468  0.1071993627223016  0.7515616288310100
  0.8589197570585358  0.6092752638042418  0.2498897084240331
  0.8549984128480335  0.6061302872718212  0.7502438812167294
  0.1407859260569559  0.3908583435756487  0.2498278426956012
  0.1415182448468168  0.3914041366426633  0.7504738481426941
  0.1406916064972047  0.8906092730913910  0.2512456211708463
  0.1403025878547225  0.8908851066456650  0.7518706201122513
  0.6407836427118511  0.3914296604408723  0.2496953230982101
  0.6407296282387989  0.8905106195429543  0.2509656073658431
  0.6357842781269187  0.8824163895722630  0.7500516936923569
  0.3592403478386370  0.3908538812009839  0.9989638277192749
  0.3596131249374102  0.8902963087149776  0.9987178446459212
  0.3605934035862622  0.8894820756613158  0.5007251411632606
  0.8597844845738365  0.3903149452120140  0.0001993894464778
  0.8606290402045114  0.3892577193799452  0.4986730652788470
  0.8588807225827978  0.8896387535587519  0.9969567001950904
  0.8588715254403094  0.8888314388100624  0.5028290623474715
  0.1399869837104958  0.1092579104622451  0.0006778809347266
  0.1395919096264739  0.1094698798889660  0.4980671406308381
  0.1408729434679714  0.6094202572638544  0.9995003870270848
  0.1401243624675481  0.6101695009551980  0.4996069775114700
  0.6406687631049869  0.1097687400317677  0.9999368556641656
  0.6398774317354256  0.1100796796865200  0.4999484356278223
  0.6417687281821299  0.6091689613428036  0.0048200406372337
  0.1095582248191992  0.3596405646616411  0.0000599644245627
  0.1104027429673599  0.3603662416369834  0.4997446497233990
  0.1097176733961836  0.8591464095212863  0.9989179993919169
  0.1093311559001494  0.8597254763182662  0.4980512028749584
  0.6092245123955002  0.3594489085929298  0.0003761200021641
  0.6094691731646176  0.8595925255712095  0.0001951312016455
  0.6097293381942548  0.8596742554634474  0.4992950120810792
  0.3905104719287415  0.1406714089923357  0.0000952915719278
  0.3899845140301657  0.1400762679611247  0.4995469354851326
  0.3909367088226983  0.6412119864565939  0.0016331107047195
  0.3911463159331672  0.6382472784725021  0.5080837019429307
  0.8898364952948032  0.1403169384055417  0.9988441062696217
  0.8898306128700439  0.1394662656852180  0.4986471151772476
  0.8906202192054261  0.6408192627000425  0.9990091745971689
  0.9982165200158665  0.9985810826272340  0.1250295435326545
  0.0008691530862468  0.0004594678977701  0.6252036634225128
  0.9999203931831216  0.5007339958966270  0.1248939523090996
  0.0003591611238655  0.4996973256636600  0.6248831039018228
  0.4995589652833357  0.9997880767699563  0.1249261912349552
  0.5010188468233148  0.0003217656755926  0.6248940706880765
  0.4982525852232958  0.4983836088211506  0.1252939052779405
  0.9976628400534898  0.9985236744150119  0.3752398347877006
  0.0004268102133791  0.0003192815290985  0.8752257654573624
  0.9999046540673902  0.5009762585760318  0.3749445050650159
  0.0002192114003348  0.5001861956956919  0.8748559709405617
  0.4994929821659923  0.9999534788530570  0.3749375181038545
  0.5011169697842468  0.0009264515085559  0.8750682565281827
  0.5042523264059665  0.5068541427879365  0.8767432009460183
  0.2524179467428462  0.2537370111488713  0.3757567899528657
  0.2502333062331523  0.2494497969560194  0.8751882544608270
  0.2543781423084890  0.7476788233950346  0.3757452429630843
  0.2535671614610966  0.7446436091045687  0.8738526579334058
  0.7457677457023730  0.2523610318754926  0.3756703294365092
  0.7467235069353498  0.2538817457678245  0.8739437858000064
  0.7487278560542453  0.7473364429342859  0.3761955271572740
  0.7406358253845648  0.7419435832689334  0.8734207549604110
  0.2498948221707238  0.2498803952595985  0.1251891734525065
  0.2448271874832516  0.2448162825906327  0.6246251576692935
  0.2490358478068194  0.7509609213395375  0.1249369534499852
  0.2441958615834129  0.7555806035579629  0.6245276287701256
  0.7508523313842588  0.2497920302240166  0.1249892735440607
  0.7548062387342180  0.2453653302612358  0.6248262348459755
  0.7519357882668858  0.7524158205032040  0.1252849887388361
  0.6453393011571497  0.3976132616596932  0.7412111030535272
  0.4979261073540535  0.4983300862943744  0.3749851761722996
  0.6088003373779296  0.3613941891941115  0.5080291084398297
  0.3613384400599610  0.3910296743660410  0.5082220203556389
  0.7433485315155581  0.7448764004755108  0.6271692841316771
  0.8892964603484947  0.6396104096229799  0.5013316728255571
  0.6382578505388400  0.6075731747397904  0.5042054488432192
 
  0.00000000E+00  0.00000000E+00  0.00000000E+00
  0.00000000E+00  0.00000000E+00  0.00000000E+00
  0.00000000E+00  0.00000000E+00  0.00000000E+00
  0.00000000E+00  0.00000000E+00  0.00000000E+00
  0.00000000E+00  0.00000000E+00  0.00000000E+00
  0.00000000E+00  0.00000000E+00  0.00000000E+00
  0.00000000E+00  0.00000000E+00  0.00000000E+00
  0.00000000E+00  0.00000000E+00  0.00000000E+00
  0.00000000E+00  0.00000000E+00  0.00000000E+00
  0.00000000E+00  0.00000000E+00  0.00000000E+00
  0.00000000E+00  0.00000000E+00  0.00000000E+00
  0.00000000E+00  0.00000000E+00  0.00000000E+00
  0.00000000E+00  0.00000000E+00  0.00000000E+00
  0.00000000E+00  0.00000000E+00  0.00000000E+00
  0.00000000E+00  0.00000000E+00  0.00000000E+00
  0.00000000E+00  0.00000000E+00  0.00000000E+00
  0.00000000E+00  0.00000000E+00  0.00000000E+00
  0.00000000E+00  0.00000000E+00  0.00000000E+00
  0.00000000E+00  0.00000000E+00  0.00000000E+00
  0.00000000E+00  0.00000000E+00  0.00000000E+00
  0.00000000E+00  0.00000000E+00  0.00000000E+00
  0.00000000E+00  0.00000000E+00  0.00000000E+00
  0.00000000E+00  0.00000000E+00  0.00000000E+00
  0.00000000E+00  0.00000000E+00  0.00000000E+00
  0.00000000E+00  0.00000000E+00  0.00000000E+00
  0.00000000E+00  0.00000000E+00  0.00000000E+00
  0.00000000E+00  0.00000000E+00  0.00000000E+00
  0.00000000E+00  0.00000000E+00  0.00000000E+00
  0.00000000E+00  0.00000000E+00  0.00000000E+00
  0.00000000E+00  0.00000000E+00  0.00000000E+00
  0.00000000E+00  0.00000000E+00  0.00000000E+00
  0.00000000E+00  0.00000000E+00  0.00000000E+00
  0.00000000E+00  0.00000000E+00  0.00000000E+00
  0.00000000E+00  0.00000000E+00  0.00000000E+00
  0.00000000E+00  0.00000000E+00  0.00000000E+00
  0.00000000E+00  0.00000000E+00  0.00000000E+00
  0.00000000E+00  0.00000000E+00  0.00000000E+00
  0.00000000E+00  0.00000000E+00  0.00000000E+00
  0.00000000E+00  0.00000000E+00  0.00000000E+00
  0.00000000E+00  0.00000000E+00  0.00000000E+00
  0.00000000E+00  0.00000000E+00  0.00000000E+00
  0.00000000E+00  0.00000000E+00  0.00000000E+00
  0.00000000E+00  0.00000000E+00  0.00000000E+00
  0.00000000E+00  0.00000000E+00  0.00000000E+00
  0.00000000E+00  0.00000000E+00  0.00000000E+00
  0.00000000E+00  0.00000000E+00  0.00000000E+00
  0.00000000E+00  0.00000000E+00  0.00000000E+00
  0.00000000E+00  0.00000000E+00  0.00000000E+00
  0.00000000E+00  0.00000000E+00  0.00000000E+00
  0.00000000E+00  0.00000000E+00  0.00000000E+00
  0.00000000E+00  0.00000000E+00  0.00000000E+00
  0.00000000E+00  0.00000000E+00  0.00000000E+00
  0.00000000E+00  0.00000000E+00  0.00000000E+00
  0.00000000E+00  0.00000000E+00  0.00000000E+00
  0.00000000E+00  0.00000000E+00  0.00000000E+00
  0.00000000E+00  0.00000000E+00  0.00000000E+00
  0.00000000E+00  0.00000000E+00  0.00000000E+00
  0.00000000E+00  0.00000000E+00  0.00000000E+00
  0.00000000E+00  0.00000000E+00  0.00000000E+00
  0.00000000E+00  0.00000000E+00  0.00000000E+00
  0.00000000E+00  0.00000000E+00  0.00000000E+00
  0.00000000E+00  0.00000000E+00  0.00000000E+00
  0.00000000E+00  0.00000000E+00  0.00000000E+00
  0.00000000E+00  0.00000000E+00  0.00000000E+00
  0.00000000E+00  0.00000000E+00  0.00000000E+00
  0.00000000E+00  0.00000000E+00  0.00000000E+00
  0.00000000E+00  0.00000000E+00  0.00000000E+00
  0.00000000E+00  0.00000000E+00  0.00000000E+00
  0.00000000E+00  0.00000000E+00  0.00000000E+00
  0.00000000E+00  0.00000000E+00  0.00000000E+00
  0.00000000E+00  0.00000000E+00  0.00000000E+00
  0.00000000E+00  0.00000000E+00  0.00000000E+00
  0.00000000E+00  0.00000000E+00  0.00000000E+00
  0.00000000E+00  0.00000000E+00  0.00000000E+00
  0.00000000E+00  0.00000000E+00  0.00000000E+00
  0.00000000E+00  0.00000000E+00  0.00000000E+00
  0.00000000E+00  0.00000000E+00  0.00000000E+00
  0.00000000E+00  0.00000000E+00  0.00000000E+00
  0.00000000E+00  0.00000000E+00  0.00000000E+00
  0.00000000E+00  0.00000000E+00  0.00000000E+00
  0.00000000E+00  0.00000000E+00  0.00000000E+00
  0.00000000E+00  0.00000000E+00  0.00000000E+00
  0.00000000E+00  0.00000000E+00  0.00000000E+00
  0.00000000E+00  0.00000000E+00  0.00000000E+00
  0.00000000E+00  0.00000000E+00  0.00000000E+00
  0.00000000E+00  0.00000000E+00  0.00000000E+00
  0.00000000E+00  0.00000000E+00  0.00000000E+00
  0.00000000E+00  0.00000000E+00  0.00000000E+00
  0.00000000E+00  0.00000000E+00  0.00000000E+00
  0.00000000E+00  0.00000000E+00  0.00000000E+00
  0.00000000E+00  0.00000000E+00  0.00000000E+00
  0.00000000E+00  0.00000000E+00  0.00000000E+00
  0.00000000E+00  0.00000000E+00  0.00000000E+00
  0.00000000E+00  0.00000000E+00  0.00000000E+00
  0.00000000E+00  0.00000000E+00  0.00000000E+00
  0.00000000E+00  0.00000000E+00  0.00000000E+00
  0.00000000E+00  0.00000000E+00  0.00000000E+00
  0.00000000E+00  0.00000000E+00  0.00000000E+00
  0.00000000E+00  0.00000000E+00  0.00000000E+00
  0.00000000E+00  0.00000000E+00  0.00000000E+00
  0.00000000E+00  0.00000000E+00  0.00000000E+00
  0.00000000E+00  0.00000000E+00  0.00000000E+00
  0.00000000E+00  0.00000000E+00  0.00000000E+00
  0.00000000E+00  0.00000000E+00  0.00000000E+00
  0.00000000E+00  0.00000000E+00  0.00000000E+00
  0.00000000E+00  0.00000000E+00  0.00000000E+00
  0.00000000E+00  0.00000000E+00  0.00000000E+00
  0.00000000E+00  0.00000000E+00  0.00000000E+00
  0.00000000E+00  0.00000000E+00  0.00000000E+00
  0.00000000E+00  0.00000000E+00  0.00000000E+00
  0.00000000E+00  0.00000000E+00  0.00000000E+00
  0.00000000E+00  0.00000000E+00  0.00000000E+00
  0.00000000E+00  0.00000000E+00  0.00000000E+00
  0.00000000E+00  0.00000000E+00  0.00000000E+00
  0.00000000E+00  0.00000000E+00  0.00000000E+00
  0.00000000E+00  0.00000000E+00  0.00000000E+00
  0.00000000E+00  0.00000000E+00  0.00000000E+00
  0.00000000E+00  0.00000000E+00  0.00000000E+00
  0.00000000E+00  0.00000000E+00  0.00000000E+00
  0.00000000E+00  0.00000000E+00  0.00000000E+00
  0.00000000E+00  0.00000000E+00  0.00000000E+00
  0.00000000E+00  0.00000000E+00  0.00000000E+00
  0.00000000E+00  0.00000000E+00  0.00000000E+00
  0.00000000E+00  0.00000000E+00  0.00000000E+00
  0.00000000E+00  0.00000000E+00  0.00000000E+00
  0.00000000E+00  0.00000000E+00  0.00000000E+00
  0.00000000E+00  0.00000000E+00  0.00000000E+00
  0.00000000E+00  0.00000000E+00  0.00000000E+00
  0.00000000E+00  0.00000000E+00  0.00000000E+00
  0.00000000E+00  0.00000000E+00  0.00000000E+00
  0.00000000E+00  0.00000000E+00  0.00000000E+00
  0.00000000E+00  0.00000000E+00  0.00000000E+00
  0.00000000E+00  0.00000000E+00  0.00000000E+00
  0.00000000E+00  0.00000000E+00  0.00000000E+00
  0.00000000E+00  0.00000000E+00  0.00000000E+00
  0.00000000E+00  0.00000000E+00  0.00000000E+00
  0.00000000E+00  0.00000000E+00  0.00000000E+00
  0.00000000E+00  0.00000000E+00  0.00000000E+00
  0.00000000E+00  0.00000000E+00  0.00000000E+00
  0.00000000E+00  0.00000000E+00  0.00000000E+00
  0.00000000E+00  0.00000000E+00  0.00000000E+00
  0.00000000E+00  0.00000000E+00  0.00000000E+00
  0.00000000E+00  0.00000000E+00  0.00000000E+00
  0.00000000E+00  0.00000000E+00  0.00000000E+00
  0.00000000E+00  0.00000000E+00  0.00000000E+00
  0.00000000E+00  0.00000000E+00  0.00000000E+00
  0.00000000E+00  0.00000000E+00  0.00000000E+00
  0.00000000E+00  0.00000000E+00  0.00000000E+00
  0.00000000E+00  0.00000000E+00  0.00000000E+00
  0.00000000E+00  0.00000000E+00  0.00000000E+00
  0.00000000E+00  0.00000000E+00  0.00000000E+00
  0.00000000E+00  0.00000000E+00  0.00000000E+00
  0.00000000E+00  0.00000000E+00  0.00000000E+00
  0.00000000E+00  0.00000000E+00  0.00000000E+00
  0.00000000E+00  0.00000000E+00  0.00000000E+00
  0.00000000E+00  0.00000000E+00  0.00000000E+00
  0.00000000E+00  0.00000000E+00  0.00000000E+00
  0.00000000E+00  0.00000000E+00  0.00000000E+00
