SrTiFeO                                 
   1.00000000000000     
    11.1989999999999998    0.0000000000000000    0.0000000000000000
     0.0000000000000000   11.1989999999999998    0.0000000000000000
     0.0000000000000000    0.0000000000000000   15.9830000000000005
   Sr   Ti   O 
    32    32    94
Direct
  0.0003705660780007  0.2496294339219992  0.1248869628435651
  0.0007390550451934  0.2492609449548067  0.6243546375953659
 -0.0010708388249989  0.7501721690056464  0.1254780839625584
  0.0056073548685143  0.7489031197548487  0.6239790595856018
  0.4998278309943535  0.2510708388249990  0.1254780839625584
  0.5010968802451513  0.2443926451314857  0.6239790595856018
  0.4998303662697455  0.7501696337302545  0.1243467610764992
  0.4937117706809100  0.7562882293190900  0.6253630495878122
  0.0007611788570053  0.2492388211429946  0.3745248628083087
  0.0002370950816974  0.2497629049183026  0.8765735181519716
  0.0013348329604954  0.7484059356214938  0.3742146866847475
  0.0018033357485865  0.7504852400057189  0.8764485617594289
  0.5015940643785061  0.2486651670395046  0.3742146866847475
  0.4995147599942810  0.2481966642514134  0.8764485617594289
  0.4984751199842183  0.7515248800157815  0.3709933798299503
  0.4960861361955766  0.7539138638044237  0.8783743191650986
  0.2496294339219992  0.0003705660780007  0.1251130371564349
  0.2492609449548067  0.0007390550451934  0.6256453624046341
  0.2510708388249990  0.4998278309943535  0.1245219160374416
  0.2443926451314857  0.5010968802451513  0.6260209404143982
  0.7501721690056464 -0.0010708388249989  0.1245219160374416
  0.7489031197548487  0.0056073548685143  0.6260209404143982
  0.7501696337302545  0.4998303662697455  0.1256532389235008
  0.7562882293190900  0.4937117706809100  0.6246369504121878
  0.2497629049183026  0.0002370950816974  0.3734264818480285
  0.2492388211429946  0.0007611788570053  0.8754751371916908
  0.2481966642514134  0.4995147599942810  0.3735514382405710
  0.2486651670395046  0.5015940643785061  0.8757853133152520
  0.7504852400057189  0.0018033357485865  0.3735514382405710
  0.7484059356214938  0.0013348329604954  0.8757853133152520
  0.7539138638044237  0.4960861361955766  0.3716256808349015
  0.7515248800157815  0.4984751199842183  0.8790066201700502
 -0.0004806767855177 -0.0003704776678476 -0.0001915878322931
  0.0017301937822146  0.0007632605216670  0.5000968957359652
  0.0001857840123275  0.4999945252583483  0.0003268278273034
  0.0003632565801965  0.4988646452082691  0.4996924340928585
  0.4998731487931453  0.0005165231643040  0.0005035663545952
  0.4989564347683981 -0.0004835218480889  0.4993885149288689
  0.5003880781388808  0.5006622931685510  0.0000091571059326
  0.2503704776678475  0.2504806767855176 -0.0001915878322931
  0.2492367394783330  0.2482698062177854  0.5000968957359652
  0.2494834768356960  0.7501268512068546  0.0005035663545952
  0.2504835218480890  0.7510435652316021  0.4993885149288689
  0.7500054747416516  0.2498142159876725  0.0003268278273034
  0.7511353547917311  0.2496367434198036  0.4996924340928585
  0.7493377068314491  0.7496119218611192  0.0000091571059326
  0.2504806767855176  0.2503704776678475  0.2501915878322929
  0.2482698062177854  0.2492367394783330  0.7499031042640349
  0.2498142159876725  0.7500054747416516  0.2496731721726966
  0.2496367434198036  0.7511353547917311  0.7503075659071419
  0.7501268512068546  0.2494834768356960  0.2494964336454048
  0.7510435652316021  0.2504835218480890  0.7506114850711308
  0.7496119218611192  0.7493377068314491  0.2499908428940675
  0.7551843116541821  0.7517871641700101  0.7489669691654018
 -0.0003704776678476 -0.0004806767855177  0.2501915878322929
  0.0007632605216670  0.0017301937822146  0.7499031042640349
  0.0005165231643040  0.4998731487931453  0.2494964336454048
 -0.0004835218480889  0.4989564347683981  0.7506114850711308
  0.4999945252583483  0.0001857840123275  0.2496731721726966
  0.4988646452082691  0.0003632565801965  0.7503075659071419
  0.5006622931685510  0.5003880781388808  0.2499908428940675
  0.4982128358299898  0.4948156883458182  0.7489669691654018
  0.4948156883458182  0.4982128358299898  0.5010330308345982
  0.7517871641700101  0.7551843116541821  0.5010330308345982
  0.1101923802821276  0.1398076197178723  0.2494175765576755
  0.1088117892144288  0.1411882107855711  0.7507659839752122
  0.1095494334106835  0.6404506836257424  0.2501239543610797
  0.1099867592001405  0.6397782571192197  0.7498963082052267
  0.6095493163742576  0.1404505665893164  0.2501239543610797
  0.6102217428807803  0.1400132407998596  0.7498963082052267
  0.6093310834061864  0.6406689165938136  0.2454005204321859
  0.3917165570443944  0.3611068383103874  0.2543661226877896
  0.3937435944488528  0.3596184854777055  0.7461310972987398
  0.3896459229702849  0.8603540770297153  0.2495173982800323
  0.3876245594552178  0.8623754405447823  0.7506511955843120
  0.8904372259722493  0.3595627740277507  0.2510196934067647
  0.8938698564953830  0.3561301435046171  0.7490765090984988
  0.8888931616896127  0.8582834429556053  0.2543661226877896
  0.8903815145222943  0.8562564055511472  0.7461310972987398
  0.3602382596674144  0.1102016694970984  0.2500817279210319
  0.3600875809672359  0.1102483865058235  0.7498559160173999
  0.3598958196853286  0.6096624087981759  0.2514199528288854
  0.3684302432026499  0.6147266432333351  0.7481448636158686
  0.8591749591758919  0.1096041324219134  0.2498510618757670
  0.8577888586194928  0.1073304590091128  0.7502652570157409
  0.8593879448837100  0.6092171942525804  0.2500506656390031
  0.8535428298166373  0.6047328679887475  0.7498980270315808
  0.1403958675780866  0.3908250408241081  0.2498510618757670
  0.1426695409908872  0.3922111413805071  0.7502652570157409
  0.1397983305029016  0.8897617403325856  0.2500817279210319
  0.1397516134941765  0.8899124190327639  0.7498559160173999
  0.6407828057474196  0.3906120551162902  0.2500506656390031
  0.6403375912018241  0.8901041803146713  0.2514199528288854
  0.6352733567666649  0.8815697567973504  0.7481448636158686
  0.3611068383103874  0.3917165570443944 -0.0043661226877896
  0.3595627740277507  0.8904372259722493 -0.0010196934067648
  0.3561301435046171  0.8938698564953830  0.5009234909015012
  0.8603540770297153  0.3896459229702849  0.0004826017199676
  0.8623754405447823  0.3876245594552178  0.4993488044156881
  0.8582834429556053  0.8888931616896127 -0.0043661226877896
  0.8562564055511472  0.8903815145222943  0.5038689027012602
  0.1398076197178723  0.1101923802821276  0.0005824234423245
  0.1411882107855711  0.1088117892144288  0.4992340160247877
  0.1404505665893164  0.6095493163742576 -0.0001239543610798
  0.1400132407998596  0.6102217428807803  0.5001036917947733
  0.6404506836257424  0.1095494334106835 -0.0001239543610798
  0.6397782571192197  0.1099867592001405  0.5001036917947733
  0.6406689165938136  0.6093310834061864  0.0045994795678140
  0.1102016694970984  0.3602382596674144 -0.0000817279210320
  0.1102483865058235  0.3600875809672359  0.5001440839826001
  0.1096041324219134  0.8591749591758919  0.0001489381242330
  0.1073304590091128  0.8577888586194928  0.4997347429842590
  0.6096624087981759  0.3598958196853286 -0.0014199528288853
  0.6092171942525804  0.8593879448837100 -0.0000506656390032
  0.6047328679887475  0.8535428298166373  0.5001019729684191
  0.3908250408241081  0.1403958675780866  0.0001489381242330
  0.3922111413805071  0.1426695409908872  0.4997347429842590
  0.3906120551162902  0.6407828057474196 -0.0000506656390032
  0.3964571701833624  0.6452671320112525  0.5001019729684191
  0.8897617403325856  0.1397983305029016 -0.0000817279210320
  0.8899124190327639  0.1397516134941765  0.5001440839826001
  0.8901041803146713  0.6403375912018241 -0.0014199528288853
 -0.0032370873350424 -0.0032370873350424  0.1250000000000000
  0.0011890938769905  0.0011890938769905  0.6250000000000000
 -0.0006521843556520  0.5003841136357077  0.1249865707136667
  0.0012342073587215  0.5002290173197326  0.6251758678867697
  0.5003841136357077 -0.0006521843556520  0.1250134292863333
  0.5002290173197326  0.0012342073587215  0.6248241321132303
  0.4964393411435583  0.4964393411435583  0.1250000000000000
 -0.0015740255175703 -0.0002786078492788  0.3756805491972172
 -0.0002786078492788 -0.0015740255175703  0.8743194508027826
  0.0003674617703346  0.5014081919606501  0.3752605955536644
 -0.0000443192751119  0.4996054204382920  0.8746930389137658
  0.4996054204382920 -0.0000443192751119  0.3753069610862343
  0.5014081919606501  0.0003674617703346  0.8747394044463356
  0.5079153642190606  0.5097600758527810  0.8722497102545005
  0.2502786078492789  0.2515740255175703  0.3756805491972172
  0.2515740255175703  0.2502786078492789  0.8743194508027826
  0.2500443192751119  0.7503945795617079  0.3753069610862343
  0.2496325382296654  0.7485918080393499  0.8747394044463356
  0.7485918080393499  0.2496325382296654  0.3752605955536644
  0.7503945795617079  0.2500443192751119  0.8746930389137658
  0.7420846357809394  0.7402399241472190  0.3777502897454995
  0.7402399241472190  0.7420846357809394  0.8722497102545005
  0.2532370873350425  0.2532370873350425  0.1250000000000000
  0.2488109061230096  0.2488109061230096  0.6250000000000000
  0.2506521843556520  0.7496158863642923  0.1250134292863333
  0.2487657926412784  0.7497709826802674  0.6248241321132303
  0.7496158863642923  0.2506521843556520  0.1249865707136667
  0.7497709826802674  0.2487657926412784  0.6251758678867697
  0.7535606588564419  0.7535606588564419  0.1250000000000000
  0.6452671320112525  0.3964571701833624  0.7498980270315808
  0.5097600758527810  0.5079153642190606  0.3777502897454995
  0.6147266432333351  0.3684302432026499  0.5018551363841314
  0.3596184854777055  0.3937435944488528  0.5038689027012602
  0.7316554973564295  0.7316554973564295  0.6250000000000000
  0.8815697567973504  0.6352733567666649  0.5018551363841314
  0.5183445026435705  0.5183445026435705  0.6250000000000000
 
  0.00000000E+00  0.00000000E+00  0.00000000E+00
  0.00000000E+00  0.00000000E+00  0.00000000E+00
  0.00000000E+00  0.00000000E+00  0.00000000E+00
  0.00000000E+00  0.00000000E+00  0.00000000E+00
  0.00000000E+00  0.00000000E+00  0.00000000E+00
  0.00000000E+00  0.00000000E+00  0.00000000E+00
  0.00000000E+00  0.00000000E+00  0.00000000E+00
  0.00000000E+00  0.00000000E+00  0.00000000E+00
  0.00000000E+00  0.00000000E+00  0.00000000E+00
  0.00000000E+00  0.00000000E+00  0.00000000E+00
  0.00000000E+00  0.00000000E+00  0.00000000E+00
  0.00000000E+00  0.00000000E+00  0.00000000E+00
  0.00000000E+00  0.00000000E+00  0.00000000E+00
  0.00000000E+00  0.00000000E+00  0.00000000E+00
  0.00000000E+00  0.00000000E+00  0.00000000E+00
  0.00000000E+00  0.00000000E+00  0.00000000E+00
  0.00000000E+00  0.00000000E+00  0.00000000E+00
  0.00000000E+00  0.00000000E+00  0.00000000E+00
  0.00000000E+00  0.00000000E+00  0.00000000E+00
  0.00000000E+00  0.00000000E+00  0.00000000E+00
  0.00000000E+00  0.00000000E+00  0.00000000E+00
  0.00000000E+00  0.00000000E+00  0.00000000E+00
  0.00000000E+00  0.00000000E+00  0.00000000E+00
  0.00000000E+00  0.00000000E+00  0.00000000E+00
  0.00000000E+00  0.00000000E+00  0.00000000E+00
  0.00000000E+00  0.00000000E+00  0.00000000E+00
  0.00000000E+00  0.00000000E+00  0.00000000E+00
  0.00000000E+00  0.00000000E+00  0.00000000E+00
  0.00000000E+00  0.00000000E+00  0.00000000E+00
  0.00000000E+00  0.00000000E+00  0.00000000E+00
  0.00000000E+00  0.00000000E+00  0.00000000E+00
  0.00000000E+00  0.00000000E+00  0.00000000E+00
  0.00000000E+00  0.00000000E+00  0.00000000E+00
  0.00000000E+00  0.00000000E+00  0.00000000E+00
  0.00000000E+00  0.00000000E+00  0.00000000E+00
  0.00000000E+00  0.00000000E+00  0.00000000E+00
  0.00000000E+00  0.00000000E+00  0.00000000E+00
  0.00000000E+00  0.00000000E+00  0.00000000E+00
  0.00000000E+00  0.00000000E+00  0.00000000E+00
  0.00000000E+00  0.00000000E+00  0.00000000E+00
  0.00000000E+00  0.00000000E+00  0.00000000E+00
  0.00000000E+00  0.00000000E+00  0.00000000E+00
  0.00000000E+00  0.00000000E+00  0.00000000E+00
  0.00000000E+00  0.00000000E+00  0.00000000E+00
  0.00000000E+00  0.00000000E+00  0.00000000E+00
  0.00000000E+00  0.00000000E+00  0.00000000E+00
  0.00000000E+00  0.00000000E+00  0.00000000E+00
  0.00000000E+00  0.00000000E+00  0.00000000E+00
  0.00000000E+00  0.00000000E+00  0.00000000E+00
  0.00000000E+00  0.00000000E+00  0.00000000E+00
  0.00000000E+00  0.00000000E+00  0.00000000E+00
  0.00000000E+00  0.00000000E+00  0.00000000E+00
  0.00000000E+00  0.00000000E+00  0.00000000E+00
  0.00000000E+00  0.00000000E+00  0.00000000E+00
  0.00000000E+00  0.00000000E+00  0.00000000E+00
  0.00000000E+00  0.00000000E+00  0.00000000E+00
  0.00000000E+00  0.00000000E+00  0.00000000E+00
  0.00000000E+00  0.00000000E+00  0.00000000E+00
  0.00000000E+00  0.00000000E+00  0.00000000E+00
  0.00000000E+00  0.00000000E+00  0.00000000E+00
  0.00000000E+00  0.00000000E+00  0.00000000E+00
  0.00000000E+00  0.00000000E+00  0.00000000E+00
  0.00000000E+00  0.00000000E+00  0.00000000E+00
  0.00000000E+00  0.00000000E+00  0.00000000E+00
  0.00000000E+00  0.00000000E+00  0.00000000E+00
  0.00000000E+00  0.00000000E+00  0.00000000E+00
  0.00000000E+00  0.00000000E+00  0.00000000E+00
  0.00000000E+00  0.00000000E+00  0.00000000E+00
  0.00000000E+00  0.00000000E+00  0.00000000E+00
  0.00000000E+00  0.00000000E+00  0.00000000E+00
  0.00000000E+00  0.00000000E+00  0.00000000E+00
  0.00000000E+00  0.00000000E+00  0.00000000E+00
  0.00000000E+00  0.00000000E+00  0.00000000E+00
  0.00000000E+00  0.00000000E+00  0.00000000E+00
  0.00000000E+00  0.00000000E+00  0.00000000E+00
  0.00000000E+00  0.00000000E+00  0.00000000E+00
  0.00000000E+00  0.00000000E+00  0.00000000E+00
  0.00000000E+00  0.00000000E+00  0.00000000E+00
  0.00000000E+00  0.00000000E+00  0.00000000E+00
  0.00000000E+00  0.00000000E+00  0.00000000E+00
  0.00000000E+00  0.00000000E+00  0.00000000E+00
  0.00000000E+00  0.00000000E+00  0.00000000E+00
  0.00000000E+00  0.00000000E+00  0.00000000E+00
  0.00000000E+00  0.00000000E+00  0.00000000E+00
  0.00000000E+00  0.00000000E+00  0.00000000E+00
  0.00000000E+00  0.00000000E+00  0.00000000E+00
  0.00000000E+00  0.00000000E+00  0.00000000E+00
  0.00000000E+00  0.00000000E+00  0.00000000E+00
  0.00000000E+00  0.00000000E+00  0.00000000E+00
  0.00000000E+00  0.00000000E+00  0.00000000E+00
  0.00000000E+00  0.00000000E+00  0.00000000E+00
  0.00000000E+00  0.00000000E+00  0.00000000E+00
  0.00000000E+00  0.00000000E+00  0.00000000E+00
  0.00000000E+00  0.00000000E+00  0.00000000E+00
  0.00000000E+00  0.00000000E+00  0.00000000E+00
  0.00000000E+00  0.00000000E+00  0.00000000E+00
  0.00000000E+00  0.00000000E+00  0.00000000E+00
  0.00000000E+00  0.00000000E+00  0.00000000E+00
  0.00000000E+00  0.00000000E+00  0.00000000E+00
  0.00000000E+00  0.00000000E+00  0.00000000E+00
  0.00000000E+00  0.00000000E+00  0.00000000E+00
  0.00000000E+00  0.00000000E+00  0.00000000E+00
  0.00000000E+00  0.00000000E+00  0.00000000E+00
  0.00000000E+00  0.00000000E+00  0.00000000E+00
  0.00000000E+00  0.00000000E+00  0.00000000E+00
  0.00000000E+00  0.00000000E+00  0.00000000E+00
  0.00000000E+00  0.00000000E+00  0.00000000E+00
  0.00000000E+00  0.00000000E+00  0.00000000E+00
  0.00000000E+00  0.00000000E+00  0.00000000E+00
  0.00000000E+00  0.00000000E+00  0.00000000E+00
  0.00000000E+00  0.00000000E+00  0.00000000E+00
  0.00000000E+00  0.00000000E+00  0.00000000E+00
  0.00000000E+00  0.00000000E+00  0.00000000E+00
  0.00000000E+00  0.00000000E+00  0.00000000E+00
  0.00000000E+00  0.00000000E+00  0.00000000E+00
  0.00000000E+00  0.00000000E+00  0.00000000E+00
  0.00000000E+00  0.00000000E+00  0.00000000E+00
  0.00000000E+00  0.00000000E+00  0.00000000E+00
  0.00000000E+00  0.00000000E+00  0.00000000E+00
  0.00000000E+00  0.00000000E+00  0.00000000E+00
  0.00000000E+00  0.00000000E+00  0.00000000E+00
  0.00000000E+00  0.00000000E+00  0.00000000E+00
  0.00000000E+00  0.00000000E+00  0.00000000E+00
  0.00000000E+00  0.00000000E+00  0.00000000E+00
  0.00000000E+00  0.00000000E+00  0.00000000E+00
  0.00000000E+00  0.00000000E+00  0.00000000E+00
  0.00000000E+00  0.00000000E+00  0.00000000E+00
  0.00000000E+00  0.00000000E+00  0.00000000E+00
  0.00000000E+00  0.00000000E+00  0.00000000E+00
  0.00000000E+00  0.00000000E+00  0.00000000E+00
  0.00000000E+00  0.00000000E+00  0.00000000E+00
  0.00000000E+00  0.00000000E+00  0.00000000E+00
  0.00000000E+00  0.00000000E+00  0.00000000E+00
  0.00000000E+00  0.00000000E+00  0.00000000E+00
  0.00000000E+00  0.00000000E+00  0.00000000E+00
  0.00000000E+00  0.00000000E+00  0.00000000E+00
  0.00000000E+00  0.00000000E+00  0.00000000E+00
  0.00000000E+00  0.00000000E+00  0.00000000E+00
  0.00000000E+00  0.00000000E+00  0.00000000E+00
  0.00000000E+00  0.00000000E+00  0.00000000E+00
  0.00000000E+00  0.00000000E+00  0.00000000E+00
  0.00000000E+00  0.00000000E+00  0.00000000E+00
  0.00000000E+00  0.00000000E+00  0.00000000E+00
  0.00000000E+00  0.00000000E+00  0.00000000E+00
  0.00000000E+00  0.00000000E+00  0.00000000E+00
  0.00000000E+00  0.00000000E+00  0.00000000E+00
  0.00000000E+00  0.00000000E+00  0.00000000E+00
  0.00000000E+00  0.00000000E+00  0.00000000E+00
  0.00000000E+00  0.00000000E+00  0.00000000E+00
  0.00000000E+00  0.00000000E+00  0.00000000E+00
  0.00000000E+00  0.00000000E+00  0.00000000E+00
  0.00000000E+00  0.00000000E+00  0.00000000E+00
  0.00000000E+00  0.00000000E+00  0.00000000E+00
  0.00000000E+00  0.00000000E+00  0.00000000E+00
  0.00000000E+00  0.00000000E+00  0.00000000E+00
  0.00000000E+00  0.00000000E+00  0.00000000E+00
  0.00000000E+00  0.00000000E+00  0.00000000E+00
  0.00000000E+00  0.00000000E+00  0.00000000E+00
