SrTiFeO                                 
   1.00000000000000     
    11.1989999999999998    0.0000000000000000    0.0000000000000000
     0.0000000000000000   11.1989999999999998    0.0000000000000000
     0.0000000000000000    0.0000000000000000   15.9830000000000005
   Sr   Ti   Fe   O 
    32    31     1    94
Direct
 -0.0001977284778006  0.2500931083377448  0.1236374409630438
  0.0050990052279618  0.2483269799888530  0.6279912176039159
  0.0003451252372980  0.7495788749134055  0.1255187734553230
 -0.0005087008584954  0.7525421407185877  0.6246660502579147
  0.5012640630427472  0.2505023218717949  0.1248042662525875
  0.4926764678267658  0.2477100578465906  0.6286314632680279
  0.4998681012994360  0.7488788739372890  0.1249659127059722
  0.4985730948119909  0.7480585036267564  0.6240131722076098
  0.0050990052279618  0.2483269799888530  0.3720087823960841
 -0.0001977284778006  0.2500931083377448  0.8763625590369561
 -0.0005087008584954  0.7525421407185877  0.3753339497420853
  0.0003451252372980  0.7495788749134055  0.8744812265446769
  0.4926764678267658  0.2477100578465906  0.3713685367319721
  0.5012640630427472  0.2505023218717949  0.8751957337474126
  0.4985730948119909  0.7480585036267564  0.3759868277923908
  0.4998681012994360  0.7488788739372890  0.8750340872940280
  0.2499982116909396  0.0001510373797898  0.1249972105708882
  0.2490051471854923 -0.0005339874746055  0.6250921015748339
  0.2514710372365070  0.5000195486496622  0.1254571452495117
  0.2575724200168989  0.4992575921518722  0.6232465536971464
  0.7506268550493895  0.0010775965266332  0.1252724091578134
  0.7483025088187589 -0.0049196616654117  0.6242583657392440
  0.7507215369810903  0.5011460810019864  0.1230251221866410
  0.7477884064387283  0.5076808408161868  0.6321044795900013
  0.2490051471854923 -0.0005339874746055  0.3749078984251658
  0.2499982116909396  0.0001510373797898  0.8750027894291117
  0.2575724200168989  0.4992575921518722  0.3767534463028537
  0.2514710372365070  0.5000195486496622  0.8745428547504881
  0.7483025088187589 -0.0049196616654117  0.3757416342607561
  0.7506268550493895  0.0010775965266332  0.8747275908421867
  0.7477884064387283  0.5076808408161868  0.3678955204099988
  0.7507215369810903  0.5011460810019864  0.8769748778133593
 -0.0004847520230493  0.0002163727631465 -0.0000000000000000
  0.0015491941815361 -0.0006887300762165  0.5000000000000000
  0.0011360544939421  0.5003443638707579 -0.0000000000000000
  0.0073140562502671  0.5043522518398398  0.5000000000000000
  0.5000154631737898  0.0002573979231304 -0.0000000000000000
  0.4997132596073050  0.0001169692008165  0.5000000000000000
  0.4994877307437908  0.5006590209158613 -0.0000000000000000
  0.2501937932908467  0.2499610691822384 -0.0000000000000000
  0.2511236239413915  0.2495693742000876  0.5000000000000000
  0.2500291446184923  0.7495803825750563 -0.0000000000000000
  0.2527869987551474  0.7532345155354090  0.5000000000000000
  0.7503269174068906  0.2491337688817853 -0.0000000000000000
  0.7497637157920684  0.7508169156015910 -0.0000000000000000
  0.2495355218352761  0.2499322942724904  0.2492252774874417
  0.2495355218352761  0.2499322942724904  0.7507747225125579
  0.2492649193830404  0.7498834543847822  0.2505807261729701
  0.2492649193830404  0.7498834543847822  0.7494192738270301
  0.7493766404283564  0.2519170063449938  0.2500034860951859
  0.7493766404283564  0.2519170063449938  0.7499965139048140
  0.7499793685499099  0.7510285544154446  0.2492389870919980
  0.7499793685499099  0.7510285544154446  0.7507610129080020
 -0.0006996012911678  0.0003220244354080  0.2500859944277330
 -0.0006996012911678  0.0003220244354080  0.7499140055722670
  0.0002587454273263  0.4991465391047719  0.2501429269481927
  0.0002587454273263  0.4991465391047719  0.7498570730518074
  0.4998056355098262 -0.0009625090037649  0.2500515628263141
  0.4998056355098262 -0.0009625090037649  0.7499484371736858
  0.5007378472443403  0.4990715565274741  0.2507331775572291
  0.5007378472443403  0.4990715565274741  0.7492668224427708
  0.7552722634996856  0.2458903713422849  0.5000000000000000
  0.7489934240641367  0.7463432323460751  0.5000000000000000
  0.5046673479355939  0.4983824834598896  0.5000000000000000
  0.1092341149745824  0.1405414307556379  0.2485345373378108
  0.1092341149745824  0.1405414307556379  0.7514654626621889
  0.1088027850113426  0.6396149256707349  0.2529229156843107
  0.1088027850113426  0.6396149256707349  0.7470770843156895
  0.6098963593006664  0.1416041225654560  0.2533098442754407
  0.6098963593006664  0.1416041225654560  0.7466901557245593
  0.6104177664232987  0.6406652539505607  0.2511057637285529
  0.6104177664232987  0.6406652539505607  0.7488942362714472
  0.3899948112370847  0.3586248764149786  0.2475809457765102
  0.3899948112370847  0.3586248764149786  0.7524190542234898
  0.3906132168347390  0.8592855084892651  0.2487338508536841
  0.3906132168347390  0.8592855084892651  0.7512661491463160
  0.8910360224155371  0.3586870830429320  0.2472846443775683
  0.8910360224155371  0.3586870830429320  0.7527153556224314
  0.8900846759523836  0.8603414894913833  0.2494053797806016
  0.8900846759523836  0.8603414894913833  0.7505946202193983
  0.3601110528890173  0.1099260292527963  0.2509516997927977
  0.3601110528890173  0.1099260292527963  0.7490483002072024
  0.3601502218295846  0.6095027993204148  0.2533532777778135
  0.3601502218295846  0.6095027993204148  0.7466467222221864
  0.8582022436579860  0.1114563753082940  0.2566078227128245
  0.8582022436579860  0.1114563753082940  0.7433921772871757
  0.8603835993068066  0.6104367473252701  0.2482228548578025
  0.8603835993068066  0.6104367473252701  0.7517771451421976
  0.1409791605458435  0.3910905705634511  0.2514796144232809
  0.1409791605458435  0.3910905705634511  0.7485203855767193
  0.1396720083932323  0.8907094453415018  0.2474063741172966
  0.1396720083932323  0.8907094453415018  0.7525936258827034
  0.6415480241466712  0.3910697976825365  0.2417738699370329
  0.6415480241466712  0.3910697976825365  0.7582261300629670
  0.6410810243905370  0.8912342632574208  0.2491587933986072
  0.6410810243905370  0.8912342632574208  0.7508412066013930
  0.3592459067399331  0.3903388111896918 -0.0000000000000000
  0.3589345558084231  0.8909587960194624 -0.0000000000000000
  0.3563111915546848  0.8947230716211279  0.5000000000000000
  0.8600584243391413  0.3899164414982463 -0.0000000000000000
  0.8587346774957276  0.8909052954338939 -0.0000000000000000
  0.8587267399024607  0.8902719568589915  0.5000000000000000
  0.1405713994228847  0.1086700379756520 -0.0000000000000000
  0.1441564676028517  0.1059583436961691  0.5000000000000000
  0.1409761836098675  0.6089853098239911 -0.0000000000000000
  0.1423443959672674  0.6072049488037921  0.5000000000000000
  0.6406640446232726  0.1090656182107649 -0.0000000000000000
  0.6364569690035247  0.1107845380710691  0.5000000000000000
  0.6406755712373616  0.6100325786487975 -0.0000000000000000
  0.1094523780306483  0.3591111763374797 -0.0000000000000000
  0.1041896597662856  0.3562603154756425  0.5000000000000000
  0.1087987821467624  0.8595736009808367 -0.0000000000000000
  0.1055838153664703  0.8575525020569880  0.5000000000000000
  0.6105610335493949  0.3598089704886300 -0.0000000000000000
  0.6085722437420116  0.8594321673948937 -0.0000000000000000
  0.6081201124214675  0.8566978344875538  0.5000000000000000
  0.3907219637455968  0.1408735917843203 -0.0000000000000000
  0.3907553158316520  0.1399867845431302  0.5000000000000000
  0.3902956164587417  0.6417859104953183 -0.0000000000000000
  0.8911266648566878  0.1409123556414459 -0.0000000000000000
  0.8993661178163226  0.1438676534879238  0.5000000000000000
  0.8905142856526135  0.6403232731942519 -0.0000000000000000
 -0.0038205597493610  0.0023750699546259  0.1252015647281112
  0.0022686247354119 -0.0016927862166747  0.6256048157934527
  0.0018671768483807  0.5005248223055708  0.1251375070257084
 -0.0095559403835546  0.4922279080636742  0.6233182945402940
  0.5005533072816770  0.0019819539716692  0.1252439174787275
  0.4999078164866322 -0.0027259644430112  0.6252725154492254
  0.4974814126444698  0.5031171996949727  0.1241170933060780
  0.5080668764970588  0.4876088884007184  0.6274280427007710
  0.0022686247354119 -0.0016927862166747  0.3743951842065472
 -0.0038205597493610  0.0023750699546259  0.8747984352718889
 -0.0095559403835546  0.4922279080636742  0.3766817054597061
  0.0018671768483807  0.5005248223055708  0.8748624929742919
  0.4999078164866322 -0.0027259644430112  0.3747274845507748
  0.5005533072816770  0.0019819539716692  0.8747560825212723
  0.4974814126444698  0.5031171996949727  0.8758829066939222
  0.2490276368607478  0.2493745642720130  0.3741473156321986
  0.2489907227701894  0.2492977880870807  0.8752810287765014
  0.2474702432155970  0.7541877170051459  0.3742168871326694
  0.2492623293886140  0.7474096826078829  0.8747443834340152
  0.7513926509463603  0.2446908211523227  0.8749054272506854
  0.7494633705449860  0.7503389133720605  0.8753282906480584
  0.2489907227701894  0.2492977880870807  0.1247189712234989
  0.2490276368607478  0.2493745642720130  0.6258526843678014
  0.2492623293886140  0.7474096826078829  0.1252556165659848
  0.2474702432155970  0.7541877170051459  0.6257831128673306
  0.7513926509463603  0.2446908211523227  0.1250945727493147
  0.7421693637291957  0.2735288214061417  0.6215509895776070
  0.7494633705449860  0.7503389133720605  0.1246717093519416
  0.7512328536470887  0.7511621603089785  0.6257107606266072
  0.7421693637291957  0.2735288214061417  0.3784490104223928
  0.3845371260960058  0.6484103688836770  0.5000000000000000
  0.5080668764970588  0.4876088884007184  0.3725719572992291
  0.3614992566509110  0.3832518741399002  0.5000000000000000
  0.8912561754826230  0.6366484819291320  0.5000000000000000
  0.7512328536470887  0.7511621603089785  0.3742892393733925
  0.6492054865717194  0.6033034162963922  0.5000000000000000
 
  0.00000000E+00  0.00000000E+00  0.00000000E+00
  0.00000000E+00  0.00000000E+00  0.00000000E+00
  0.00000000E+00  0.00000000E+00  0.00000000E+00
  0.00000000E+00  0.00000000E+00  0.00000000E+00
  0.00000000E+00  0.00000000E+00  0.00000000E+00
  0.00000000E+00  0.00000000E+00  0.00000000E+00
  0.00000000E+00  0.00000000E+00  0.00000000E+00
  0.00000000E+00  0.00000000E+00  0.00000000E+00
  0.00000000E+00  0.00000000E+00  0.00000000E+00
  0.00000000E+00  0.00000000E+00  0.00000000E+00
  0.00000000E+00  0.00000000E+00  0.00000000E+00
  0.00000000E+00  0.00000000E+00  0.00000000E+00
  0.00000000E+00  0.00000000E+00  0.00000000E+00
  0.00000000E+00  0.00000000E+00  0.00000000E+00
  0.00000000E+00  0.00000000E+00  0.00000000E+00
  0.00000000E+00  0.00000000E+00  0.00000000E+00
  0.00000000E+00  0.00000000E+00  0.00000000E+00
  0.00000000E+00  0.00000000E+00  0.00000000E+00
  0.00000000E+00  0.00000000E+00  0.00000000E+00
  0.00000000E+00  0.00000000E+00  0.00000000E+00
  0.00000000E+00  0.00000000E+00  0.00000000E+00
  0.00000000E+00  0.00000000E+00  0.00000000E+00
  0.00000000E+00  0.00000000E+00  0.00000000E+00
  0.00000000E+00  0.00000000E+00  0.00000000E+00
  0.00000000E+00  0.00000000E+00  0.00000000E+00
  0.00000000E+00  0.00000000E+00  0.00000000E+00
  0.00000000E+00  0.00000000E+00  0.00000000E+00
  0.00000000E+00  0.00000000E+00  0.00000000E+00
  0.00000000E+00  0.00000000E+00  0.00000000E+00
  0.00000000E+00  0.00000000E+00  0.00000000E+00
  0.00000000E+00  0.00000000E+00  0.00000000E+00
  0.00000000E+00  0.00000000E+00  0.00000000E+00
  0.00000000E+00  0.00000000E+00  0.00000000E+00
  0.00000000E+00  0.00000000E+00  0.00000000E+00
  0.00000000E+00  0.00000000E+00  0.00000000E+00
  0.00000000E+00  0.00000000E+00  0.00000000E+00
  0.00000000E+00  0.00000000E+00  0.00000000E+00
  0.00000000E+00  0.00000000E+00  0.00000000E+00
  0.00000000E+00  0.00000000E+00  0.00000000E+00
  0.00000000E+00  0.00000000E+00  0.00000000E+00
  0.00000000E+00  0.00000000E+00  0.00000000E+00
  0.00000000E+00  0.00000000E+00  0.00000000E+00
  0.00000000E+00  0.00000000E+00  0.00000000E+00
  0.00000000E+00  0.00000000E+00  0.00000000E+00
  0.00000000E+00  0.00000000E+00  0.00000000E+00
  0.00000000E+00  0.00000000E+00  0.00000000E+00
  0.00000000E+00  0.00000000E+00  0.00000000E+00
  0.00000000E+00  0.00000000E+00  0.00000000E+00
  0.00000000E+00  0.00000000E+00  0.00000000E+00
  0.00000000E+00  0.00000000E+00  0.00000000E+00
  0.00000000E+00  0.00000000E+00  0.00000000E+00
  0.00000000E+00  0.00000000E+00  0.00000000E+00
  0.00000000E+00  0.00000000E+00  0.00000000E+00
  0.00000000E+00  0.00000000E+00  0.00000000E+00
  0.00000000E+00  0.00000000E+00  0.00000000E+00
  0.00000000E+00  0.00000000E+00  0.00000000E+00
  0.00000000E+00  0.00000000E+00  0.00000000E+00
  0.00000000E+00  0.00000000E+00  0.00000000E+00
  0.00000000E+00  0.00000000E+00  0.00000000E+00
  0.00000000E+00  0.00000000E+00  0.00000000E+00
  0.00000000E+00  0.00000000E+00  0.00000000E+00
  0.00000000E+00  0.00000000E+00  0.00000000E+00
  0.00000000E+00  0.00000000E+00  0.00000000E+00
  0.00000000E+00  0.00000000E+00  0.00000000E+00
  0.00000000E+00  0.00000000E+00  0.00000000E+00
  0.00000000E+00  0.00000000E+00  0.00000000E+00
  0.00000000E+00  0.00000000E+00  0.00000000E+00
  0.00000000E+00  0.00000000E+00  0.00000000E+00
  0.00000000E+00  0.00000000E+00  0.00000000E+00
  0.00000000E+00  0.00000000E+00  0.00000000E+00
  0.00000000E+00  0.00000000E+00  0.00000000E+00
  0.00000000E+00  0.00000000E+00  0.00000000E+00
  0.00000000E+00  0.00000000E+00  0.00000000E+00
  0.00000000E+00  0.00000000E+00  0.00000000E+00
  0.00000000E+00  0.00000000E+00  0.00000000E+00
  0.00000000E+00  0.00000000E+00  0.00000000E+00
  0.00000000E+00  0.00000000E+00  0.00000000E+00
  0.00000000E+00  0.00000000E+00  0.00000000E+00
  0.00000000E+00  0.00000000E+00  0.00000000E+00
  0.00000000E+00  0.00000000E+00  0.00000000E+00
  0.00000000E+00  0.00000000E+00  0.00000000E+00
  0.00000000E+00  0.00000000E+00  0.00000000E+00
  0.00000000E+00  0.00000000E+00  0.00000000E+00
  0.00000000E+00  0.00000000E+00  0.00000000E+00
  0.00000000E+00  0.00000000E+00  0.00000000E+00
  0.00000000E+00  0.00000000E+00  0.00000000E+00
  0.00000000E+00  0.00000000E+00  0.00000000E+00
  0.00000000E+00  0.00000000E+00  0.00000000E+00
  0.00000000E+00  0.00000000E+00  0.00000000E+00
  0.00000000E+00  0.00000000E+00  0.00000000E+00
  0.00000000E+00  0.00000000E+00  0.00000000E+00
  0.00000000E+00  0.00000000E+00  0.00000000E+00
  0.00000000E+00  0.00000000E+00  0.00000000E+00
  0.00000000E+00  0.00000000E+00  0.00000000E+00
  0.00000000E+00  0.00000000E+00  0.00000000E+00
  0.00000000E+00  0.00000000E+00  0.00000000E+00
  0.00000000E+00  0.00000000E+00  0.00000000E+00
  0.00000000E+00  0.00000000E+00  0.00000000E+00
  0.00000000E+00  0.00000000E+00  0.00000000E+00
  0.00000000E+00  0.00000000E+00  0.00000000E+00
  0.00000000E+00  0.00000000E+00  0.00000000E+00
  0.00000000E+00  0.00000000E+00  0.00000000E+00
  0.00000000E+00  0.00000000E+00  0.00000000E+00
  0.00000000E+00  0.00000000E+00  0.00000000E+00
  0.00000000E+00  0.00000000E+00  0.00000000E+00
  0.00000000E+00  0.00000000E+00  0.00000000E+00
  0.00000000E+00  0.00000000E+00  0.00000000E+00
  0.00000000E+00  0.00000000E+00  0.00000000E+00
  0.00000000E+00  0.00000000E+00  0.00000000E+00
  0.00000000E+00  0.00000000E+00  0.00000000E+00
  0.00000000E+00  0.00000000E+00  0.00000000E+00
  0.00000000E+00  0.00000000E+00  0.00000000E+00
  0.00000000E+00  0.00000000E+00  0.00000000E+00
  0.00000000E+00  0.00000000E+00  0.00000000E+00
  0.00000000E+00  0.00000000E+00  0.00000000E+00
  0.00000000E+00  0.00000000E+00  0.00000000E+00
  0.00000000E+00  0.00000000E+00  0.00000000E+00
  0.00000000E+00  0.00000000E+00  0.00000000E+00
  0.00000000E+00  0.00000000E+00  0.00000000E+00
  0.00000000E+00  0.00000000E+00  0.00000000E+00
  0.00000000E+00  0.00000000E+00  0.00000000E+00
  0.00000000E+00  0.00000000E+00  0.00000000E+00
  0.00000000E+00  0.00000000E+00  0.00000000E+00
  0.00000000E+00  0.00000000E+00  0.00000000E+00
  0.00000000E+00  0.00000000E+00  0.00000000E+00
  0.00000000E+00  0.00000000E+00  0.00000000E+00
  0.00000000E+00  0.00000000E+00  0.00000000E+00
  0.00000000E+00  0.00000000E+00  0.00000000E+00
  0.00000000E+00  0.00000000E+00  0.00000000E+00
  0.00000000E+00  0.00000000E+00  0.00000000E+00
  0.00000000E+00  0.00000000E+00  0.00000000E+00
  0.00000000E+00  0.00000000E+00  0.00000000E+00
  0.00000000E+00  0.00000000E+00  0.00000000E+00
  0.00000000E+00  0.00000000E+00  0.00000000E+00
  0.00000000E+00  0.00000000E+00  0.00000000E+00
  0.00000000E+00  0.00000000E+00  0.00000000E+00
  0.00000000E+00  0.00000000E+00  0.00000000E+00
  0.00000000E+00  0.00000000E+00  0.00000000E+00
  0.00000000E+00  0.00000000E+00  0.00000000E+00
  0.00000000E+00  0.00000000E+00  0.00000000E+00
  0.00000000E+00  0.00000000E+00  0.00000000E+00
  0.00000000E+00  0.00000000E+00  0.00000000E+00
  0.00000000E+00  0.00000000E+00  0.00000000E+00
  0.00000000E+00  0.00000000E+00  0.00000000E+00
  0.00000000E+00  0.00000000E+00  0.00000000E+00
  0.00000000E+00  0.00000000E+00  0.00000000E+00
  0.00000000E+00  0.00000000E+00  0.00000000E+00
  0.00000000E+00  0.00000000E+00  0.00000000E+00
  0.00000000E+00  0.00000000E+00  0.00000000E+00
  0.00000000E+00  0.00000000E+00  0.00000000E+00
  0.00000000E+00  0.00000000E+00  0.00000000E+00
  0.00000000E+00  0.00000000E+00  0.00000000E+00
  0.00000000E+00  0.00000000E+00  0.00000000E+00
  0.00000000E+00  0.00000000E+00  0.00000000E+00
  0.00000000E+00  0.00000000E+00  0.00000000E+00
  0.00000000E+00  0.00000000E+00  0.00000000E+00
  0.00000000E+00  0.00000000E+00  0.00000000E+00
  0.00000000E+00  0.00000000E+00  0.00000000E+00
