SrTiFeO                                 
   1.00000000000000     
    11.1989999999999998    0.0000000000000000    0.0000000000000000
     0.0000000000000000   11.1989999999999998    0.0000000000000000
     0.0000000000000000    0.0000000000000000   15.9830000000000005
   Sr   Ti   Fe   O 
    32    29     3    94
Direct
  0.9988052808876245  0.2507245516845262  0.1253824628828937
  0.9990239100833385  0.2498446507066014  0.6226311610244174
  0.0049254203946870  0.7506466924773050  0.1240576496988663
  0.0010978262104252  0.7500517876975735  0.6243120272735960
  0.5008774421768220  0.2510683373309520  0.1250381308503614
  0.4954333952442187  0.2454191876462577  0.6268233141932267
  0.4958931461009685  0.7487475229481274  0.1233337431329671
  0.4988739570010542  0.7519672460050058  0.6241149898206158
  0.9999828392787556  0.2496409760684327  0.3773390742222709
  0.9988580328666621  0.2504870825047411  0.8747998659989411
  0.0085900661948675  0.7506492838283971  0.3761571052033521
  0.0017023958003491  0.7500567698223436  0.8743099897560410
  0.4940614181157870  0.2447143411303418  0.3730576533065604
  0.5011341138078944  0.2514149087405602  0.8751000572788676
  0.4911303624186463  0.7534711405048758  0.3763541598045279
  0.4990818821182527  0.7488301471507925  0.8740492352122423
  0.2496995919445789  0.0004172441984474  0.1251641282915237
  0.2489273419179413  0.9996386816037055  0.6230272728944426
  0.2525625540501549  0.5002533792792663  0.1259899736110432
  0.2486117668852540  0.4979440443827922  0.6223850800019246
  0.7499314339138722  0.0066614726121038  0.1246334897309870
  0.7491952352630691  0.0038280354703923  0.6215806167192278
  0.7504412015947558  0.4953357038765603  0.1223664186808163
  0.7510508228469718  0.5014026968817311  0.6275308163866312
  0.2494026227161148  0.0010390158759085  0.3769482067617483
  0.2500910152959720  0.0003167690639439  0.8748800740126726
  0.2492688247179611  0.4966140734494102  0.3774439564152364
  0.2516591980763369  0.5001627840194102  0.8740423708481926
  0.7481547422245854  0.0129421562661413  0.3786811975049165
  0.7504400464010071  0.0038253598503431  0.8733597669659297
  0.7504407953588904  0.4928516960758574  0.3735392684457086
  0.7507095805948618  0.4988668299421684  0.8755792643240328
  0.9992499834860719  0.0002478010772023 -0.0000529681651222
  0.9973949800842508  0.9990298500682415  0.4989372013090686
  0.0003447973801145  0.5007049548972714  1.0000212537051409
  0.9948774630201888  0.5020871016166407  0.4991548332896457
  0.5003302316560885  0.9993794692329103  0.9998137791422019
  0.5015113377527119  0.9999035851928189  0.4993454789317405
  0.5001685021545498  0.5011463140058077  0.9998602336972988
  0.2500272820436796  0.2499409108928597  0.0004125588556587
  0.2507730181802514  0.2496401701385718  0.5006638236914803
  0.2505552863976557  0.7496934873204960  0.9995461763811025
  0.2476544671937661  0.7512175337872099  0.5006043464737931
  0.7505933357240999  0.2497098463204208  0.9995537638859284
  0.7499807392223526  0.7508784106596097  0.9951320404630398
  0.2489725573640414  0.2498783012782327  0.2490397932389027
  0.2489453634264177  0.2498891950070822  0.7497161502524050
  0.2501069128068772  0.7498175283975278  0.2500920105479358
  0.2500550385835748  0.7498323080011937  0.7493069833953250
  0.7486335801614805  0.2512046047017563  0.2514641325309380
  0.7485771931635904  0.2515090808726499  0.7477231780250623
  0.7499489408150690  0.7506090512303021  0.2405192562213398
  0.7500410771655781  0.7511527310609553  0.7499828146011691
  0.9995070162058638  0.0002650072804817  0.2515163626870601
  0.9989739269505078  0.9998231308791291  0.7492245181401467
  0.0006336224097943  0.5000291494348679  0.2508978282237352
  0.9998891695103563  0.5004947337469823  0.7499181715508622
  0.4996890740425013  0.9990796135775520  0.2502284668894676
  0.5003270188027434  0.9990974736505720  0.7500981168661033
  0.5014164574784111  0.4984948742171347  0.2533321136557495
  0.5013556385621619  0.4989976094411411  0.7476106276334004
  0.7547171098171035  0.2481621374302472  0.5011743467559510
  0.4941013930026433  0.5123357319386391  0.4992383885148038
  0.7500176061806066  0.7486073942551091  0.5091072320902253
  0.1093534442239366  0.1402875449060534  0.2472994360171945
  0.1081536058390707  0.1407898001845053  0.7488917486604634
  0.1110415255453406  0.6396552578797511  0.2490628678570530
  0.1095865797832446  0.6412728451813900  0.7509994741689647
  0.6096505268622615  0.1377596613819580  0.2474240337814088
  0.6077409190237056  0.1401149272246556  0.7519162086970561
  0.6153171156766962  0.6426737496366679  0.2635750115176531
  0.6089247248450153  0.6419226601780650  0.7487087110053539
  0.3901164212729615  0.3596879465199739  0.2476753062132762
  0.3908509167400597  0.3587866046696572  0.7501542193604002
  0.3905298924078613  0.8589221863321994  0.2485205728901179
  0.3916565849325988  0.8578918231784525  0.7503353831137953
  0.8896117661131611  0.3619625911679569  0.2501945800121153
  0.8916456738425665  0.3600960081979565  0.7496543370321005
  0.8858981779219756  0.8578670468691953  0.2603000625294909
  0.8913929550188745  0.8584851506723423  0.7528166344246021
  0.3601412544063554  0.1096864529351387  0.2485639627559930
  0.3594382985136455  0.1086439317050391  0.7476898326673795
  0.3625237170384765  0.6095448588257010  0.2557592480682596
  0.3604259453104968  0.6080976612836676  0.7445311135606846
  0.8603252855571983  0.1107011742419407  0.2528293300676728
  0.8585628081235004  0.1094778504436004  0.7459508459782146
  0.8587624136790453  0.6155072495104750  0.2611747284516426
  0.8589207009989037  0.6096899673796942  0.7516982219026942
  0.1404608243290694  0.3906433189746567  0.2472187342916148
  0.1408848995405495  0.3915649730209365  0.7497798423160209
  0.1395493524865283  0.8886956224724316  0.2473709353953620
  0.1413139308080554  0.8909629844358651  0.7516067724579095
  0.6399693707566427  0.3912553985792897  0.2418470133279112
  0.6404605815662994  0.3921891718823790  0.7581275244638594
  0.6429873602403567  0.8861385427338831  0.2620097025779291
  0.6422163689150872  0.8917377666769354  0.7515264122879537
  0.3601841712797547  0.3905896405212900  0.0012390675150391
  0.3588916518976459  0.8905075308699476  0.0010027197097702
  0.3619096061276020  0.8868148223355082  0.5001026557192482
  0.8601031319510870  0.3909628745352167  0.9999285929014383
  0.8574937212366932  0.8908956649987801  0.9994430780260719
  0.8596274199380211  0.8857388706242272  0.4883265955616854
  0.1401603408118995  0.1086603830353258  0.0014883681315371
  0.1394735200528590  0.1107944865632295  0.5015807922940512
  0.1407794530479473  0.6093216392043408  0.0009481444023318
  0.1397443770585665  0.6114353190831037  0.4995170675636771
  0.6402352702466422  0.1088293499291378  0.9999259046360087
  0.6271348127638980  0.1204040353582911  0.4999160653614940
  0.6419828314030209  0.6097007334101123  0.9998540015776947
  0.1092888266927161  0.3599252214274265  0.0015039234779962
  0.1141547699546896  0.3629609934908355  0.5014712593077748
  0.1094409178908962  0.8590804396371541  0.9998220438464995
  0.1119002147581549  0.8599215217593696  0.5005954945162238
  0.6099926658648616  0.3606770908841443  0.0008140975769216
  0.6088329803846191  0.8576448103202098  0.9993891047077935
  0.6148683657279240  0.8610991622752175  0.4900958200589509
  0.3909353510871449  0.1397937986627277  0.0015475130399215
  0.3837067838431867  0.1334207386297065  0.5019472281725362
  0.3908308659630947  0.6415533209601795  0.9998791644490520
  0.8914942337260664  0.1401605479423559  0.0010593276063969
  0.8943628229330937  0.1333056658949842  0.4986021128303610
  0.8906683710310561  0.6424289168674803  0.9998118471687851
  0.9942259630219396  0.9948805936318462  0.1260903955099786
  0.9973841755036565  0.9927155106918027  0.6248678024324188
  0.9941296330283587  0.5048123522385631  0.1261107826679789
  0.9988129963267944  0.5060517778651912  0.6249363653597564
  0.5050213127534209  0.9940007729344570  0.1257919961093225
  0.5041243799309072  0.9935730001478553  0.6248895303508821
  0.5009356541677215  0.5089646637773184  0.1262797460497062
  0.5153848568039380  0.4884758998946224  0.6222827504765268
  0.0096888269597966  0.0013959812474988  0.3735662106871916
  0.9986265293553268  0.0021765888707539  0.8752319969165441
  0.0065553444355987  0.4950778937134554  0.3742847946301631
  0.0007481823275717  0.5002916110183633  0.8756684299604998
  0.4939007077903005  0.0029874128424780  0.3739377444055545
  0.4979387822159821  0.9991441826299913  0.8755189136402001
  0.4966869143082055  0.5031777747571787  0.8753906120937902
  0.2490010982954376  0.2501608209385651  0.3740095412448546
  0.2497514386056653  0.2487587485094110  0.8754085784697085
  0.2488051517307452  0.7526440765273524  0.3745269246684348
  0.2520569336540094  0.7475986687719935  0.8748892638708393
  0.7527676019152020  0.2474551894287104  0.8761843030308143
  0.7488805389524841  0.7492646722996008  0.8748866387280992
  0.2502802014638699  0.2494133254154610  0.1244387046398066
  0.2490660177751453  0.2510727881749108  0.6259748023039474
  0.2520443546777393  0.7468985389068676  0.1250773327722411
  0.2484163083067794  0.7516946084669389  0.6254262216259212
  0.7524647144749528  0.2477119934186532  0.1237988926202029
  0.7371157688132914  0.2612057819950553  0.6288842042520325
  0.7487227550138338  0.7499161974366160  0.1252580343954832
  0.7520885153867356  0.7527501185000661  0.6271530984728173
  0.7371987875582294  0.2578135865982271  0.3709834400373394
  0.8583815355252657  0.3956655732729066  0.5013400821816522
  0.3870949647354620  0.6406300614602508  0.5002552620483546
  0.5086944176064191  0.4807520436757704  0.3766991637325848
  0.3741221953233777  0.3794293558361446  0.5011622199230226
  0.8895246769755691  0.6429764321798811  0.4899205585653910
  0.6443179610397878  0.6074274327158842  0.4916543283782120
 
  0.00000000E+00  0.00000000E+00  0.00000000E+00
  0.00000000E+00  0.00000000E+00  0.00000000E+00
  0.00000000E+00  0.00000000E+00  0.00000000E+00
  0.00000000E+00  0.00000000E+00  0.00000000E+00
  0.00000000E+00  0.00000000E+00  0.00000000E+00
  0.00000000E+00  0.00000000E+00  0.00000000E+00
  0.00000000E+00  0.00000000E+00  0.00000000E+00
  0.00000000E+00  0.00000000E+00  0.00000000E+00
  0.00000000E+00  0.00000000E+00  0.00000000E+00
  0.00000000E+00  0.00000000E+00  0.00000000E+00
  0.00000000E+00  0.00000000E+00  0.00000000E+00
  0.00000000E+00  0.00000000E+00  0.00000000E+00
  0.00000000E+00  0.00000000E+00  0.00000000E+00
  0.00000000E+00  0.00000000E+00  0.00000000E+00
  0.00000000E+00  0.00000000E+00  0.00000000E+00
  0.00000000E+00  0.00000000E+00  0.00000000E+00
  0.00000000E+00  0.00000000E+00  0.00000000E+00
  0.00000000E+00  0.00000000E+00  0.00000000E+00
  0.00000000E+00  0.00000000E+00  0.00000000E+00
  0.00000000E+00  0.00000000E+00  0.00000000E+00
  0.00000000E+00  0.00000000E+00  0.00000000E+00
  0.00000000E+00  0.00000000E+00  0.00000000E+00
  0.00000000E+00  0.00000000E+00  0.00000000E+00
  0.00000000E+00  0.00000000E+00  0.00000000E+00
  0.00000000E+00  0.00000000E+00  0.00000000E+00
  0.00000000E+00  0.00000000E+00  0.00000000E+00
  0.00000000E+00  0.00000000E+00  0.00000000E+00
  0.00000000E+00  0.00000000E+00  0.00000000E+00
  0.00000000E+00  0.00000000E+00  0.00000000E+00
  0.00000000E+00  0.00000000E+00  0.00000000E+00
  0.00000000E+00  0.00000000E+00  0.00000000E+00
  0.00000000E+00  0.00000000E+00  0.00000000E+00
  0.00000000E+00  0.00000000E+00  0.00000000E+00
  0.00000000E+00  0.00000000E+00  0.00000000E+00
  0.00000000E+00  0.00000000E+00  0.00000000E+00
  0.00000000E+00  0.00000000E+00  0.00000000E+00
  0.00000000E+00  0.00000000E+00  0.00000000E+00
  0.00000000E+00  0.00000000E+00  0.00000000E+00
  0.00000000E+00  0.00000000E+00  0.00000000E+00
  0.00000000E+00  0.00000000E+00  0.00000000E+00
  0.00000000E+00  0.00000000E+00  0.00000000E+00
  0.00000000E+00  0.00000000E+00  0.00000000E+00
  0.00000000E+00  0.00000000E+00  0.00000000E+00
  0.00000000E+00  0.00000000E+00  0.00000000E+00
  0.00000000E+00  0.00000000E+00  0.00000000E+00
  0.00000000E+00  0.00000000E+00  0.00000000E+00
  0.00000000E+00  0.00000000E+00  0.00000000E+00
  0.00000000E+00  0.00000000E+00  0.00000000E+00
  0.00000000E+00  0.00000000E+00  0.00000000E+00
  0.00000000E+00  0.00000000E+00  0.00000000E+00
  0.00000000E+00  0.00000000E+00  0.00000000E+00
  0.00000000E+00  0.00000000E+00  0.00000000E+00
  0.00000000E+00  0.00000000E+00  0.00000000E+00
  0.00000000E+00  0.00000000E+00  0.00000000E+00
  0.00000000E+00  0.00000000E+00  0.00000000E+00
  0.00000000E+00  0.00000000E+00  0.00000000E+00
  0.00000000E+00  0.00000000E+00  0.00000000E+00
  0.00000000E+00  0.00000000E+00  0.00000000E+00
  0.00000000E+00  0.00000000E+00  0.00000000E+00
  0.00000000E+00  0.00000000E+00  0.00000000E+00
  0.00000000E+00  0.00000000E+00  0.00000000E+00
  0.00000000E+00  0.00000000E+00  0.00000000E+00
  0.00000000E+00  0.00000000E+00  0.00000000E+00
  0.00000000E+00  0.00000000E+00  0.00000000E+00
  0.00000000E+00  0.00000000E+00  0.00000000E+00
  0.00000000E+00  0.00000000E+00  0.00000000E+00
  0.00000000E+00  0.00000000E+00  0.00000000E+00
  0.00000000E+00  0.00000000E+00  0.00000000E+00
  0.00000000E+00  0.00000000E+00  0.00000000E+00
  0.00000000E+00  0.00000000E+00  0.00000000E+00
  0.00000000E+00  0.00000000E+00  0.00000000E+00
  0.00000000E+00  0.00000000E+00  0.00000000E+00
  0.00000000E+00  0.00000000E+00  0.00000000E+00
  0.00000000E+00  0.00000000E+00  0.00000000E+00
  0.00000000E+00  0.00000000E+00  0.00000000E+00
  0.00000000E+00  0.00000000E+00  0.00000000E+00
  0.00000000E+00  0.00000000E+00  0.00000000E+00
  0.00000000E+00  0.00000000E+00  0.00000000E+00
  0.00000000E+00  0.00000000E+00  0.00000000E+00
  0.00000000E+00  0.00000000E+00  0.00000000E+00
  0.00000000E+00  0.00000000E+00  0.00000000E+00
  0.00000000E+00  0.00000000E+00  0.00000000E+00
  0.00000000E+00  0.00000000E+00  0.00000000E+00
  0.00000000E+00  0.00000000E+00  0.00000000E+00
  0.00000000E+00  0.00000000E+00  0.00000000E+00
  0.00000000E+00  0.00000000E+00  0.00000000E+00
  0.00000000E+00  0.00000000E+00  0.00000000E+00
  0.00000000E+00  0.00000000E+00  0.00000000E+00
  0.00000000E+00  0.00000000E+00  0.00000000E+00
  0.00000000E+00  0.00000000E+00  0.00000000E+00
  0.00000000E+00  0.00000000E+00  0.00000000E+00
  0.00000000E+00  0.00000000E+00  0.00000000E+00
  0.00000000E+00  0.00000000E+00  0.00000000E+00
  0.00000000E+00  0.00000000E+00  0.00000000E+00
  0.00000000E+00  0.00000000E+00  0.00000000E+00
  0.00000000E+00  0.00000000E+00  0.00000000E+00
  0.00000000E+00  0.00000000E+00  0.00000000E+00
  0.00000000E+00  0.00000000E+00  0.00000000E+00
  0.00000000E+00  0.00000000E+00  0.00000000E+00
  0.00000000E+00  0.00000000E+00  0.00000000E+00
  0.00000000E+00  0.00000000E+00  0.00000000E+00
  0.00000000E+00  0.00000000E+00  0.00000000E+00
  0.00000000E+00  0.00000000E+00  0.00000000E+00
  0.00000000E+00  0.00000000E+00  0.00000000E+00
  0.00000000E+00  0.00000000E+00  0.00000000E+00
  0.00000000E+00  0.00000000E+00  0.00000000E+00
  0.00000000E+00  0.00000000E+00  0.00000000E+00
  0.00000000E+00  0.00000000E+00  0.00000000E+00
  0.00000000E+00  0.00000000E+00  0.00000000E+00
  0.00000000E+00  0.00000000E+00  0.00000000E+00
  0.00000000E+00  0.00000000E+00  0.00000000E+00
  0.00000000E+00  0.00000000E+00  0.00000000E+00
  0.00000000E+00  0.00000000E+00  0.00000000E+00
  0.00000000E+00  0.00000000E+00  0.00000000E+00
  0.00000000E+00  0.00000000E+00  0.00000000E+00
  0.00000000E+00  0.00000000E+00  0.00000000E+00
  0.00000000E+00  0.00000000E+00  0.00000000E+00
  0.00000000E+00  0.00000000E+00  0.00000000E+00
  0.00000000E+00  0.00000000E+00  0.00000000E+00
  0.00000000E+00  0.00000000E+00  0.00000000E+00
  0.00000000E+00  0.00000000E+00  0.00000000E+00
  0.00000000E+00  0.00000000E+00  0.00000000E+00
  0.00000000E+00  0.00000000E+00  0.00000000E+00
  0.00000000E+00  0.00000000E+00  0.00000000E+00
  0.00000000E+00  0.00000000E+00  0.00000000E+00
  0.00000000E+00  0.00000000E+00  0.00000000E+00
  0.00000000E+00  0.00000000E+00  0.00000000E+00
  0.00000000E+00  0.00000000E+00  0.00000000E+00
  0.00000000E+00  0.00000000E+00  0.00000000E+00
  0.00000000E+00  0.00000000E+00  0.00000000E+00
  0.00000000E+00  0.00000000E+00  0.00000000E+00
  0.00000000E+00  0.00000000E+00  0.00000000E+00
  0.00000000E+00  0.00000000E+00  0.00000000E+00
  0.00000000E+00  0.00000000E+00  0.00000000E+00
  0.00000000E+00  0.00000000E+00  0.00000000E+00
  0.00000000E+00  0.00000000E+00  0.00000000E+00
  0.00000000E+00  0.00000000E+00  0.00000000E+00
  0.00000000E+00  0.00000000E+00  0.00000000E+00
  0.00000000E+00  0.00000000E+00  0.00000000E+00
  0.00000000E+00  0.00000000E+00  0.00000000E+00
  0.00000000E+00  0.00000000E+00  0.00000000E+00
  0.00000000E+00  0.00000000E+00  0.00000000E+00
  0.00000000E+00  0.00000000E+00  0.00000000E+00
  0.00000000E+00  0.00000000E+00  0.00000000E+00
  0.00000000E+00  0.00000000E+00  0.00000000E+00
  0.00000000E+00  0.00000000E+00  0.00000000E+00
  0.00000000E+00  0.00000000E+00  0.00000000E+00
  0.00000000E+00  0.00000000E+00  0.00000000E+00
  0.00000000E+00  0.00000000E+00  0.00000000E+00
  0.00000000E+00  0.00000000E+00  0.00000000E+00
  0.00000000E+00  0.00000000E+00  0.00000000E+00
  0.00000000E+00  0.00000000E+00  0.00000000E+00
  0.00000000E+00  0.00000000E+00  0.00000000E+00
  0.00000000E+00  0.00000000E+00  0.00000000E+00
  0.00000000E+00  0.00000000E+00  0.00000000E+00
  0.00000000E+00  0.00000000E+00  0.00000000E+00
  0.00000000E+00  0.00000000E+00  0.00000000E+00
  0.00000000E+00  0.00000000E+00  0.00000000E+00
