SrTiFeO                                 
   1.00000000000000     
    11.1989999999999998    0.0000000000000000    0.0000000000000000
     0.0000000000000000   11.1989999999999998    0.0000000000000000
     0.0000000000000000    0.0000000000000000   15.9830000000000005
   Sr   Ti   Fe   O 
    32    31     1    94
Direct
  0.9997687502159428  0.2499520114788087  0.1252765799210519
  0.0000531748587298  0.2488269711588041  0.6239232029099606
  0.0001063852848365  0.7496615151204842  0.1253780810747179
  0.9945211713922972  0.7514190153825085  0.6222773653768775
  0.4991835946537380  0.2460492865852031  0.1249453886403069
  0.5006119189326657  0.2414568446879067  0.6238289512538886
  0.5014520367993465  0.7540828586813413  0.1252629167980296
  0.5041458576601459  0.7574444977063365  0.6221547230697047
  0.0000531748587298  0.2488269711588041  0.3760767970900394
  0.9997687502159428  0.2499520114788087  0.8747234200789481
  0.9945211713922972  0.7514190153825085  0.3777226346231224
  0.0001063852848365  0.7496615151204842  0.8746219189252820
  0.5006119189326657  0.2414568446879067  0.3761710487461113
  0.4991835946537380  0.2460492865852031  0.8750546113596931
  0.5041458576601459  0.7574444977063365  0.3778452769302954
  0.5014520367993465  0.7540828586813413  0.8747370832019704
  0.2496024118451362  0.0002202278077758  0.1252202482255902
  0.2486269882297786  0.0001047292764871  0.6239470062705881
  0.2465195502755680  0.5007838321171521  0.1249415252003721
  0.2414914044499222  0.4983654516194444  0.6240037020469404
  0.7507200032954623  0.9992519045132893  0.1252890146828175
  0.7504599426490957  0.9971239378230597  0.6227498162085988
  0.7534831904788192  0.4998414289514234  0.1249553889974965
  0.7581657653600850  0.5048728762273714  0.6224890617235505
  0.2486269882297786  0.0001047292764871  0.3760529937294120
  0.2496024118451362  0.0002202278077758  0.8747797517744098
  0.2414914044499222  0.4983654516194444  0.3759962979530596
  0.2465195502755680  0.5007838321171521  0.8750584747996279
  0.7504599426490957  0.9971239378230597  0.3772501837914012
  0.7507200032954623  0.9992519045132893  0.8747109853171825
  0.7581657653600850  0.5048728762273714  0.3775109382764495
  0.7534831904788192  0.4998414289514234  0.8750446110025035
  0.0002032179100422  0.0001170784361658  0.0000000000000000
  0.9982063307656360  0.9990119955118328  0.5000000000000000
  0.0001290132685205  0.4998146470053628  0.0000000000000000
  0.9993626067852263  0.5009706968318715  0.5000000000000000
  0.4997582785926197  0.9999104709515272  0.0000000000000000
  0.5004696160630753  0.9989372767209272  0.5000000000000000
  0.4998932610913066  0.4998367818529216  0.0000000000000000
  0.2507253899604835  0.2509375672171434  0.0000000000000000
  0.2491988533229461  0.2490452649468994  0.5000000000000000
  0.2510010072744590  0.7493704007912640  0.0000000000000000
  0.2495804970155314  0.7500244711076940  0.5000000000000000
  0.7489891299455541  0.2505014580259475  0.0000000000000000
  0.7500819699030389  0.2499220349682759  0.5000000000000000
  0.7496375546986401  0.7492462632941101  0.0000000000000000
  0.2499456894949397  0.2501568958355845  0.2507516216958939
  0.2499456894949397  0.2501568958355845  0.7492483783041061
  0.2503277121680078  0.7499479942125402  0.2518722659880859
  0.2503277121680078  0.7499479942125402  0.7481277340119141
  0.7496522334060112  0.2501902752563601  0.2514595437192607
  0.7496522334060112  0.2501902752563601  0.7485404562807394
  0.7501784654068376  0.7501195296476172  0.2515735983272140
  0.7501784654068376  0.7501195296476172  0.7484264016727860
  0.0000043908728210  0.9999297002348945  0.2498212747628600
  0.0000043908728210  0.9999297002348945  0.7501787252371400
  0.9999675691088863  0.4999907655634205  0.2499235961639812
  0.9999675691088863  0.4999907655634205  0.7500764038360188
  0.4999583669425780  0.9999003801805699  0.2499026287347835
  0.4999583669425780  0.9999003801805699  0.7500973712652165
  0.4999017718286013  0.4998970835397372  0.2440693894215034
  0.4999017718286013  0.4998970835397372  0.7559306105784965
  0.4998313546455720  0.4993962171822803  0.5000000000000000
  0.7492548242487015  0.7495321935777036  0.5000000000000000
  0.1101932405176995  0.1413448189336090  0.2479050180642690
  0.1101932405176995  0.1413448189336090  0.7520949819357310
  0.1103578430947683  0.6400688310632862  0.2503611691590052
  0.1103578430947683  0.6400688310632862  0.7496388308409948
  0.6091221310093337  0.1411441949301171  0.2489267806687854
  0.6091221310093337  0.1411441949301171  0.7510732193312146
  0.6060773109308392  0.6375068191226436  0.2559690881854297
  0.3931780649147785  0.3618480919591147  0.2587892097640633
  0.3931780649147785  0.3618480919591147  0.7412107902359367
  0.3909897484696271  0.8588013699207129  0.2500056136776627
  0.3909897484696271  0.8588013699207129  0.7499943863223373
  0.8898006597437471  0.3596030692762524  0.2494198599452490
  0.8898006597437471  0.3596030692762524  0.7505801400547510
  0.8912232041891913  0.8605698551053640  0.2460114417301706
  0.8912232041891913  0.8605698551053640  0.7539885582698295
  0.3595418480230803  0.1103844385238405  0.2490060250105305
  0.3595418480230803  0.1103844385238405  0.7509939749894695
  0.3617191154383375  0.6064133920106176  0.2586672443862837
  0.3617191154383375  0.6064133920106176  0.7413327556137161
  0.8591085466512417  0.1101844568143581  0.2487549270150156
  0.8591085466512417  0.1101844568143581  0.7512450729849844
  0.8605756720771426  0.6085825924818837  0.2474494644290889
  0.8605756720771426  0.6085825924818837  0.7525505355709111
  0.1411683783755889  0.3905510682528338  0.2484789500839294
  0.1411683783755889  0.3905510682528338  0.7515210499160706
  0.1415365359850844  0.8903482757410871  0.2483328414374017
  0.1415365359850844  0.8903482757410871  0.7516671585625984
  0.6380730189685292  0.3933864799709825  0.2592508708932151
  0.6391132238457187  0.8910050178454024  0.2477626776782540
  0.6391132238457187  0.8910050178454024  0.7522373223217460
  0.3589751111905381  0.3935105895754805  0.0000000000000000
  0.3590821556615952  0.8904240147399154  0.0000000000000000
  0.3584535447301451  0.8904905130547461  0.5000000000000000
  0.8588134038369978  0.3908110473952309  0.0000000000000000
  0.8599996400397381  0.3884641884539329  0.5000000000000000
  0.8597825348932389  0.8897919557586609  0.0000000000000000
  0.8641236347690183  0.8955973063580442  0.5000000000000000
  0.1415868597136133  0.1109699860703634  0.0000000000000000
  0.1407135115232072  0.1098016700033266  0.5000000000000000
  0.1413825341735213  0.6090879102936637  0.0000000000000000
  0.1414732836945308  0.6090131073086769  0.5000000000000000
  0.6405687970568074  0.1096334496893761  0.0000000000000000
  0.6394139802715713  0.1115702460663891  0.5000000000000000
  0.6398875057887544  0.6061243142254544  0.0000000000000000
  0.1095874584932467  0.3590200342589188  0.0000000000000000
  0.1108441279891477  0.3590202756856607  0.5000000000000000
  0.1109609158566638  0.8589074499465817  0.0000000000000000
  0.1099368447823677  0.8595952848002605  0.5000000000000000
  0.6065758960671543  0.3591248523915179  0.0000000000000000
  0.6087007233636962  0.8596399400864683  0.0000000000000000
  0.6052032723027679  0.8671692529193555  0.5000000000000000
  0.3909926780111527  0.1415503971923257  0.0000000000000000
  0.3888630928659798  0.1408725542220598  0.5000000000000000
  0.3933892168980684  0.6406491599353806  0.0000000000000000
  0.3904761594654476  0.6383318535221060  0.5000000000000000
  0.8891178763650950  0.1412979263672234  0.0000000000000000
  0.8911680486211374  0.1415426960713834  0.5000000000000000
  0.8909625988592268  0.6399394769398387  0.0000000000000000
  0.0011625087855779  0.0015459246178090  0.1238062821174705
  0.0015194208439803  0.0010001343756037  0.6267280140088251
  0.0011599411689926  0.4992612463479122  0.1243682408252711
  0.0013548503680149  0.4973994497301583  0.6262182641756507
  0.4985180798499547  0.0005963324864671  0.1243673859361277
  0.4984374295329143  0.0020972986131681  0.6262387420637141
  0.4989249192760924  0.4982289889029205  0.1260215367155092
  0.0015194208439803  0.0010001343756037  0.3732719859911749
  0.0011625087855779  0.0015459246178090  0.8761937178825295
  0.0013548503680149  0.4973994497301583  0.3737817358243493
  0.0011599411689926  0.4992612463479122  0.8756317591747289
  0.4984374295329143  0.0020972986131681  0.3737612579362860
  0.4985180798499547  0.0005963324864671  0.8756326140638723
  0.4989249192760924  0.4982289889029205  0.8739784632844908
  0.2477293708179730  0.2488688883133971  0.3746978939968280
  0.2553028800405627  0.2542244434504496  0.8746572417079224
  0.2489052375086630  0.7518996051077610  0.3754794088862806
  0.2540673649109373  0.7451627730653169  0.8742251332301983
  0.7509562136719640  0.2476590076629709  0.3752734286116337
  0.7459404056474364  0.2549141075599113  0.8743369918005827
  0.7526639203111934  0.7519148190383188  0.3687689185914540
  0.7454947379734030  0.7463888405886865  0.8761958496131368
  0.2553028800405627  0.2542244434504496  0.1253427582920776
  0.2477293708179730  0.2488688883133971  0.6253021060031719
  0.2540673649109373  0.7451627730653169  0.1257748667698017
  0.2489052375086630  0.7518996051077610  0.6245205911137195
  0.7459404056474364  0.2549141075599113  0.1256630081994174
  0.7509562136719640  0.2476590076629709  0.6247265713883663
  0.7454947379734030  0.7463888405886865  0.1238041503868633
  0.6380730189685292  0.3933864799709825  0.7407491291067849
  0.6060773109308392  0.6375068191226436  0.7440309118145704
  0.6071430919138273  0.3590890846087456  0.5000000000000000
  0.3604080209207476  0.3910040738003112  0.5000000000000000
  0.7526639203111934  0.7519148190383188  0.6312310814085460
  0.8949975587598786  0.6331519929757161  0.5000000000000000
  0.6345646785244956  0.6032392860188113  0.5000000000000000
 
  0.00000000E+00  0.00000000E+00  0.00000000E+00
  0.00000000E+00  0.00000000E+00  0.00000000E+00
  0.00000000E+00  0.00000000E+00  0.00000000E+00
  0.00000000E+00  0.00000000E+00  0.00000000E+00
  0.00000000E+00  0.00000000E+00  0.00000000E+00
  0.00000000E+00  0.00000000E+00  0.00000000E+00
  0.00000000E+00  0.00000000E+00  0.00000000E+00
  0.00000000E+00  0.00000000E+00  0.00000000E+00
  0.00000000E+00  0.00000000E+00  0.00000000E+00
  0.00000000E+00  0.00000000E+00  0.00000000E+00
  0.00000000E+00  0.00000000E+00  0.00000000E+00
  0.00000000E+00  0.00000000E+00  0.00000000E+00
  0.00000000E+00  0.00000000E+00  0.00000000E+00
  0.00000000E+00  0.00000000E+00  0.00000000E+00
  0.00000000E+00  0.00000000E+00  0.00000000E+00
  0.00000000E+00  0.00000000E+00  0.00000000E+00
  0.00000000E+00  0.00000000E+00  0.00000000E+00
  0.00000000E+00  0.00000000E+00  0.00000000E+00
  0.00000000E+00  0.00000000E+00  0.00000000E+00
  0.00000000E+00  0.00000000E+00  0.00000000E+00
  0.00000000E+00  0.00000000E+00  0.00000000E+00
  0.00000000E+00  0.00000000E+00  0.00000000E+00
  0.00000000E+00  0.00000000E+00  0.00000000E+00
  0.00000000E+00  0.00000000E+00  0.00000000E+00
  0.00000000E+00  0.00000000E+00  0.00000000E+00
  0.00000000E+00  0.00000000E+00  0.00000000E+00
  0.00000000E+00  0.00000000E+00  0.00000000E+00
  0.00000000E+00  0.00000000E+00  0.00000000E+00
  0.00000000E+00  0.00000000E+00  0.00000000E+00
  0.00000000E+00  0.00000000E+00  0.00000000E+00
  0.00000000E+00  0.00000000E+00  0.00000000E+00
  0.00000000E+00  0.00000000E+00  0.00000000E+00
  0.00000000E+00  0.00000000E+00  0.00000000E+00
  0.00000000E+00  0.00000000E+00  0.00000000E+00
  0.00000000E+00  0.00000000E+00  0.00000000E+00
  0.00000000E+00  0.00000000E+00  0.00000000E+00
  0.00000000E+00  0.00000000E+00  0.00000000E+00
  0.00000000E+00  0.00000000E+00  0.00000000E+00
  0.00000000E+00  0.00000000E+00  0.00000000E+00
  0.00000000E+00  0.00000000E+00  0.00000000E+00
  0.00000000E+00  0.00000000E+00  0.00000000E+00
  0.00000000E+00  0.00000000E+00  0.00000000E+00
  0.00000000E+00  0.00000000E+00  0.00000000E+00
  0.00000000E+00  0.00000000E+00  0.00000000E+00
  0.00000000E+00  0.00000000E+00  0.00000000E+00
  0.00000000E+00  0.00000000E+00  0.00000000E+00
  0.00000000E+00  0.00000000E+00  0.00000000E+00
  0.00000000E+00  0.00000000E+00  0.00000000E+00
  0.00000000E+00  0.00000000E+00  0.00000000E+00
  0.00000000E+00  0.00000000E+00  0.00000000E+00
  0.00000000E+00  0.00000000E+00  0.00000000E+00
  0.00000000E+00  0.00000000E+00  0.00000000E+00
  0.00000000E+00  0.00000000E+00  0.00000000E+00
  0.00000000E+00  0.00000000E+00  0.00000000E+00
  0.00000000E+00  0.00000000E+00  0.00000000E+00
  0.00000000E+00  0.00000000E+00  0.00000000E+00
  0.00000000E+00  0.00000000E+00  0.00000000E+00
  0.00000000E+00  0.00000000E+00  0.00000000E+00
  0.00000000E+00  0.00000000E+00  0.00000000E+00
  0.00000000E+00  0.00000000E+00  0.00000000E+00
  0.00000000E+00  0.00000000E+00  0.00000000E+00
  0.00000000E+00  0.00000000E+00  0.00000000E+00
  0.00000000E+00  0.00000000E+00  0.00000000E+00
  0.00000000E+00  0.00000000E+00  0.00000000E+00
  0.00000000E+00  0.00000000E+00  0.00000000E+00
  0.00000000E+00  0.00000000E+00  0.00000000E+00
  0.00000000E+00  0.00000000E+00  0.00000000E+00
  0.00000000E+00  0.00000000E+00  0.00000000E+00
  0.00000000E+00  0.00000000E+00  0.00000000E+00
  0.00000000E+00  0.00000000E+00  0.00000000E+00
  0.00000000E+00  0.00000000E+00  0.00000000E+00
  0.00000000E+00  0.00000000E+00  0.00000000E+00
  0.00000000E+00  0.00000000E+00  0.00000000E+00
  0.00000000E+00  0.00000000E+00  0.00000000E+00
  0.00000000E+00  0.00000000E+00  0.00000000E+00
  0.00000000E+00  0.00000000E+00  0.00000000E+00
  0.00000000E+00  0.00000000E+00  0.00000000E+00
  0.00000000E+00  0.00000000E+00  0.00000000E+00
  0.00000000E+00  0.00000000E+00  0.00000000E+00
  0.00000000E+00  0.00000000E+00  0.00000000E+00
  0.00000000E+00  0.00000000E+00  0.00000000E+00
  0.00000000E+00  0.00000000E+00  0.00000000E+00
  0.00000000E+00  0.00000000E+00  0.00000000E+00
  0.00000000E+00  0.00000000E+00  0.00000000E+00
  0.00000000E+00  0.00000000E+00  0.00000000E+00
  0.00000000E+00  0.00000000E+00  0.00000000E+00
  0.00000000E+00  0.00000000E+00  0.00000000E+00
  0.00000000E+00  0.00000000E+00  0.00000000E+00
  0.00000000E+00  0.00000000E+00  0.00000000E+00
  0.00000000E+00  0.00000000E+00  0.00000000E+00
  0.00000000E+00  0.00000000E+00  0.00000000E+00
  0.00000000E+00  0.00000000E+00  0.00000000E+00
  0.00000000E+00  0.00000000E+00  0.00000000E+00
  0.00000000E+00  0.00000000E+00  0.00000000E+00
  0.00000000E+00  0.00000000E+00  0.00000000E+00
  0.00000000E+00  0.00000000E+00  0.00000000E+00
  0.00000000E+00  0.00000000E+00  0.00000000E+00
  0.00000000E+00  0.00000000E+00  0.00000000E+00
  0.00000000E+00  0.00000000E+00  0.00000000E+00
  0.00000000E+00  0.00000000E+00  0.00000000E+00
  0.00000000E+00  0.00000000E+00  0.00000000E+00
  0.00000000E+00  0.00000000E+00  0.00000000E+00
  0.00000000E+00  0.00000000E+00  0.00000000E+00
  0.00000000E+00  0.00000000E+00  0.00000000E+00
  0.00000000E+00  0.00000000E+00  0.00000000E+00
  0.00000000E+00  0.00000000E+00  0.00000000E+00
  0.00000000E+00  0.00000000E+00  0.00000000E+00
  0.00000000E+00  0.00000000E+00  0.00000000E+00
  0.00000000E+00  0.00000000E+00  0.00000000E+00
  0.00000000E+00  0.00000000E+00  0.00000000E+00
  0.00000000E+00  0.00000000E+00  0.00000000E+00
  0.00000000E+00  0.00000000E+00  0.00000000E+00
  0.00000000E+00  0.00000000E+00  0.00000000E+00
  0.00000000E+00  0.00000000E+00  0.00000000E+00
  0.00000000E+00  0.00000000E+00  0.00000000E+00
  0.00000000E+00  0.00000000E+00  0.00000000E+00
  0.00000000E+00  0.00000000E+00  0.00000000E+00
  0.00000000E+00  0.00000000E+00  0.00000000E+00
  0.00000000E+00  0.00000000E+00  0.00000000E+00
  0.00000000E+00  0.00000000E+00  0.00000000E+00
  0.00000000E+00  0.00000000E+00  0.00000000E+00
  0.00000000E+00  0.00000000E+00  0.00000000E+00
  0.00000000E+00  0.00000000E+00  0.00000000E+00
  0.00000000E+00  0.00000000E+00  0.00000000E+00
  0.00000000E+00  0.00000000E+00  0.00000000E+00
  0.00000000E+00  0.00000000E+00  0.00000000E+00
  0.00000000E+00  0.00000000E+00  0.00000000E+00
  0.00000000E+00  0.00000000E+00  0.00000000E+00
  0.00000000E+00  0.00000000E+00  0.00000000E+00
  0.00000000E+00  0.00000000E+00  0.00000000E+00
  0.00000000E+00  0.00000000E+00  0.00000000E+00
  0.00000000E+00  0.00000000E+00  0.00000000E+00
  0.00000000E+00  0.00000000E+00  0.00000000E+00
  0.00000000E+00  0.00000000E+00  0.00000000E+00
  0.00000000E+00  0.00000000E+00  0.00000000E+00
  0.00000000E+00  0.00000000E+00  0.00000000E+00
  0.00000000E+00  0.00000000E+00  0.00000000E+00
  0.00000000E+00  0.00000000E+00  0.00000000E+00
  0.00000000E+00  0.00000000E+00  0.00000000E+00
  0.00000000E+00  0.00000000E+00  0.00000000E+00
  0.00000000E+00  0.00000000E+00  0.00000000E+00
  0.00000000E+00  0.00000000E+00  0.00000000E+00
  0.00000000E+00  0.00000000E+00  0.00000000E+00
  0.00000000E+00  0.00000000E+00  0.00000000E+00
  0.00000000E+00  0.00000000E+00  0.00000000E+00
  0.00000000E+00  0.00000000E+00  0.00000000E+00
  0.00000000E+00  0.00000000E+00  0.00000000E+00
  0.00000000E+00  0.00000000E+00  0.00000000E+00
  0.00000000E+00  0.00000000E+00  0.00000000E+00
  0.00000000E+00  0.00000000E+00  0.00000000E+00
  0.00000000E+00  0.00000000E+00  0.00000000E+00
  0.00000000E+00  0.00000000E+00  0.00000000E+00
  0.00000000E+00  0.00000000E+00  0.00000000E+00
  0.00000000E+00  0.00000000E+00  0.00000000E+00
  0.00000000E+00  0.00000000E+00  0.00000000E+00
  0.00000000E+00  0.00000000E+00  0.00000000E+00
  0.00000000E+00  0.00000000E+00  0.00000000E+00
  0.00000000E+00  0.00000000E+00  0.00000000E+00
