SrTiO3
1.0
15.837  0.000  0.000
 0.000 15.837  0.000
 0.000  0.000 15.983
Sr Ti O
64 64 192
Direct
0.125	0.125	0.125
0.625	0.625	0.125
0.625	0.625	0.625
0.875	0.875	0.125
0.875	0.875	0.625
0.125	0.125	0.625
0.375	0.375	0.125
0.375	0.375	0.625
0.875	0.375	0.125
0.875	0.375	0.625
0.125	0.625	0.125
0.125	0.625	0.625
0.375	0.875	0.125
0.375	0.875	0.625
0.625	0.125	0.125
0.625	0.125	0.625
0.125	0.125	0.375
0.625	0.625	0.375
0.625	0.625	0.875
0.875	0.875	0.375
0.875	0.875	0.875
0.125	0.125	0.875
0.375	0.375	0.375
0.375	0.375	0.875
0.875	0.375	0.375
0.875	0.375	0.875
0.125	0.625	0.375
0.125	0.625	0.875
0.375	0.875	0.375
0.375	0.875	0.875
0.625	0.125	0.375
0.625	0.125	0.875
0.125	0.375	0.125
0.625	0.875	0.125
0.625	0.875	0.625
0.875	0.125	0.125
0.875	0.125	0.625
0.125	0.375	0.625
0.375	0.625	0.125
0.375	0.625	0.625
0.875	0.625	0.125
0.875	0.625	0.625
0.125	0.875	0.125
0.125	0.875	0.625
0.375	0.125	0.125
0.375	0.125	0.625
0.625	0.375	0.125
0.625	0.375	0.625
0.125	0.375	0.375
0.625	0.875	0.375
0.625	0.875	0.875
0.875	0.125	0.375
0.875	0.125	0.875
0.125	0.375	0.875
0.375	0.625	0.375
0.375	0.625	0.875
0.875	0.625	0.375
0.875	0.625	0.875
0.125	0.875	0.375
0.125	0.875	0.875
0.375	0.125	0.375
0.375	0.125	0.875
0.625	0.375	0.375
0.625	0.375	0.875
0.000	0.000	0.000
0.500	0.500	0.000
0.500	0.500	0.500
0.750	0.750	0.000
0.750	0.750	0.500
0.000	0.000	0.500
0.250	0.250	0.000
0.250	0.250	0.500
0.750	0.250	0.000
0.750	0.250	0.500
0.000	0.500	0.000
0.000	0.500	0.500
0.250	0.750	0.000
0.250	0.750	0.500
0.500	0.000	0.000
0.500	0.000	0.500
0.250	0.000	0.000
0.750	0.500	0.000
0.750	0.500	0.500
0.000	0.750	0.000
0.000	0.750	0.500
0.250	0.000	0.500
0.500	0.250	0.000
0.500	0.250	0.500
0.000	0.250	0.000
0.000	0.250	0.500
0.250	0.500	0.000
0.250	0.500	0.500
0.500	0.750	0.000
0.500	0.750	0.500
0.750	0.000	0.000
0.750	0.000	0.500
0.250	0.000	0.250
0.750	0.500	0.250
0.750	0.500	0.750
0.000	0.750	0.250
0.000	0.750	0.750
0.250	0.000	0.750
0.500	0.250	0.250
0.500	0.250	0.750
0.000	0.250	0.250
0.000	0.250	0.750
0.250	0.500	0.250
0.250	0.500	0.750
0.500	0.750	0.250
0.500	0.750	0.750
0.750	0.000	0.250
0.750	0.000	0.750
0.000	0.000	0.250
0.500	0.500	0.250
0.500	0.500	0.750
0.750	0.750	0.250
0.750	0.750	0.750
0.000	0.000	0.750
0.250	0.250	0.250
0.250	0.250	0.750
0.750	0.250	0.250
0.750	0.250	0.750
0.000	0.500	0.250
0.000	0.500	0.750
0.250	0.750	0.250
0.250	0.750	0.750
0.500	0.000	0.250
0.500	0.000	0.750
0.125	0.016	0.250
0.625	0.516	0.250
0.625	0.516	0.750
0.875	0.766	0.250
0.875	0.766	0.750
0.125	0.016	0.750
0.375	0.266	0.250
0.375	0.266	0.750
0.875	0.266	0.250
0.875	0.266	0.750
0.125	0.516	0.250
0.125	0.516	0.750
0.375	0.766	0.250
0.375	0.766	0.750
0.625	0.016	0.250
0.625	0.016	0.750
0.375	0.484	0.250
0.875	0.984	0.250
0.875	0.984	0.750
0.125	0.234	0.250
0.125	0.234	0.750
0.375	0.484	0.750
0.625	0.734	0.250
0.625	0.734	0.750
0.125	0.734	0.250
0.125	0.734	0.750
0.375	0.984	0.250
0.375	0.984	0.750
0.625	0.234	0.250
0.625	0.234	0.750
0.875	0.484	0.250
0.875	0.484	0.750
0.234	0.375	0.250
0.734	0.875	0.250
0.734	0.875	0.750
0.984	0.125	0.250
0.984	0.125	0.750
0.234	0.375	0.750
0.484	0.625	0.250
0.484	0.625	0.750
0.984	0.625	0.250
0.984	0.625	0.750
0.234	0.875	0.250
0.234	0.875	0.750
0.484	0.125	0.250
0.484	0.125	0.750
0.734	0.375	0.250
0.734	0.375	0.750
0.266	0.125	0.250
0.766	0.625	0.250
0.766	0.625	0.750
0.016	0.875	0.250
0.016	0.875	0.750
0.266	0.125	0.750
0.516	0.375	0.250
0.516	0.375	0.750
0.016	0.375	0.250
0.016	0.375	0.750
0.266	0.625	0.250
0.266	0.625	0.750
0.516	0.875	0.250
0.516	0.875	0.750
0.766	0.125	0.250
0.766	0.125	0.750
0.375	0.016	0.000
0.875	0.516	0.000
0.875	0.516	0.500
0.125	0.766	0.000
0.125	0.766	0.500
0.375	0.016	0.500
0.625	0.266	0.000
0.625	0.266	0.500
0.125	0.266	0.000
0.125	0.266	0.500
0.375	0.516	0.000
0.375	0.516	0.500
0.625	0.766	0.000
0.625	0.766	0.500
0.875	0.016	0.000
0.875	0.016	0.500
0.125	0.484	0.000
0.625	0.984	0.000
0.625	0.984	0.500
0.875	0.234	0.000
0.875	0.234	0.500
0.125	0.484	0.500
0.375	0.734	0.000
0.375	0.734	0.500
0.875	0.734	0.000
0.875	0.734	0.500
0.125	0.984	0.000
0.125	0.984	0.500
0.375	0.234	0.000
0.375	0.234	0.500
0.625	0.484	0.000
0.625	0.484	0.500
0.234	0.125	0.000
0.734	0.625	0.000
0.734	0.625	0.500
0.984	0.875	0.000
0.984	0.875	0.500
0.234	0.125	0.500
0.484	0.375	0.000
0.484	0.375	0.500
0.984	0.375	0.000
0.984	0.375	0.500
0.234	0.625	0.000
0.234	0.625	0.500
0.484	0.875	0.000
0.484	0.875	0.500
0.734	0.125	0.000
0.734	0.125	0.500
0.266	0.375	0.000
0.766	0.875	0.000
0.766	0.875	0.500
0.016	0.125	0.000
0.016	0.125	0.500
0.266	0.375	0.500
0.516	0.625	0.000
0.516	0.625	0.500
0.016	0.625	0.000
0.016	0.625	0.500
0.266	0.875	0.000
0.266	0.875	0.500
0.516	0.125	0.000
0.516	0.125	0.500
0.766	0.375	0.000
0.766	0.375	0.500
0.000	0.000	0.125
0.500	0.500	0.125
0.500	0.500	0.625
0.750	0.750	0.125
0.750	0.750	0.625
0.000	0.000	0.625
0.250	0.250	0.125
0.250	0.250	0.625
0.750	0.250	0.125
0.750	0.250	0.625
0.000	0.500	0.125
0.000	0.500	0.625
0.250	0.750	0.125
0.250	0.750	0.625
0.500	0.000	0.125
0.500	0.000	0.625
0.000	0.000	0.375
0.500	0.500	0.375
0.500	0.500	0.875
0.750	0.750	0.375
0.750	0.750	0.875
0.000	0.000	0.875
0.250	0.250	0.375
0.250	0.250	0.875
0.750	0.250	0.375
0.750	0.250	0.875
0.000	0.500	0.375
0.000	0.500	0.875
0.250	0.750	0.375
0.250	0.750	0.875
0.500	0.000	0.375
0.500	0.000	0.875
0.250	0.000	0.375
0.750	0.500	0.375
0.750	0.500	0.875
0.000	0.750	0.375
0.000	0.750	0.875
0.250	0.000	0.875
0.500	0.250	0.375
0.500	0.250	0.875
0.000	0.250	0.375
0.000	0.250	0.875
0.250	0.500	0.375
0.250	0.500	0.875
0.500	0.750	0.375
0.500	0.750	0.875
0.750	0.000	0.375
0.750	0.000	0.875
0.250	0.000	0.125
0.750	0.500	0.125
0.750	0.500	0.625
0.000	0.750	0.125
0.000	0.750	0.625
0.250	0.000	0.625
0.500	0.250	0.125
0.500	0.250	0.625
0.000	0.250	0.125
0.000	0.250	0.625
0.250	0.500	0.125
0.250	0.500	0.625
0.500	0.750	0.125
0.500	0.750	0.625
0.750	0.000	0.125
0.750	0.000	0.625