SrTiFeO                                 
   1.00000000000000     
    11.1989999999999998    0.0000000000000000    0.0000000000000000
     0.0000000000000000   11.1989999999999998    0.0000000000000000
     0.0000000000000000    0.0000000000000000   15.9830000000000005
   Sr   Ti   O 
    32    32    94
Direct
  0.0004685524695161  0.2500660754296293  0.1250237150505873
  0.9979067720491954  0.2503911102742694  0.6251068012595392
  0.0000677474791808  0.7499294455889006  0.1248449945804319
  0.9988635025902175  0.7513194953365199  0.6248799318333841
  0.5008151821050182  0.2488611726391635  0.1243611301217306
  0.5012365877664771  0.2387132649098954  0.6289335692246361
  0.5002346207925471  0.7500476715684148  0.1254888613369038
  0.4987328891502760  0.7571566763166969  0.6256126317731036
  0.9977471241884998  0.2511496605158393  0.3741893465458577
  0.0006539722269866  0.2497676670824052  0.8747096976980860
  0.9984023786834638  0.7501959432038129  0.3746930112190357
  0.0001725442427788  0.7502321459341839  0.8749969142482837
  0.5009541018913207  0.2473944481599711  0.3719581797755916
  0.4999352153370886  0.2481016901840721  0.8766236983877590
  0.4993688689330385  0.7501832222454596  0.3750537891953146
  0.5007287453716753  0.7516777930396984  0.8762279515618622
  0.2503063519322867  0.0003031352151677  0.1248148108769098
  0.2485737034201168  0.9972524467973234  0.6262919766555749
  0.2496512625247654  0.4992887258614940  0.1248133074901713
  0.2382032609417312  0.5035698778808179  0.6274087175895194
  0.7502700507576968  0.0001317182473897  0.1250134697681262
  0.7509356879386649  0.9988508025188151  0.6256006469415437
  0.7500130791450508  0.5002326206578567  0.1250067321866679
  0.7574833728507860  0.5009487469223058  0.6257004521343765
  0.2502486668649389  0.9964030198967888  0.3739865402284163
  0.2507023324273550  0.0005540022152745  0.8751546015968806
  0.2444653646795239  0.5031013615759735  0.3712614255225018
  0.2482639142033321  0.5003745184343656  0.8763013810399496
  0.7495357456173564  0.9989669209663029  0.3745451951144073
  0.7501632061990048  0.0002277728540484  0.8749728586240136
  0.7507474664816046  0.5012007816143664  0.3742461549900676
  0.7518050434387546  0.4996854532121490  0.8762915814756469
  0.0003759414501428  0.0003962804698090  0.9996451035171821
  0.9969281905795561  0.9981847180857434  0.4992971292000186
  0.0000207929866077  0.5002607430946726  0.0002426082698561
  0.9991265349898409  0.5009360474301795  0.4994325390404339
  0.5000106094643887  0.9997381659433826  0.0003309070417467
  0.5007045164236583  0.0000879288613524  0.4995917616786068
  0.5003939547495900  0.5003649614399502  0.0027448798581251
  0.2501011040074451  0.2498968674470958  0.0000943767411878
  0.2461717542918399  0.2435671857482559  0.4997815727541781
  0.2501933876045668  0.7498403389454392  0.0000492887772612
  0.2483818181853407  0.7497054440525358  0.5007939133173642
  0.7500932924279956  0.2502823828463227  0.0000442599969357
  0.7489458112896844  0.2489726006886306  0.5007394034079616
  0.7498797911250621  0.7497558863558282  0.0000460676053012
  0.2507480800138959  0.2506061179683752  0.2499173217597674
  0.2505514634316116  0.2511292321937905  0.7493318052693257
  0.2503085321935384  0.7495136287447443  0.2495353261183621
  0.2496417209670417  0.7501635429405989  0.7499712188712142
  0.7493520509306627  0.2504872288136870  0.2498661248900666
  0.7500660925752086  0.2500044227966565  0.7498950675305305
  0.7491581427914010  0.7499190463808193  0.2500149228230923
  0.7498012914949460  0.7499938718615990  0.7496555999438687
  0.9999723515842712  0.0001120873306618  0.2502984026596362
  0.0000507837401612  0.0001746126996840  0.7503264528633865
  0.9989602177429734  0.5000345581956885  0.2494402949696294
  0.9992058168338341  0.5000352781310744  0.7510343704632978
  0.4998201813140657  0.9994978128367629  0.2498564540771298
  0.4999864469651082  0.9992040606182524  0.7509724788232909
  0.4991210114957367  0.4993971306452357  0.2508801178205488
  0.5000427679383656  0.4999710792000626  0.7545492580995748
  0.5010921180802043  0.4987707720011890  0.5004109152706853
  0.7486967238048444  0.7487066509597340  0.5003682980695501
  0.1104762911971856  0.1410798891116497  0.2536013471930799
  0.1113577150078155  0.1411411528758963  0.7468211381848952
  0.1095570051004593  0.6404154315148493  0.2514281236253870
  0.1105693125093589  0.6393945430411879  0.7489045057940378
  0.6096772035427674  0.1402055356668040  0.2496123403617790
  0.6110137048982995  0.1390723803296201  0.7515997138785279
  0.6087859383177354  0.6410811307150450  0.2513205538943727
  0.3910721531302612  0.3581164922963581  0.2447251678783319
  0.3923164270473453  0.3619221731925823  0.7455650593137072
  0.3908963672008471  0.8586948543078031  0.2504093106801877
  0.3897590902304520  0.8599459385869760  0.7504800057130356
  0.8902957430100186  0.3592234825537007  0.2500059209875568
  0.8897559821395815  0.3603177374526982  0.7500284651622036
  0.8907848250008227  0.8600547826305194  0.2489389089553182
  0.8904956918106741  0.8606949370675419  0.7520812415118759
  0.3591456671152122  0.1092471340098645  0.2513812440284644
  0.3607128074487796  0.1110099143694873  0.7482200049124493
  0.3584871237366292  0.6086293093993853  0.2479221271761553
  0.3617811198809523  0.6089244321543720  0.7421633923292710
  0.8597988108655584  0.1102739037899480  0.2513987476683682
  0.8609407527672441  0.1104145290906468  0.7515103099209957
  0.8589511285783171  0.6093530130721309  0.2498356403943247
  0.8600265936530246  0.6101959540978181  0.7506830310240692
  0.1403642954877151  0.3905583414547488  0.2494703246079624
  0.1401220755879066  0.3902638470980759  0.7509828780450055
  0.1410632546510810  0.8902032279014939  0.2512477174282635
  0.1403135302172770  0.8907101903418000  0.7522541898120326
  0.6408172592223016  0.3910965293044784  0.2494971035616434
  0.6405503921390218  0.8906677505033078  0.2497839982307545
  0.6394932099897191  0.8894077535524434  0.7501154924763697
  0.3597028320231948  0.3909141190616565  0.0002283225231043
  0.3591755355784433  0.8903899073135731  0.9993812368388068
  0.3608816245307599  0.8882752413768518  0.5003861682497101
  0.8594265393419752  0.3908553183621572  0.0002953832200561
  0.8592015642598952  0.3899612116723322  0.5001216731669996
  0.8597448401829215  0.8908419669229710  0.9990592729127663
  0.8593701787846394  0.8916598690388268  0.4990313368252041
  0.1411063126967438  0.1095546956973574  0.9987553064086954
  0.1418283661208906  0.1074290020469373  0.4989921484825210
  0.1408757028974523  0.6093598739368377  0.0001769764946194
  0.1375601654876791  0.6115149266717141  0.4996962094874423
  0.6406139602791876  0.1095420089356114  0.9993750032190206
  0.6428036784788139  0.1069150362131465  0.5002021649411865
  0.6412326530511080  0.6089908839570283  0.9998780379695614
  0.1097538138560371  0.3594403267661171  0.9992523770716076
  0.1172876267882109  0.3642865410479503  0.4998388494114469
  0.1095008569430015  0.8593927451825512  0.9989897044286770
  0.1094868606354358  0.8597373297926205  0.4981973047927177
  0.6090596975327817  0.3594664379640685  0.0001566978299733
  0.6093205265008022  0.8594299124431729  0.0001419497345092
  0.6088721347710242  0.8587400790987431  0.4998022716683340
  0.3906250302775476  0.1407933507715043  0.9999739914114824
  0.3933883866005861  0.1447380845337421  0.4996804581699442
  0.3911944936964610  0.6407416182499596  0.0003562018011521
  0.3829020608503047  0.6283952752263378  0.5117977611327290
  0.8906094017673231  0.1409016741625660  0.9991202438096752
  0.8923298406466028  0.1418173172587019  0.4986100051123563
  0.8906946065060355  0.6410013835051063  0.9993646843652993
  0.0017825493430023  0.0021174942745349  0.1250741076117897
  0.9999107870119192  0.9989829031998628  0.6247204321056561
  0.0001226222290365  0.5006886574313564  0.1249650950150674
  0.9995028672351092  0.4989867005191757  0.6250271730768651
  0.4990189335316513  0.0001265864868780  0.1250551596829903
  0.5002766113567697  0.9995425885530491  0.6250197376847890
  0.5020614561447301  0.5018891714266650  0.1245755535022521
  0.9996515498877382  0.9991476145257071  0.3749112304447893
  0.0017115963745936  0.0024653474330857  0.8748882773858498
  0.9988928196126904  0.4988807671241320  0.3749401359975830
  0.0001095086042290  0.5006273010928308  0.8751288858217783
  0.5000334272163383  0.9995147879091471  0.3752157606742751
  0.4989917386374988  0.0000076698057511  0.8750894809424924
  0.5014984419974494  0.5018053950194615  0.8751420461934196
  0.2583868026370383  0.2602067058083808  0.3765533214933613
  0.2528659025621311  0.2511243661643149  0.8737888794301550
  0.2557245966114009  0.7462863431156049  0.3760634266641801
  0.2522452706857236  0.7456323265509720  0.8742691519826604
  0.7459021917323900  0.2532417262713263  0.3760475294887255
  0.7479023832241961  0.2539235685999540  0.8744284660141314
  0.7506117772450930  0.7500896755839073  0.3748480341448391
  0.7464296665263982  0.7478958937843834  0.8743246842809408
  0.2476632475798403  0.2477138209092356  0.1247422423714317
  0.2550422880203492  0.2573865712322981  0.6226752349891305
  0.2490259337095238  0.7508455796949420  0.1249333253636488
  0.2447181208939169  0.7559663400708438  0.6254550405989845
  0.7502669703495508  0.2492460965668733  0.1249430932030229
  0.7543870448735438  0.2451540369860244  0.6252460872337028
  0.7497779455689632  0.7499185082933740  0.1246833276546353
  0.6386135129135037  0.3911823100237179  0.7424553916416187
  0.6089737860747527  0.6387107901788200  0.7422278964110104
  0.4930999670671836  0.4954797358090208  0.3731175902093881
  0.6024280648856085  0.3548672108955112  0.5088932566775409
  0.7552016277709618  0.7546897139014785  0.6254752896467525
  0.8909067231040139  0.6407316713255760  0.5001013943984554
  0.6437698960370830  0.6105315217112078  0.5038521961560514
 
  0.00000000E+00  0.00000000E+00  0.00000000E+00
  0.00000000E+00  0.00000000E+00  0.00000000E+00
  0.00000000E+00  0.00000000E+00  0.00000000E+00
  0.00000000E+00  0.00000000E+00  0.00000000E+00
  0.00000000E+00  0.00000000E+00  0.00000000E+00
  0.00000000E+00  0.00000000E+00  0.00000000E+00
  0.00000000E+00  0.00000000E+00  0.00000000E+00
  0.00000000E+00  0.00000000E+00  0.00000000E+00
  0.00000000E+00  0.00000000E+00  0.00000000E+00
  0.00000000E+00  0.00000000E+00  0.00000000E+00
  0.00000000E+00  0.00000000E+00  0.00000000E+00
  0.00000000E+00  0.00000000E+00  0.00000000E+00
  0.00000000E+00  0.00000000E+00  0.00000000E+00
  0.00000000E+00  0.00000000E+00  0.00000000E+00
  0.00000000E+00  0.00000000E+00  0.00000000E+00
  0.00000000E+00  0.00000000E+00  0.00000000E+00
  0.00000000E+00  0.00000000E+00  0.00000000E+00
  0.00000000E+00  0.00000000E+00  0.00000000E+00
  0.00000000E+00  0.00000000E+00  0.00000000E+00
  0.00000000E+00  0.00000000E+00  0.00000000E+00
  0.00000000E+00  0.00000000E+00  0.00000000E+00
  0.00000000E+00  0.00000000E+00  0.00000000E+00
  0.00000000E+00  0.00000000E+00  0.00000000E+00
  0.00000000E+00  0.00000000E+00  0.00000000E+00
  0.00000000E+00  0.00000000E+00  0.00000000E+00
  0.00000000E+00  0.00000000E+00  0.00000000E+00
  0.00000000E+00  0.00000000E+00  0.00000000E+00
  0.00000000E+00  0.00000000E+00  0.00000000E+00
  0.00000000E+00  0.00000000E+00  0.00000000E+00
  0.00000000E+00  0.00000000E+00  0.00000000E+00
  0.00000000E+00  0.00000000E+00  0.00000000E+00
  0.00000000E+00  0.00000000E+00  0.00000000E+00
  0.00000000E+00  0.00000000E+00  0.00000000E+00
  0.00000000E+00  0.00000000E+00  0.00000000E+00
  0.00000000E+00  0.00000000E+00  0.00000000E+00
  0.00000000E+00  0.00000000E+00  0.00000000E+00
  0.00000000E+00  0.00000000E+00  0.00000000E+00
  0.00000000E+00  0.00000000E+00  0.00000000E+00
  0.00000000E+00  0.00000000E+00  0.00000000E+00
  0.00000000E+00  0.00000000E+00  0.00000000E+00
  0.00000000E+00  0.00000000E+00  0.00000000E+00
  0.00000000E+00  0.00000000E+00  0.00000000E+00
  0.00000000E+00  0.00000000E+00  0.00000000E+00
  0.00000000E+00  0.00000000E+00  0.00000000E+00
  0.00000000E+00  0.00000000E+00  0.00000000E+00
  0.00000000E+00  0.00000000E+00  0.00000000E+00
  0.00000000E+00  0.00000000E+00  0.00000000E+00
  0.00000000E+00  0.00000000E+00  0.00000000E+00
  0.00000000E+00  0.00000000E+00  0.00000000E+00
  0.00000000E+00  0.00000000E+00  0.00000000E+00
  0.00000000E+00  0.00000000E+00  0.00000000E+00
  0.00000000E+00  0.00000000E+00  0.00000000E+00
  0.00000000E+00  0.00000000E+00  0.00000000E+00
  0.00000000E+00  0.00000000E+00  0.00000000E+00
  0.00000000E+00  0.00000000E+00  0.00000000E+00
  0.00000000E+00  0.00000000E+00  0.00000000E+00
  0.00000000E+00  0.00000000E+00  0.00000000E+00
  0.00000000E+00  0.00000000E+00  0.00000000E+00
  0.00000000E+00  0.00000000E+00  0.00000000E+00
  0.00000000E+00  0.00000000E+00  0.00000000E+00
  0.00000000E+00  0.00000000E+00  0.00000000E+00
  0.00000000E+00  0.00000000E+00  0.00000000E+00
  0.00000000E+00  0.00000000E+00  0.00000000E+00
  0.00000000E+00  0.00000000E+00  0.00000000E+00
  0.00000000E+00  0.00000000E+00  0.00000000E+00
  0.00000000E+00  0.00000000E+00  0.00000000E+00
  0.00000000E+00  0.00000000E+00  0.00000000E+00
  0.00000000E+00  0.00000000E+00  0.00000000E+00
  0.00000000E+00  0.00000000E+00  0.00000000E+00
  0.00000000E+00  0.00000000E+00  0.00000000E+00
  0.00000000E+00  0.00000000E+00  0.00000000E+00
  0.00000000E+00  0.00000000E+00  0.00000000E+00
  0.00000000E+00  0.00000000E+00  0.00000000E+00
  0.00000000E+00  0.00000000E+00  0.00000000E+00
  0.00000000E+00  0.00000000E+00  0.00000000E+00
  0.00000000E+00  0.00000000E+00  0.00000000E+00
  0.00000000E+00  0.00000000E+00  0.00000000E+00
  0.00000000E+00  0.00000000E+00  0.00000000E+00
  0.00000000E+00  0.00000000E+00  0.00000000E+00
  0.00000000E+00  0.00000000E+00  0.00000000E+00
  0.00000000E+00  0.00000000E+00  0.00000000E+00
  0.00000000E+00  0.00000000E+00  0.00000000E+00
  0.00000000E+00  0.00000000E+00  0.00000000E+00
  0.00000000E+00  0.00000000E+00  0.00000000E+00
  0.00000000E+00  0.00000000E+00  0.00000000E+00
  0.00000000E+00  0.00000000E+00  0.00000000E+00
  0.00000000E+00  0.00000000E+00  0.00000000E+00
  0.00000000E+00  0.00000000E+00  0.00000000E+00
  0.00000000E+00  0.00000000E+00  0.00000000E+00
  0.00000000E+00  0.00000000E+00  0.00000000E+00
  0.00000000E+00  0.00000000E+00  0.00000000E+00
  0.00000000E+00  0.00000000E+00  0.00000000E+00
  0.00000000E+00  0.00000000E+00  0.00000000E+00
  0.00000000E+00  0.00000000E+00  0.00000000E+00
  0.00000000E+00  0.00000000E+00  0.00000000E+00
  0.00000000E+00  0.00000000E+00  0.00000000E+00
  0.00000000E+00  0.00000000E+00  0.00000000E+00
  0.00000000E+00  0.00000000E+00  0.00000000E+00
  0.00000000E+00  0.00000000E+00  0.00000000E+00
  0.00000000E+00  0.00000000E+00  0.00000000E+00
  0.00000000E+00  0.00000000E+00  0.00000000E+00
  0.00000000E+00  0.00000000E+00  0.00000000E+00
  0.00000000E+00  0.00000000E+00  0.00000000E+00
  0.00000000E+00  0.00000000E+00  0.00000000E+00
  0.00000000E+00  0.00000000E+00  0.00000000E+00
  0.00000000E+00  0.00000000E+00  0.00000000E+00
  0.00000000E+00  0.00000000E+00  0.00000000E+00
  0.00000000E+00  0.00000000E+00  0.00000000E+00
  0.00000000E+00  0.00000000E+00  0.00000000E+00
  0.00000000E+00  0.00000000E+00  0.00000000E+00
  0.00000000E+00  0.00000000E+00  0.00000000E+00
  0.00000000E+00  0.00000000E+00  0.00000000E+00
  0.00000000E+00  0.00000000E+00  0.00000000E+00
  0.00000000E+00  0.00000000E+00  0.00000000E+00
  0.00000000E+00  0.00000000E+00  0.00000000E+00
  0.00000000E+00  0.00000000E+00  0.00000000E+00
  0.00000000E+00  0.00000000E+00  0.00000000E+00
  0.00000000E+00  0.00000000E+00  0.00000000E+00
  0.00000000E+00  0.00000000E+00  0.00000000E+00
  0.00000000E+00  0.00000000E+00  0.00000000E+00
  0.00000000E+00  0.00000000E+00  0.00000000E+00
  0.00000000E+00  0.00000000E+00  0.00000000E+00
  0.00000000E+00  0.00000000E+00  0.00000000E+00
  0.00000000E+00  0.00000000E+00  0.00000000E+00
  0.00000000E+00  0.00000000E+00  0.00000000E+00
  0.00000000E+00  0.00000000E+00  0.00000000E+00
  0.00000000E+00  0.00000000E+00  0.00000000E+00
  0.00000000E+00  0.00000000E+00  0.00000000E+00
  0.00000000E+00  0.00000000E+00  0.00000000E+00
  0.00000000E+00  0.00000000E+00  0.00000000E+00
  0.00000000E+00  0.00000000E+00  0.00000000E+00
  0.00000000E+00  0.00000000E+00  0.00000000E+00
  0.00000000E+00  0.00000000E+00  0.00000000E+00
  0.00000000E+00  0.00000000E+00  0.00000000E+00
  0.00000000E+00  0.00000000E+00  0.00000000E+00
  0.00000000E+00  0.00000000E+00  0.00000000E+00
  0.00000000E+00  0.00000000E+00  0.00000000E+00
  0.00000000E+00  0.00000000E+00  0.00000000E+00
  0.00000000E+00  0.00000000E+00  0.00000000E+00
  0.00000000E+00  0.00000000E+00  0.00000000E+00
  0.00000000E+00  0.00000000E+00  0.00000000E+00
  0.00000000E+00  0.00000000E+00  0.00000000E+00
  0.00000000E+00  0.00000000E+00  0.00000000E+00
  0.00000000E+00  0.00000000E+00  0.00000000E+00
  0.00000000E+00  0.00000000E+00  0.00000000E+00
  0.00000000E+00  0.00000000E+00  0.00000000E+00
  0.00000000E+00  0.00000000E+00  0.00000000E+00
  0.00000000E+00  0.00000000E+00  0.00000000E+00
  0.00000000E+00  0.00000000E+00  0.00000000E+00
  0.00000000E+00  0.00000000E+00  0.00000000E+00
  0.00000000E+00  0.00000000E+00  0.00000000E+00
  0.00000000E+00  0.00000000E+00  0.00000000E+00
  0.00000000E+00  0.00000000E+00  0.00000000E+00
  0.00000000E+00  0.00000000E+00  0.00000000E+00
  0.00000000E+00  0.00000000E+00  0.00000000E+00
  0.00000000E+00  0.00000000E+00  0.00000000E+00
  0.00000000E+00  0.00000000E+00  0.00000000E+00
  0.00000000E+00  0.00000000E+00  0.00000000E+00
