SrTiFeO                                 
   1.00000000000000     
    11.1989999999999998    0.0000000000000000    0.0000000000000000
     0.0000000000000000   11.1989999999999998    0.0000000000000000
     0.0000000000000000    0.0000000000000000   15.9830000000000005
   Sr   Ti   Fe   O 
    32    31     1    94
Direct
 -0.0005268495128376  0.2494955785126476  0.1250099157981506
 -0.0002636344429330  0.2482179676994470  0.6238777354409140
  0.0005268495128376  0.7505044214873524  0.1250099157981506
  0.0002636344429330  0.7517820323005530  0.6238777354409140
  0.4993369309709278  0.2449148906438754  0.1246857611668152
  0.5019498303335884  0.2408369620315740  0.6231699834813708
  0.5006630690290721  0.7550851093561249  0.1246857611668152
  0.4980501696664117  0.7591630379684258  0.6231699834813708
 -0.0002636344429330  0.2482179676994470  0.3761222645590859
 -0.0005268495128376  0.2494955785126476  0.8749900842018493
  0.0002636344429330  0.7517820323005530  0.3761222645590859
  0.0005268495128376  0.7505044214873524  0.8749900842018493
  0.5019498303335884  0.2408369620315740  0.3768300165186291
  0.4993369309709278  0.2449148906438754  0.8753142388331848
  0.4980501696664117  0.7591630379684258  0.3768300165186291
  0.5006630690290721  0.7550851093561249  0.8753142388331848
  0.2494955785126476  0.0005268495128376  0.1250099157981506
  0.2482179676994470  0.0002636344429330  0.6238777354409140
  0.2449148906438754  0.5006630690290721  0.1246857611668152
  0.2408369620315740  0.4980501696664117  0.6231699834813708
  0.7505044214873524 -0.0005268495128376  0.1250099157981506
  0.7517820323005530 -0.0002636344429330  0.6238777354409140
  0.7550851093561249  0.4993369309709278  0.1246857611668152
  0.7591630379684258  0.5019498303335884  0.6231699834813708
  0.2482179676994470  0.0002636344429330  0.3761222645590859
  0.2494955785126476  0.0005268495128376  0.8749900842018493
  0.2408369620315740  0.4980501696664117  0.3768300165186291
  0.2449148906438754  0.5006630690290721  0.8753142388331848
  0.7517820323005530 -0.0002636344429330  0.3761222645590859
  0.7505044214873524 -0.0005268495128376  0.8749900842018493
  0.7591630379684258  0.5019498303335884  0.3768300165186291
  0.7550851093561249  0.4993369309709278  0.8753142388331848
  0.0000000000000000 -0.0000000000000000  0.0000000000000000
  0.0000000000000000 -0.0000000000000000  0.5000000000000000
  0.0000000000000000  0.5000000000000000  0.0000000000000000
  0.0000000000000000  0.5000000000000000  0.5000000000000000
  0.5000000000000000 -0.0000000000000000  0.0000000000000000
  0.5000000000000000 -0.0000000000000000  0.5000000000000000
  0.5000000000000000  0.5000000000000000  0.0000000000000000
  0.2509415396032123  0.2514168548439302  0.0000000000000000
  0.2512132871638676  0.2513478741583115  0.5000000000000000
  0.2514168548439303  0.7490584603967880  0.0000000000000000
  0.2513478741583115  0.7487867128361322  0.5000000000000000
  0.7485831451560701  0.2509415396032123  0.0000000000000000
  0.7486521258416885  0.2512132871638676  0.5000000000000000
  0.7490584603967880  0.7485831451560701  0.0000000000000000
  0.2499124877415495  0.2503167501560228  0.2511829488645472
  0.2499124877415495  0.2503167501560228  0.7488170511354523
  0.2503167501560228  0.7500875122584507  0.2511829488645472
  0.2503167501560228  0.7500875122584507  0.7488170511354523
  0.7496832498439769  0.2499124877415495  0.2511829488645472
  0.7496832498439769  0.2499124877415495  0.7488170511354523
  0.7500875122584507  0.7496832498439769  0.2511829488645472
  0.7500875122584507  0.7496832498439769  0.7488170511354523
  0.0000000000000000 -0.0000000000000000  0.2494676291129345
  0.0000000000000000 -0.0000000000000000  0.7505323708870655
  0.0000000000000000  0.5000000000000000  0.2499215761903048
  0.0000000000000000  0.5000000000000000  0.7500784238096952
  0.5000000000000000 -0.0000000000000000  0.2499215761903048
  0.5000000000000000 -0.0000000000000000  0.7500784238096952
  0.5000000000000000  0.5000000000000000  0.2420607572804654
  0.5000000000000000  0.5000000000000000  0.7579392427195345
  0.7487867128361322  0.7486521258416885  0.5000000000000000
  0.5000000000000000  0.5000000000000000  0.5000000000000000
  0.1102972304661725  0.1407111475888051  0.2482935257973504
  0.1102972304661725  0.1407111475888051  0.7517064742026499
  0.1108413949100563  0.6396036965432722  0.2503100551503643
  0.1108413949100563  0.6396036965432722  0.7496899448496357
  0.6095384661545720  0.1403744045608176  0.2497862272962836
  0.6095384661545720  0.1403744045608176  0.7502137727037167
  0.6067062582391980  0.6361698313289234  0.2616788379474381
  0.3932937417608021  0.3638301686710766  0.2616788379474381
  0.3932937417608021  0.3638301686710766  0.7383211620525623
  0.3904615338454279  0.8596255954391824  0.2497862272962836
  0.3904615338454279  0.8596255954391824  0.7502137727037167
  0.8891586050899436  0.3603963034567280  0.2503100551503643
  0.8891586050899436  0.3603963034567280  0.7496899448496357
  0.8897027695338277  0.8592888524111946  0.2482935257973504
  0.8897027695338277  0.8592888524111946  0.7517064742026499
  0.3603963034567280  0.1108413949100563  0.2503100551503643
  0.3603963034567280  0.1108413949100563  0.7496899448496357
  0.3638301686710766  0.6067062582391980  0.2616788379474381
  0.3638301686710766  0.6067062582391980  0.7383211620525623
  0.8592888524111946  0.1102972304661725  0.2482935257973504
  0.8592888524111946  0.1102972304661725  0.7517064742026499
  0.8596255954391824  0.6095384661545720  0.2497862272962836
  0.8596255954391824  0.6095384661545720  0.7502137727037167
  0.1403744045608176  0.3904615338454279  0.2497862272962836
  0.1403744045608176  0.3904615338454279  0.7502137727037167
  0.1407111475888051  0.8897027695338277  0.2482935257973504
  0.1407111475888051  0.8897027695338277  0.7517064742026499
  0.6361698313289234  0.3932937417608021  0.2616788379474381
  0.6396036965432722  0.8891586050899436  0.2503100551503643
  0.6396036965432722  0.8891586050899436  0.7496899448496357
  0.3589243251825072  0.3935417115316456  0.0000000000000000
  0.3597008778239392  0.8903582890053309  0.0000000000000000
  0.3611093790663752  0.8896537178331740  0.5000000000000000
  0.8589578993532950  0.3908713901212901  0.0000000000000000
  0.8611620704237319  0.3893579145454057  0.5000000000000000
  0.8591571000248861  0.8885730557908872  0.0000000000000000
  0.8608356450305973  0.8898189763024815  0.5000000000000000
  0.1408428999751137  0.1114269442091128  0.0000000000000000
  0.1391643549694027  0.1101810236975184  0.5000000000000000
  0.1410421006467049  0.6091286098787099  0.0000000000000000
  0.1388379295762678  0.6106420854545942  0.5000000000000000
  0.6402991221760607  0.1096417109946691  0.0000000000000000
  0.6388906209336253  0.1103462821668261  0.5000000000000000
  0.6410756748174928  0.6064582884683539  0.0000000000000000
  0.1096417109946691  0.3597008778239392  0.0000000000000000
  0.1103462821668261  0.3611093790663752  0.5000000000000000
  0.1114269442091128  0.8591571000248861  0.0000000000000000
  0.1101810236975184  0.8608356450305973  0.5000000000000000
  0.6064582884683539  0.3589243251825072  0.0000000000000000
  0.6091286098787099  0.8589578993532950  0.0000000000000000
  0.6106420854545942  0.8611620704237319  0.5000000000000000
  0.3908713901212901  0.1410421006467049  0.0000000000000000
  0.3893579145454057  0.1388379295762678  0.5000000000000000
  0.3935417115316456  0.6410756748174928  0.0000000000000000
  0.3905952398968484  0.6390668555933257  0.5000000000000000
  0.8885730557908872  0.1408428999751137  0.0000000000000000
  0.8898189763024815  0.1391643549694027  0.5000000000000000
  0.8903582890053309  0.6402991221760607  0.0000000000000000
  0.0000000000000000 -0.0000000000000000  0.1243911413817696
  0.0000000000000000 -0.0000000000000000  0.6260820188944665
  0.0000000000000000  0.5000000000000000  0.1248862237463999
  0.0000000000000000  0.5000000000000000  0.6250337231131359
  0.5000000000000000 -0.0000000000000000  0.1248862237463999
  0.5000000000000000 -0.0000000000000000  0.6250337231131359
  0.5000000000000000  0.5000000000000000  0.1261388577342989
  0.0000000000000000 -0.0000000000000000  0.3739179811055336
  0.0000000000000000 -0.0000000000000000  0.8756088586182303
  0.0000000000000000  0.5000000000000000  0.3749662768868639
  0.0000000000000000  0.5000000000000000  0.8751137762535994
  0.5000000000000000 -0.0000000000000000  0.3749662768868639
  0.5000000000000000 -0.0000000000000000  0.8751137762535994
  0.5000000000000000  0.5000000000000000  0.8738611422657009
  0.2470795887756957  0.2484892198124611  0.3755456328279723
  0.2558890960033184  0.2547770506852181  0.8737576413824345
  0.2484892198124611  0.7529204112243043  0.3755456328279723
  0.2547770506852181  0.7441109039966813  0.8737576413824345
  0.7515107801875390  0.2470795887756957  0.3755456328279723
  0.7452229493147818  0.2558890960033184  0.8737576413824345
  0.7529204112243043  0.7515107801875390  0.3755456328279723
  0.7441109039966813  0.7452229493147818  0.8737576413824345
  0.2558890960033184  0.2547770506852181  0.1262423586175652
  0.2470795887756957  0.2484892198124611  0.6244543671720282
  0.2547770506852181  0.7441109039966813  0.1262423586175652
  0.2484892198124611  0.7529204112243043  0.6244543671720282
  0.7452229493147818  0.2558890960033184  0.1262423586175652
  0.7515107801875390  0.2470795887756957  0.6244543671720282
  0.7441109039966813  0.7452229493147818  0.1262423586175652
  0.6361698313289234  0.3932937417608021  0.7383211620525623
  0.6067062582391980  0.6361698313289234  0.7383211620525623
  0.6094047601031515  0.3609331444066743  0.5000000000000000
  0.3609331444066743  0.3905952398968484  0.5000000000000000
  0.7529204112243043  0.7515107801875390  0.6244543671720282
  0.8896537178331740  0.6388906209336253  0.5000000000000000
  0.6390668555933257  0.6094047601031515  0.5000000000000000
 
  0.00000000E+00  0.00000000E+00  0.00000000E+00
  0.00000000E+00  0.00000000E+00  0.00000000E+00
  0.00000000E+00  0.00000000E+00  0.00000000E+00
  0.00000000E+00  0.00000000E+00  0.00000000E+00
  0.00000000E+00  0.00000000E+00  0.00000000E+00
  0.00000000E+00  0.00000000E+00  0.00000000E+00
  0.00000000E+00  0.00000000E+00  0.00000000E+00
  0.00000000E+00  0.00000000E+00  0.00000000E+00
  0.00000000E+00  0.00000000E+00  0.00000000E+00
  0.00000000E+00  0.00000000E+00  0.00000000E+00
  0.00000000E+00  0.00000000E+00  0.00000000E+00
  0.00000000E+00  0.00000000E+00  0.00000000E+00
  0.00000000E+00  0.00000000E+00  0.00000000E+00
  0.00000000E+00  0.00000000E+00  0.00000000E+00
  0.00000000E+00  0.00000000E+00  0.00000000E+00
  0.00000000E+00  0.00000000E+00  0.00000000E+00
  0.00000000E+00  0.00000000E+00  0.00000000E+00
  0.00000000E+00  0.00000000E+00  0.00000000E+00
  0.00000000E+00  0.00000000E+00  0.00000000E+00
  0.00000000E+00  0.00000000E+00  0.00000000E+00
  0.00000000E+00  0.00000000E+00  0.00000000E+00
  0.00000000E+00  0.00000000E+00  0.00000000E+00
  0.00000000E+00  0.00000000E+00  0.00000000E+00
  0.00000000E+00  0.00000000E+00  0.00000000E+00
  0.00000000E+00  0.00000000E+00  0.00000000E+00
  0.00000000E+00  0.00000000E+00  0.00000000E+00
  0.00000000E+00  0.00000000E+00  0.00000000E+00
  0.00000000E+00  0.00000000E+00  0.00000000E+00
  0.00000000E+00  0.00000000E+00  0.00000000E+00
  0.00000000E+00  0.00000000E+00  0.00000000E+00
  0.00000000E+00  0.00000000E+00  0.00000000E+00
  0.00000000E+00  0.00000000E+00  0.00000000E+00
  0.00000000E+00  0.00000000E+00  0.00000000E+00
  0.00000000E+00  0.00000000E+00  0.00000000E+00
  0.00000000E+00  0.00000000E+00  0.00000000E+00
  0.00000000E+00  0.00000000E+00  0.00000000E+00
  0.00000000E+00  0.00000000E+00  0.00000000E+00
  0.00000000E+00  0.00000000E+00  0.00000000E+00
  0.00000000E+00  0.00000000E+00  0.00000000E+00
  0.00000000E+00  0.00000000E+00  0.00000000E+00
  0.00000000E+00  0.00000000E+00  0.00000000E+00
  0.00000000E+00  0.00000000E+00  0.00000000E+00
  0.00000000E+00  0.00000000E+00  0.00000000E+00
  0.00000000E+00  0.00000000E+00  0.00000000E+00
  0.00000000E+00  0.00000000E+00  0.00000000E+00
  0.00000000E+00  0.00000000E+00  0.00000000E+00
  0.00000000E+00  0.00000000E+00  0.00000000E+00
  0.00000000E+00  0.00000000E+00  0.00000000E+00
  0.00000000E+00  0.00000000E+00  0.00000000E+00
  0.00000000E+00  0.00000000E+00  0.00000000E+00
  0.00000000E+00  0.00000000E+00  0.00000000E+00
  0.00000000E+00  0.00000000E+00  0.00000000E+00
  0.00000000E+00  0.00000000E+00  0.00000000E+00
  0.00000000E+00  0.00000000E+00  0.00000000E+00
  0.00000000E+00  0.00000000E+00  0.00000000E+00
  0.00000000E+00  0.00000000E+00  0.00000000E+00
  0.00000000E+00  0.00000000E+00  0.00000000E+00
  0.00000000E+00  0.00000000E+00  0.00000000E+00
  0.00000000E+00  0.00000000E+00  0.00000000E+00
  0.00000000E+00  0.00000000E+00  0.00000000E+00
  0.00000000E+00  0.00000000E+00  0.00000000E+00
  0.00000000E+00  0.00000000E+00  0.00000000E+00
  0.00000000E+00  0.00000000E+00  0.00000000E+00
  0.00000000E+00  0.00000000E+00  0.00000000E+00
  0.00000000E+00  0.00000000E+00  0.00000000E+00
  0.00000000E+00  0.00000000E+00  0.00000000E+00
  0.00000000E+00  0.00000000E+00  0.00000000E+00
  0.00000000E+00  0.00000000E+00  0.00000000E+00
  0.00000000E+00  0.00000000E+00  0.00000000E+00
  0.00000000E+00  0.00000000E+00  0.00000000E+00
  0.00000000E+00  0.00000000E+00  0.00000000E+00
  0.00000000E+00  0.00000000E+00  0.00000000E+00
  0.00000000E+00  0.00000000E+00  0.00000000E+00
  0.00000000E+00  0.00000000E+00  0.00000000E+00
  0.00000000E+00  0.00000000E+00  0.00000000E+00
  0.00000000E+00  0.00000000E+00  0.00000000E+00
  0.00000000E+00  0.00000000E+00  0.00000000E+00
  0.00000000E+00  0.00000000E+00  0.00000000E+00
  0.00000000E+00  0.00000000E+00  0.00000000E+00
  0.00000000E+00  0.00000000E+00  0.00000000E+00
  0.00000000E+00  0.00000000E+00  0.00000000E+00
  0.00000000E+00  0.00000000E+00  0.00000000E+00
  0.00000000E+00  0.00000000E+00  0.00000000E+00
  0.00000000E+00  0.00000000E+00  0.00000000E+00
  0.00000000E+00  0.00000000E+00  0.00000000E+00
  0.00000000E+00  0.00000000E+00  0.00000000E+00
  0.00000000E+00  0.00000000E+00  0.00000000E+00
  0.00000000E+00  0.00000000E+00  0.00000000E+00
  0.00000000E+00  0.00000000E+00  0.00000000E+00
  0.00000000E+00  0.00000000E+00  0.00000000E+00
  0.00000000E+00  0.00000000E+00  0.00000000E+00
  0.00000000E+00  0.00000000E+00  0.00000000E+00
  0.00000000E+00  0.00000000E+00  0.00000000E+00
  0.00000000E+00  0.00000000E+00  0.00000000E+00
  0.00000000E+00  0.00000000E+00  0.00000000E+00
  0.00000000E+00  0.00000000E+00  0.00000000E+00
  0.00000000E+00  0.00000000E+00  0.00000000E+00
  0.00000000E+00  0.00000000E+00  0.00000000E+00
  0.00000000E+00  0.00000000E+00  0.00000000E+00
  0.00000000E+00  0.00000000E+00  0.00000000E+00
  0.00000000E+00  0.00000000E+00  0.00000000E+00
  0.00000000E+00  0.00000000E+00  0.00000000E+00
  0.00000000E+00  0.00000000E+00  0.00000000E+00
  0.00000000E+00  0.00000000E+00  0.00000000E+00
  0.00000000E+00  0.00000000E+00  0.00000000E+00
  0.00000000E+00  0.00000000E+00  0.00000000E+00
  0.00000000E+00  0.00000000E+00  0.00000000E+00
  0.00000000E+00  0.00000000E+00  0.00000000E+00
  0.00000000E+00  0.00000000E+00  0.00000000E+00
  0.00000000E+00  0.00000000E+00  0.00000000E+00
  0.00000000E+00  0.00000000E+00  0.00000000E+00
  0.00000000E+00  0.00000000E+00  0.00000000E+00
  0.00000000E+00  0.00000000E+00  0.00000000E+00
  0.00000000E+00  0.00000000E+00  0.00000000E+00
  0.00000000E+00  0.00000000E+00  0.00000000E+00
  0.00000000E+00  0.00000000E+00  0.00000000E+00
  0.00000000E+00  0.00000000E+00  0.00000000E+00
  0.00000000E+00  0.00000000E+00  0.00000000E+00
  0.00000000E+00  0.00000000E+00  0.00000000E+00
  0.00000000E+00  0.00000000E+00  0.00000000E+00
  0.00000000E+00  0.00000000E+00  0.00000000E+00
  0.00000000E+00  0.00000000E+00  0.00000000E+00
  0.00000000E+00  0.00000000E+00  0.00000000E+00
  0.00000000E+00  0.00000000E+00  0.00000000E+00
  0.00000000E+00  0.00000000E+00  0.00000000E+00
  0.00000000E+00  0.00000000E+00  0.00000000E+00
  0.00000000E+00  0.00000000E+00  0.00000000E+00
  0.00000000E+00  0.00000000E+00  0.00000000E+00
  0.00000000E+00  0.00000000E+00  0.00000000E+00
  0.00000000E+00  0.00000000E+00  0.00000000E+00
  0.00000000E+00  0.00000000E+00  0.00000000E+00
  0.00000000E+00  0.00000000E+00  0.00000000E+00
  0.00000000E+00  0.00000000E+00  0.00000000E+00
  0.00000000E+00  0.00000000E+00  0.00000000E+00
  0.00000000E+00  0.00000000E+00  0.00000000E+00
  0.00000000E+00  0.00000000E+00  0.00000000E+00
  0.00000000E+00  0.00000000E+00  0.00000000E+00
  0.00000000E+00  0.00000000E+00  0.00000000E+00
  0.00000000E+00  0.00000000E+00  0.00000000E+00
  0.00000000E+00  0.00000000E+00  0.00000000E+00
  0.00000000E+00  0.00000000E+00  0.00000000E+00
  0.00000000E+00  0.00000000E+00  0.00000000E+00
  0.00000000E+00  0.00000000E+00  0.00000000E+00
  0.00000000E+00  0.00000000E+00  0.00000000E+00
  0.00000000E+00  0.00000000E+00  0.00000000E+00
  0.00000000E+00  0.00000000E+00  0.00000000E+00
  0.00000000E+00  0.00000000E+00  0.00000000E+00
  0.00000000E+00  0.00000000E+00  0.00000000E+00
  0.00000000E+00  0.00000000E+00  0.00000000E+00
  0.00000000E+00  0.00000000E+00  0.00000000E+00
  0.00000000E+00  0.00000000E+00  0.00000000E+00
  0.00000000E+00  0.00000000E+00  0.00000000E+00
  0.00000000E+00  0.00000000E+00  0.00000000E+00
  0.00000000E+00  0.00000000E+00  0.00000000E+00
  0.00000000E+00  0.00000000E+00  0.00000000E+00
  0.00000000E+00  0.00000000E+00  0.00000000E+00
  0.00000000E+00  0.00000000E+00  0.00000000E+00
  0.00000000E+00  0.00000000E+00  0.00000000E+00
