Sr   Ti   Fe   O                        
   1.00000000000000     
    11.1989999999999998    0.0000000000000000    0.0000000000000000
     0.0000000000000000   11.1989999999999998    0.0000000000000000
     0.0000000000000000    0.0000000000000000   15.9830000000000005
   Sr   Ti   Fe   O 
    32    31     1    94
Direct
  0.9988294046979729  0.2498153356610148  0.1249749557094488
  0.0007040800138720  0.2482579474874087  0.6238491167947469
  0.9982808201091393  0.7512529977894246  0.1259096050318588
  0.0032810117801401  0.7505072631453533  0.6262899174520079
  0.4994916745145120  0.2463101782660017  0.1242134488673469
  0.5033519480452578  0.2413007127993431  0.6227125160468500
  0.5011621194706875  0.7522649421134000  0.1242697137865198
  0.4981943686904863  0.7563760459108897  0.6272696860285365
  0.9993514146195766  0.2479726023591493  0.3747195955805252
  0.0012131088327225  0.2500135783693123  0.8745470009390757
  0.0009851543511046  0.7495578694556139  0.3757529599613182
  0.0008653041308254  0.7506263172707388  0.8751900426567623
  0.5003999439136686  0.2388565871719549  0.3749206996349619
  0.5001250345482785  0.2479750534896319  0.8744903227871701
  0.4963879026940990  0.7583835839483229  0.3722091396252911
  0.5019625352487688  0.7552065182865024  0.8769380952711211
  0.2497709973729016  0.0010389901651893  0.1246664771957532
  0.2512146571940457  0.9997337021340142  0.6245127240236733
  0.2447721280064785  0.5004205422220083  0.1247462885735537
  0.2425787956748629  0.4987585948451245  0.6239759828945783
  0.7494963468904973  0.9982228633529265  0.1246558362596453
  0.7525081655343882  0.0036112383874886  0.6260295567453265
  0.7513854251836861  0.5011140104890318  0.1242596844477153
  0.7651532558268875  0.4959152764969399  0.6282860693671853
  0.2482729447113516  0.9993622988322032  0.3745255126246503
  0.2511323104914971  0.0012628224920516  0.8742785590055100
  0.2398289308744896  0.4998767770145361  0.3767917813107025
  0.2484362378243532  0.5013850672788762  0.8755980240630264
  0.7518837716030202  0.0029819461423311  0.3717948752262386
  0.7518963489732463  0.0004944566388427  0.8755581356632108
  0.7606405137191357  0.4954865092047980  0.3735054175885626
  0.7546878654932384  0.5015924277078292  0.8745658592628599
  0.0002103719037615  0.0001998853392158  0.0000706899558342
  0.0041405315887147  0.0027533831055630  0.4998501134797678
  0.0002394499260122  0.5000995070811303 -0.0000612440524548
  0.9989295266584305  0.4983069917323124  0.5001893412364287
  0.5004085328837125  0.0006263561439208  0.9998484304414641
  0.4998581403850948  0.9981619454682146  0.4999972105908202
  0.4999449608946431  0.5002479050104620  0.0010325896273943
  0.2513426738428141  0.2517208567643086  0.0000361381800239
  0.2511145869782125  0.2506154904623116  0.4987461765610479
  0.2511096008067450  0.7495308648297737  0.9999166746292604
  0.2514820441602159  0.7484312673843543  0.4981759568335071
  0.7495196939790948  0.2513499282463306  0.9998005307111777
  0.7476698707895462  0.2503271245653558  0.4983193801242037
  0.7506672845963180  0.7498285849275029 -0.0000932087354241
  0.2486274238768646  0.2492538587534990  0.2509466536719145
  0.2522062356364678  0.2518919798849006  0.7476659742735766
  0.2487649414512691  0.7501082842538503  0.2501709280429548
  0.2519259269922903  0.7503652756494701  0.7490010773271049
  0.7490821488146454  0.2496644231270354  0.2500368018728577
  0.7506087756782293  0.2507063401167376  0.7495654069236061
  0.7458469984823668  0.7463449934911806  0.2516741391325862
  0.7517745461446234  0.7523040993941927  0.7507638494166189
  0.9992911386186089  0.9991525368511049  0.2492685111316147
  0.0013062174182875  0.0002182154868455  0.7500807259863621
  0.9994679498498216  0.5000135680069068  0.2492496877777295
  0.0021414662195068  0.5002623301352095  0.7507018178453546
  0.4995516746232805  0.9993906956579462  0.2491780398323512
  0.5013642853173851  0.0008886453555558  0.7504449927401329
  0.4967738694974515  0.4976719627348124  0.2449086124782803
  0.5039812586547943  0.5033966939527860  0.7559591006878548
  0.7547895922290748  0.7594009960053019  0.5028873834854921
  0.4931674993503090  0.4941123146635538  0.5051904724279516
  0.1092871338005185  0.1394448832478445  0.2454925256878012
  0.1130451146780131  0.1406987425854739  0.7501300245911730
  0.1099003790428405  0.6393679851751570  0.2490025742508948
  0.1142005164531402  0.6388709415742606  0.7499140146260095
  0.6102342774605743  0.1387191916704332  0.2489474516165657
  0.6113196012353717  0.1415403952484141  0.7499897978004999
  0.6089867180299767  0.6409624015866229  0.2526004983121091
  0.3885086425511418  0.3609732616641176  0.2621935535482742
  0.3948387752340857  0.3675069549520600  0.7334107701230195
  0.3891767465298333  0.8598376944625716  0.2484957803038267
  0.3892476046460254  0.8632406140465738  0.7515844578655850
  0.8872957641312372  0.3616599488676124  0.2505486643616890
  0.8905678632104819  0.3612827803582037  0.7487922466288103
  0.8879967494733879  0.8598886730524261  0.2552204893347900
  0.8927904677825484  0.8623236303295809  0.7525293166746306
  0.3604441474926595  0.1101153229825472  0.2498976640653578
  0.3632475246034344  0.1141127549807837  0.7490588379973028
  0.3609479033951133  0.6085670823550956  0.2618001037992411
  0.3675515376886637  0.6110080314806597  0.7385029449143196
  0.8600436432625821  0.1100229816440889  0.2452127465858004
  0.8616801692750453  0.1124111841334480  0.7502228837305177
  0.8597751890530653  0.6099388523852592  0.2495015380361665
  0.8641856929490611  0.6130513880264840  0.7504492153003289
  0.1381289132149244  0.3891976049175100  0.2503262143676539
  0.1423082210190823  0.3908768914237584  0.7505542336448452
  0.1390452674943405  0.8899009116156678  0.2449265849047405
  0.1415394230738782  0.8896212605196726  0.7496279477389890
  0.6357639788834285  0.3887974614281298  0.2613907244033744
  0.6394344913890344  0.8891973376311634  0.2513963378097210
  0.6411102855870964  0.8921224324068711  0.7509410289611661
  0.3584801384692728  0.3933710480160481  0.0014591553863445
  0.3598899448393785  0.8907326733310065  0.9995144401805482
  0.3590385109444622  0.8895512436919769  0.4994851350425297
  0.8589615423438278  0.3915732866041744  0.9999082971015306
  0.8620932147961550  0.3855376445441072  0.4989864977147138
  0.8608479202646816  0.8914092945985148  0.0001638271967334
  0.8578752626403180  0.8898213118618374  0.4943249954773677
  0.1416672117148706  0.1114676846758960 -0.0000947906067390
  0.1400670978211744  0.1077239315098235  0.5020930301597298
  0.1415059027298271  0.6091491992637736  0.9995315517834489
  0.1316605408529672  0.6137030447178323  0.4991814163169814
  0.6410195512813466  0.1105710933512830  0.0002166938750062
  0.6404657614744855  0.1057940717877938  0.4994944083082017
  0.6417780740778978  0.6096115441938470  0.9946395292180982
  0.1097877668328457  0.3593849455261071 -0.0002713128724562
  0.1089153346468062  0.3600811587023736  0.4986875676036854
  0.1115379513228593  0.8593344835547061  0.9997545545507088
  0.1062159899289212  0.8601146912688229  0.5007341936787895
  0.6074407790781077  0.3597671732728689  0.9981155604503321
  0.6103167419631472  0.8603689992079074  0.0002529821307157
  0.6054632002167175  0.8511165817795496  0.5010776149510371
  0.3912809056272962  0.1416707372802267  0.9999383454284850
  0.3898986655235901  0.1375368136188841  0.4999133736619992
  0.3931468752713285  0.6412479445619687  0.9985655574934670
  0.3812119966854832  0.6359498347142395  0.4847359558661599
  0.8900566896815445  0.1418244696175798  0.9999121778974581
  0.8904384975753580  0.1371290509693152  0.5014657175646160
  0.8914576874123359  0.6408101176171436  0.0002794869541933
  0.9985155310676952  0.9977673155997573  0.1237084558334638
  0.9979182446454290  0.9981159405170887  0.6255402271644084
  0.0004141748917291  0.4992230729228543  0.1247295143032764
  0.0042432390986923  0.4991010909950812  0.6251096402574948
  0.5003906592005937  0.0001579192046642  0.1246656008800837
  0.5009238899324501  0.0012072363786942  0.6249740342189039
  0.5067596845633073  0.5045380212654600  0.1227301060978137
  0.0031239083400674  0.0036114921193428  0.3738434167155085
  0.0024304815669938  0.0020488626706526  0.8752391164313353
  0.9977341461586577  0.5021007696522313  0.3749325661662120
  0.0005750851282345  0.4995037212748211  0.8749925539385469
  0.5002656403408013  0.9982773523374080  0.3748267507273921
  0.5006019214893721  0.0017165197569092  0.8752265163068911
  0.4929983196917481  0.4951988193660695  0.8724460124567404
  0.2416898224505087  0.2410943238005561  0.3746826755505935
  0.2579450547151997  0.2560990525533778  0.8731166323160069
  0.2398267666597939  0.7595267295699741  0.3730950892958497
  0.2543472054459042  0.7455913252714396  0.8735976437664315
  0.7572311303975169  0.2401325863485938  0.3736264083403532
  0.7487604123449946  0.2539497148309888  0.8740024491885798
  0.7382475850531592  0.7348399712943914  0.3808982097412512
  0.7547492004691952  0.7546159604379796  0.8753627552287271
  0.2552449705921768  0.2543326680154840  0.1258039516600490
  0.2472194366185041  0.2495965642804362  0.6233759064002260
  0.2547937554993978  0.7436514598137303  0.1250011015064116
  0.2505801529928144  0.7498631600036710  0.6233474625890509
  0.7452860663284095  0.2567027509983533  0.1251421459852285
  0.7472000119243060  0.2499656925494437  0.6238467799242706
  0.7490088143071099  0.7490763051680132  0.1252054598100157
  0.6396257180935985  0.3939321125228233  0.7447289900970766
  0.6125784488548148  0.6421262280814434  0.7566413368773328
  0.6109608919737080  0.3576428791164798  0.4872484112897171
  0.3562062490492072  0.3860600245682602  0.4928913552264391
  0.7565906804728418  0.7603536123865292  0.6264900415321445
  0.8746065309095959  0.6310247500564959  0.5033090455273355
  0.5856152039904805  0.5759855847133012  0.5816074992141831
 
  0.00000000E+00  0.00000000E+00  0.00000000E+00
  0.00000000E+00  0.00000000E+00  0.00000000E+00
  0.00000000E+00  0.00000000E+00  0.00000000E+00
  0.00000000E+00  0.00000000E+00  0.00000000E+00
  0.00000000E+00  0.00000000E+00  0.00000000E+00
  0.00000000E+00  0.00000000E+00  0.00000000E+00
  0.00000000E+00  0.00000000E+00  0.00000000E+00
  0.00000000E+00  0.00000000E+00  0.00000000E+00
  0.00000000E+00  0.00000000E+00  0.00000000E+00
  0.00000000E+00  0.00000000E+00  0.00000000E+00
  0.00000000E+00  0.00000000E+00  0.00000000E+00
  0.00000000E+00  0.00000000E+00  0.00000000E+00
  0.00000000E+00  0.00000000E+00  0.00000000E+00
  0.00000000E+00  0.00000000E+00  0.00000000E+00
  0.00000000E+00  0.00000000E+00  0.00000000E+00
  0.00000000E+00  0.00000000E+00  0.00000000E+00
  0.00000000E+00  0.00000000E+00  0.00000000E+00
  0.00000000E+00  0.00000000E+00  0.00000000E+00
  0.00000000E+00  0.00000000E+00  0.00000000E+00
  0.00000000E+00  0.00000000E+00  0.00000000E+00
  0.00000000E+00  0.00000000E+00  0.00000000E+00
  0.00000000E+00  0.00000000E+00  0.00000000E+00
  0.00000000E+00  0.00000000E+00  0.00000000E+00
  0.00000000E+00  0.00000000E+00  0.00000000E+00
  0.00000000E+00  0.00000000E+00  0.00000000E+00
  0.00000000E+00  0.00000000E+00  0.00000000E+00
  0.00000000E+00  0.00000000E+00  0.00000000E+00
  0.00000000E+00  0.00000000E+00  0.00000000E+00
  0.00000000E+00  0.00000000E+00  0.00000000E+00
  0.00000000E+00  0.00000000E+00  0.00000000E+00
  0.00000000E+00  0.00000000E+00  0.00000000E+00
  0.00000000E+00  0.00000000E+00  0.00000000E+00
  0.00000000E+00  0.00000000E+00  0.00000000E+00
  0.00000000E+00  0.00000000E+00  0.00000000E+00
  0.00000000E+00  0.00000000E+00  0.00000000E+00
  0.00000000E+00  0.00000000E+00  0.00000000E+00
  0.00000000E+00  0.00000000E+00  0.00000000E+00
  0.00000000E+00  0.00000000E+00  0.00000000E+00
  0.00000000E+00  0.00000000E+00  0.00000000E+00
  0.00000000E+00  0.00000000E+00  0.00000000E+00
  0.00000000E+00  0.00000000E+00  0.00000000E+00
  0.00000000E+00  0.00000000E+00  0.00000000E+00
  0.00000000E+00  0.00000000E+00  0.00000000E+00
  0.00000000E+00  0.00000000E+00  0.00000000E+00
  0.00000000E+00  0.00000000E+00  0.00000000E+00
  0.00000000E+00  0.00000000E+00  0.00000000E+00
  0.00000000E+00  0.00000000E+00  0.00000000E+00
  0.00000000E+00  0.00000000E+00  0.00000000E+00
  0.00000000E+00  0.00000000E+00  0.00000000E+00
  0.00000000E+00  0.00000000E+00  0.00000000E+00
  0.00000000E+00  0.00000000E+00  0.00000000E+00
  0.00000000E+00  0.00000000E+00  0.00000000E+00
  0.00000000E+00  0.00000000E+00  0.00000000E+00
  0.00000000E+00  0.00000000E+00  0.00000000E+00
  0.00000000E+00  0.00000000E+00  0.00000000E+00
  0.00000000E+00  0.00000000E+00  0.00000000E+00
  0.00000000E+00  0.00000000E+00  0.00000000E+00
  0.00000000E+00  0.00000000E+00  0.00000000E+00
  0.00000000E+00  0.00000000E+00  0.00000000E+00
  0.00000000E+00  0.00000000E+00  0.00000000E+00
  0.00000000E+00  0.00000000E+00  0.00000000E+00
  0.00000000E+00  0.00000000E+00  0.00000000E+00
  0.00000000E+00  0.00000000E+00  0.00000000E+00
  0.00000000E+00  0.00000000E+00  0.00000000E+00
  0.00000000E+00  0.00000000E+00  0.00000000E+00
  0.00000000E+00  0.00000000E+00  0.00000000E+00
  0.00000000E+00  0.00000000E+00  0.00000000E+00
  0.00000000E+00  0.00000000E+00  0.00000000E+00
  0.00000000E+00  0.00000000E+00  0.00000000E+00
  0.00000000E+00  0.00000000E+00  0.00000000E+00
  0.00000000E+00  0.00000000E+00  0.00000000E+00
  0.00000000E+00  0.00000000E+00  0.00000000E+00
  0.00000000E+00  0.00000000E+00  0.00000000E+00
  0.00000000E+00  0.00000000E+00  0.00000000E+00
  0.00000000E+00  0.00000000E+00  0.00000000E+00
  0.00000000E+00  0.00000000E+00  0.00000000E+00
  0.00000000E+00  0.00000000E+00  0.00000000E+00
  0.00000000E+00  0.00000000E+00  0.00000000E+00
  0.00000000E+00  0.00000000E+00  0.00000000E+00
  0.00000000E+00  0.00000000E+00  0.00000000E+00
  0.00000000E+00  0.00000000E+00  0.00000000E+00
  0.00000000E+00  0.00000000E+00  0.00000000E+00
  0.00000000E+00  0.00000000E+00  0.00000000E+00
  0.00000000E+00  0.00000000E+00  0.00000000E+00
  0.00000000E+00  0.00000000E+00  0.00000000E+00
  0.00000000E+00  0.00000000E+00  0.00000000E+00
  0.00000000E+00  0.00000000E+00  0.00000000E+00
  0.00000000E+00  0.00000000E+00  0.00000000E+00
  0.00000000E+00  0.00000000E+00  0.00000000E+00
  0.00000000E+00  0.00000000E+00  0.00000000E+00
  0.00000000E+00  0.00000000E+00  0.00000000E+00
  0.00000000E+00  0.00000000E+00  0.00000000E+00
  0.00000000E+00  0.00000000E+00  0.00000000E+00
  0.00000000E+00  0.00000000E+00  0.00000000E+00
  0.00000000E+00  0.00000000E+00  0.00000000E+00
  0.00000000E+00  0.00000000E+00  0.00000000E+00
  0.00000000E+00  0.00000000E+00  0.00000000E+00
  0.00000000E+00  0.00000000E+00  0.00000000E+00
  0.00000000E+00  0.00000000E+00  0.00000000E+00
  0.00000000E+00  0.00000000E+00  0.00000000E+00
  0.00000000E+00  0.00000000E+00  0.00000000E+00
  0.00000000E+00  0.00000000E+00  0.00000000E+00
  0.00000000E+00  0.00000000E+00  0.00000000E+00
  0.00000000E+00  0.00000000E+00  0.00000000E+00
  0.00000000E+00  0.00000000E+00  0.00000000E+00
  0.00000000E+00  0.00000000E+00  0.00000000E+00
  0.00000000E+00  0.00000000E+00  0.00000000E+00
  0.00000000E+00  0.00000000E+00  0.00000000E+00
  0.00000000E+00  0.00000000E+00  0.00000000E+00
  0.00000000E+00  0.00000000E+00  0.00000000E+00
  0.00000000E+00  0.00000000E+00  0.00000000E+00
  0.00000000E+00  0.00000000E+00  0.00000000E+00
  0.00000000E+00  0.00000000E+00  0.00000000E+00
  0.00000000E+00  0.00000000E+00  0.00000000E+00
  0.00000000E+00  0.00000000E+00  0.00000000E+00
  0.00000000E+00  0.00000000E+00  0.00000000E+00
  0.00000000E+00  0.00000000E+00  0.00000000E+00
  0.00000000E+00  0.00000000E+00  0.00000000E+00
  0.00000000E+00  0.00000000E+00  0.00000000E+00
  0.00000000E+00  0.00000000E+00  0.00000000E+00
  0.00000000E+00  0.00000000E+00  0.00000000E+00
  0.00000000E+00  0.00000000E+00  0.00000000E+00
  0.00000000E+00  0.00000000E+00  0.00000000E+00
  0.00000000E+00  0.00000000E+00  0.00000000E+00
  0.00000000E+00  0.00000000E+00  0.00000000E+00
  0.00000000E+00  0.00000000E+00  0.00000000E+00
  0.00000000E+00  0.00000000E+00  0.00000000E+00
  0.00000000E+00  0.00000000E+00  0.00000000E+00
  0.00000000E+00  0.00000000E+00  0.00000000E+00
  0.00000000E+00  0.00000000E+00  0.00000000E+00
  0.00000000E+00  0.00000000E+00  0.00000000E+00
  0.00000000E+00  0.00000000E+00  0.00000000E+00
  0.00000000E+00  0.00000000E+00  0.00000000E+00
  0.00000000E+00  0.00000000E+00  0.00000000E+00
  0.00000000E+00  0.00000000E+00  0.00000000E+00
  0.00000000E+00  0.00000000E+00  0.00000000E+00
  0.00000000E+00  0.00000000E+00  0.00000000E+00
  0.00000000E+00  0.00000000E+00  0.00000000E+00
  0.00000000E+00  0.00000000E+00  0.00000000E+00
  0.00000000E+00  0.00000000E+00  0.00000000E+00
  0.00000000E+00  0.00000000E+00  0.00000000E+00
  0.00000000E+00  0.00000000E+00  0.00000000E+00
  0.00000000E+00  0.00000000E+00  0.00000000E+00
  0.00000000E+00  0.00000000E+00  0.00000000E+00
  0.00000000E+00  0.00000000E+00  0.00000000E+00
  0.00000000E+00  0.00000000E+00  0.00000000E+00
  0.00000000E+00  0.00000000E+00  0.00000000E+00
  0.00000000E+00  0.00000000E+00  0.00000000E+00
  0.00000000E+00  0.00000000E+00  0.00000000E+00
  0.00000000E+00  0.00000000E+00  0.00000000E+00
  0.00000000E+00  0.00000000E+00  0.00000000E+00
  0.00000000E+00  0.00000000E+00  0.00000000E+00
  0.00000000E+00  0.00000000E+00  0.00000000E+00
  0.00000000E+00  0.00000000E+00  0.00000000E+00
  0.00000000E+00  0.00000000E+00  0.00000000E+00
  0.00000000E+00  0.00000000E+00  0.00000000E+00
  0.00000000E+00  0.00000000E+00  0.00000000E+00
  0.00000000E+00  0.00000000E+00  0.00000000E+00
