SrTiFeO                                 
   1.00000000000000     
    11.1989999999999998    0.0000000000000000    0.0000000000000000
     0.0000000000000000   11.1989999999999998    0.0000000000000000
     0.0000000000000000    0.0000000000000000   15.9830000000000005
   Sr   Ti   O 
    32    32    95
Direct
  0.9996569106253020  0.2504579729825131  0.1246383215066599
  0.0032788339998956  0.2501611221410039  0.6266961716848628
  0.9997652090120362  0.7497652090120362  0.1249590017231652
  0.9999574384356112  0.7499574384356112  0.6261937330843156
  0.5003991104593838  0.2503991104593838  0.1243939470826833
  0.4960234889030147  0.2460234889030147  0.6276938423956155
  0.5004579729825132  0.7496569106253020  0.1246383215066599
  0.5001611221410038  0.7532788339998957  0.6266961716848628
  0.0032788339998956  0.2501611221410039  0.3733038283151373
  0.9996569106253020  0.2504579729825131  0.8753616784933400
  0.9999574384356112  0.7499574384356112  0.3738062669156844
  0.9997652090120362  0.7497652090120362  0.8750409982768348
  0.4960234889030147  0.2460234889030147  0.3723061576043845
  0.5003991104593838  0.2503991104593838  0.8756060529173167
  0.5001611221410038  0.7532788339998957  0.3733038283151373
  0.5004579729825132  0.7496569106253020  0.8753616784933400
  0.2497988125747081  0.9997988125747080  0.1249051358907709
  0.2497684924489756  0.9997684924489756  0.6254695261783291
  0.2506185921911780  0.5002044056495893  0.1250581051106214
  0.2479002863288255  0.4984684416410134  0.6254665552049560
  0.7502044056495893  0.0006185921911780  0.1250581051106214
  0.7484684416410134  0.9979002863288254  0.6254665552049560
  0.7505760008469555  0.5005760008469555  0.1237110856584736
  0.7515636025493792  0.5015636025493792  0.6282644348734692
  0.2497684924489756  0.9997684924489756  0.3745304738216709
  0.2497988125747081  0.9997988125747080  0.8750948641092291
  0.2479002863288255  0.4984684416410134  0.3745334447950441
  0.2506185921911780  0.5002044056495893  0.8749418948893786
  0.7484684416410134  0.9979002863288254  0.3745334447950441
  0.7502044056495893  0.0006185921911780  0.8749418948893786
  0.7515636025493792  0.5015636025493792  0.3717355651265308
  0.7505760008469555  0.5005760008469555  0.8762889143415263
  0.9997404306489839  0.0001212503638064  0.0000000000000000
  0.0010353842913316  0.9979891156055976  0.5000000000000000
  0.0003836965469144  0.4999291114846066  0.0000000000000000
  0.9991273555685555  0.5007366108365635  0.5000000000000000
  0.4997190212863645  0.9999936769175862  0.0000000000000000
  0.4989336005216420  0.9996519222510113  0.5000000000000000
  0.4995696425367636  0.5004454394259725  0.0000000000000000
  0.2499936769175863  0.2497190212863645  0.0000000000000000
  0.2496519222510112  0.2489336005216420  0.5000000000000000
  0.2501212503638064  0.7497404306489839  0.0000000000000000
  0.2479891156055975  0.7510353842913317  0.5000000000000000
  0.7504454394259725  0.2495696425367636  0.0000000000000000
  0.7499291114846066  0.7503836965469073  0.0000000000000000
  0.2498553856569876  0.2498431157623200  0.2493557547062908
  0.2498553856569876  0.2498431157623200  0.7506442452937092
  0.2501053004533631  0.7496744292510845  0.2500888223842054
  0.2501053004533631  0.7496744292510845  0.7499111776157946
  0.7492452247417948  0.2506300857341154  0.2499567223788462
  0.7492452247417948  0.2506300857341154  0.7500432776211537
  0.7499106861337943  0.7501007663705399  0.2497325969504528
  0.7499106861337943  0.7501007663705399  0.7502674030495472
  0.9996744292510845  0.0001053004533631  0.2500888223842054
  0.9996744292510845  0.0001053004533631  0.7499111776157946
  0.0001007663705399  0.4999106861337942  0.2497325969504528
  0.0001007663705399  0.4999106861337942  0.7502674030495472
  0.4998431157623201  0.9998553856569876  0.2493557547062908
  0.4998431157623201  0.9998553856569876  0.7506442452937092
  0.5006300857341155  0.4992452247417948  0.2499567223788462
  0.5006300857341155  0.4992452247417948  0.7500432776211537
  0.7566612541569785  0.2464768032146762  0.5000000000000000
  0.4964768032146762  0.5066612541569785  0.5000000000000000
  0.7507366108365635  0.7491273555685555  0.5000000000000000
  0.1092619635196582  0.1405105601242489  0.2497882610126760
  0.1092619635196582  0.1405105601242489  0.7502117389873240
  0.1100785604877441  0.6400044076467424  0.2501826628377897
  0.1100785604877441  0.6400044076467424  0.7498173371622103
  0.6089969684457915  0.1408794936200644  0.2497905145839424
  0.6089969684457915  0.1408794936200644  0.7502094854160576
  0.6093270041522690  0.6404684038209408  0.2513213321424079
  0.6093270041522690  0.6404684038209408  0.7486786678575922
  0.3908794936200644  0.3589969684457915  0.2497905145839424
  0.3908794936200644  0.3589969684457915  0.7502094854160576
  0.3905105601242490  0.8592619635196581  0.2497882610126760
  0.3905105601242490  0.8592619635196581  0.7502117389873240
  0.8904684038209408  0.3593270041522691  0.2513213321424079
  0.8904684038209408  0.3593270041522691  0.7486786678575922
  0.8900044076467424  0.8600785604877441  0.2501826628377897
  0.8900044076467424  0.8600785604877441  0.7498173371622103
  0.3594262571257529  0.1094262571257529  0.2512166852566761
  0.3594262571257529  0.1094262571257529  0.7487833147433239
  0.3605099322480919  0.6086440724800486  0.2541767634769374
  0.3605099322480919  0.6086440724800486  0.7458232365230626
  0.8586440724800486  0.1105099322480918  0.2541767634769374
  0.8586440724800486  0.1105099322480918  0.7458232365230626
  0.8602105395651659  0.6102105395651659  0.2495247691113244
  0.8602105395651659  0.6102105395651659  0.7504752308886756
  0.1406109477605940  0.3903612160527206  0.2500961047179718
  0.1406109477605940  0.3903612160527206  0.7499038952820282
  0.1401916315573440  0.8901916315573440  0.2496817407862478
  0.1401916315573440  0.8901916315573440  0.7503182592137522
  0.6412101229964005  0.3912101229964006  0.2455069000956001
  0.6412101229964005  0.3912101229964006  0.7544930999043998
  0.6403612160527207  0.8906109477605940  0.2500961047179718
  0.6403612160527207  0.8906109477605940  0.7499038952820282
  0.3595063592870497  0.3905444815252454  0.0000000000000000
  0.3589193562555934  0.8905940689836238  0.0000000000000000
  0.3588233828434310  0.8908106611331413  0.5000000000000000
  0.8594784792463076  0.3903782970685449  0.0000000000000000
  0.8591665567183913  0.8906696679962237  0.0000000000000000
  0.8578887061775806  0.8929727055898461  0.5000000000000000
  0.1405940689836237  0.1089193562555934  0.0000000000000000
  0.1408106611331413  0.1088233828434310  0.5000000000000000
  0.1406696679962237  0.6091665567183913  0.0000000000000000
  0.1429727055898462  0.6078887061775806  0.5000000000000000
  0.6405444815252453  0.1095063592870496  0.0000000000000000
  0.6361115971418636  0.1174312045734587  0.5000000000000000
  0.6403782970685450  0.6094784792463076  0.0000000000000000
  0.1094544782807272  0.3591109591350292  0.0000000000000000
  0.1096933115169816  0.3597965025940886  0.5000000000000000
  0.1092879099548752  0.8592879099548753  0.0000000000000000
  0.1080983562990367  0.8580983562990366  0.5000000000000000
  0.6098412906825071  0.3598412906825071  0.0000000000000000
  0.6091109591350291  0.8594544782807273  0.0000000000000000
  0.6097965025940886  0.8596933115169816  0.5000000000000000
  0.3906361255605033  0.1406361255605033  0.0000000000000000
  0.3889913383105488  0.1389913383105488  0.5000000000000000
  0.3906316157115320  0.6409502960664689  0.0000000000000000
  0.8909502960664689  0.1406316157115319  0.0000000000000000
  0.8928628275042264  0.1430905158853258  0.5000000000000000
  0.8905293884684666  0.6405293884684666  0.0000000000000000
  0.9981400560166566  0.0010101660867286  0.1254181915962265
  0.0009592476041933  0.9996473969483252  0.6244564687630177
  0.9998406126049768  0.4993891609509286  0.1250914544631049
  0.0004206223895365  0.5000109827645194  0.6247423481037037
  0.4993903069536982  0.0002320909142356  0.1250246997453142
  0.5007080734410410  0.9991921186747243  0.6249428088281344
  0.4979682762065969  0.5020232505807930  0.1252247525544110
  0.5085510944951381  0.4898605174051099  0.6229602741287723
  0.0009592476041933  0.9996473969483252  0.3755435312369821
  0.9981400560166566  0.0010101660867286  0.8745818084037734
  0.0004206223895365  0.5000109827645194  0.3752576518962964
  0.9998406126049768  0.4993891609509286  0.8749085455368951
  0.5007080734410410  0.9991921186747243  0.3750571911718656
  0.4993903069536982  0.0002320909142356  0.8749753002546928
  0.4979682762065969  0.5020232505807930  0.8747752474455890
  0.2491921186747242  0.2507080734410410  0.3750571911718656
  0.2502320909142356  0.2493903069536982  0.8749753002546928
  0.2496473969483252  0.7509592476041933  0.3755435312369821
  0.2510101660867286  0.7481400560166566  0.8745818084037734
  0.7520232505807930  0.2479682762065969  0.8747752474455890
  0.7493891609509216  0.7498406126049768  0.8749085455368951
  0.2502320909142356  0.2493903069536982  0.1250246997453142
  0.2491921186747242  0.2507080734410410  0.6249428088281344
  0.2510101660867286  0.7481400560166566  0.1254181915962265
  0.2496473969483252  0.7509592476041933  0.6244564687630177
  0.7520232505807930  0.2479682762065969  0.1252247525544110
  0.7398605174051098  0.2585510944951382  0.6229602741287723
  0.7493891609509216  0.7498406126049768  0.1250914544631049
  0.7500109827645193  0.7504206223895364  0.6247423481037037
  0.7398605174051098  0.2585510944951382  0.3770397258712277
  0.8533283307944839  0.3949416126024711  0.5000000000000000
  0.3930905158853258  0.6428628275042264  0.5000000000000000
  0.5085510944951381  0.4898605174051099  0.3770397258712277
  0.3674312045734587  0.3861115971418637  0.5000000000000000
  0.8939457593667913  0.6439457593667913  0.5000000000000000
  0.7500109827645193  0.7504206223895364  0.3752576518962964
  0.6449416126024711  0.6033283307944839  0.5000000000000000
 
  0.00000000E+00  0.00000000E+00  0.00000000E+00
  0.00000000E+00  0.00000000E+00  0.00000000E+00
  0.00000000E+00  0.00000000E+00  0.00000000E+00
  0.00000000E+00  0.00000000E+00  0.00000000E+00
  0.00000000E+00  0.00000000E+00  0.00000000E+00
  0.00000000E+00  0.00000000E+00  0.00000000E+00
  0.00000000E+00  0.00000000E+00  0.00000000E+00
  0.00000000E+00  0.00000000E+00  0.00000000E+00
  0.00000000E+00  0.00000000E+00  0.00000000E+00
  0.00000000E+00  0.00000000E+00  0.00000000E+00
  0.00000000E+00  0.00000000E+00  0.00000000E+00
  0.00000000E+00  0.00000000E+00  0.00000000E+00
  0.00000000E+00  0.00000000E+00  0.00000000E+00
  0.00000000E+00  0.00000000E+00  0.00000000E+00
  0.00000000E+00  0.00000000E+00  0.00000000E+00
  0.00000000E+00  0.00000000E+00  0.00000000E+00
  0.00000000E+00  0.00000000E+00  0.00000000E+00
  0.00000000E+00  0.00000000E+00  0.00000000E+00
  0.00000000E+00  0.00000000E+00  0.00000000E+00
  0.00000000E+00  0.00000000E+00  0.00000000E+00
  0.00000000E+00  0.00000000E+00  0.00000000E+00
  0.00000000E+00  0.00000000E+00  0.00000000E+00
  0.00000000E+00  0.00000000E+00  0.00000000E+00
  0.00000000E+00  0.00000000E+00  0.00000000E+00
  0.00000000E+00  0.00000000E+00  0.00000000E+00
  0.00000000E+00  0.00000000E+00  0.00000000E+00
  0.00000000E+00  0.00000000E+00  0.00000000E+00
  0.00000000E+00  0.00000000E+00  0.00000000E+00
  0.00000000E+00  0.00000000E+00  0.00000000E+00
  0.00000000E+00  0.00000000E+00  0.00000000E+00
  0.00000000E+00  0.00000000E+00  0.00000000E+00
  0.00000000E+00  0.00000000E+00  0.00000000E+00
  0.00000000E+00  0.00000000E+00  0.00000000E+00
  0.00000000E+00  0.00000000E+00  0.00000000E+00
  0.00000000E+00  0.00000000E+00  0.00000000E+00
  0.00000000E+00  0.00000000E+00  0.00000000E+00
  0.00000000E+00  0.00000000E+00  0.00000000E+00
  0.00000000E+00  0.00000000E+00  0.00000000E+00
  0.00000000E+00  0.00000000E+00  0.00000000E+00
  0.00000000E+00  0.00000000E+00  0.00000000E+00
  0.00000000E+00  0.00000000E+00  0.00000000E+00
  0.00000000E+00  0.00000000E+00  0.00000000E+00
  0.00000000E+00  0.00000000E+00  0.00000000E+00
  0.00000000E+00  0.00000000E+00  0.00000000E+00
  0.00000000E+00  0.00000000E+00  0.00000000E+00
  0.00000000E+00  0.00000000E+00  0.00000000E+00
  0.00000000E+00  0.00000000E+00  0.00000000E+00
  0.00000000E+00  0.00000000E+00  0.00000000E+00
  0.00000000E+00  0.00000000E+00  0.00000000E+00
  0.00000000E+00  0.00000000E+00  0.00000000E+00
  0.00000000E+00  0.00000000E+00  0.00000000E+00
  0.00000000E+00  0.00000000E+00  0.00000000E+00
  0.00000000E+00  0.00000000E+00  0.00000000E+00
  0.00000000E+00  0.00000000E+00  0.00000000E+00
  0.00000000E+00  0.00000000E+00  0.00000000E+00
  0.00000000E+00  0.00000000E+00  0.00000000E+00
  0.00000000E+00  0.00000000E+00  0.00000000E+00
  0.00000000E+00  0.00000000E+00  0.00000000E+00
  0.00000000E+00  0.00000000E+00  0.00000000E+00
  0.00000000E+00  0.00000000E+00  0.00000000E+00
  0.00000000E+00  0.00000000E+00  0.00000000E+00
  0.00000000E+00  0.00000000E+00  0.00000000E+00
  0.00000000E+00  0.00000000E+00  0.00000000E+00
  0.00000000E+00  0.00000000E+00  0.00000000E+00
  0.00000000E+00  0.00000000E+00  0.00000000E+00
  0.00000000E+00  0.00000000E+00  0.00000000E+00
  0.00000000E+00  0.00000000E+00  0.00000000E+00
  0.00000000E+00  0.00000000E+00  0.00000000E+00
  0.00000000E+00  0.00000000E+00  0.00000000E+00
  0.00000000E+00  0.00000000E+00  0.00000000E+00
  0.00000000E+00  0.00000000E+00  0.00000000E+00
  0.00000000E+00  0.00000000E+00  0.00000000E+00
  0.00000000E+00  0.00000000E+00  0.00000000E+00
  0.00000000E+00  0.00000000E+00  0.00000000E+00
  0.00000000E+00  0.00000000E+00  0.00000000E+00
  0.00000000E+00  0.00000000E+00  0.00000000E+00
  0.00000000E+00  0.00000000E+00  0.00000000E+00
  0.00000000E+00  0.00000000E+00  0.00000000E+00
  0.00000000E+00  0.00000000E+00  0.00000000E+00
  0.00000000E+00  0.00000000E+00  0.00000000E+00
  0.00000000E+00  0.00000000E+00  0.00000000E+00
  0.00000000E+00  0.00000000E+00  0.00000000E+00
  0.00000000E+00  0.00000000E+00  0.00000000E+00
  0.00000000E+00  0.00000000E+00  0.00000000E+00
  0.00000000E+00  0.00000000E+00  0.00000000E+00
  0.00000000E+00  0.00000000E+00  0.00000000E+00
  0.00000000E+00  0.00000000E+00  0.00000000E+00
  0.00000000E+00  0.00000000E+00  0.00000000E+00
  0.00000000E+00  0.00000000E+00  0.00000000E+00
  0.00000000E+00  0.00000000E+00  0.00000000E+00
  0.00000000E+00  0.00000000E+00  0.00000000E+00
  0.00000000E+00  0.00000000E+00  0.00000000E+00
  0.00000000E+00  0.00000000E+00  0.00000000E+00
  0.00000000E+00  0.00000000E+00  0.00000000E+00
  0.00000000E+00  0.00000000E+00  0.00000000E+00
  0.00000000E+00  0.00000000E+00  0.00000000E+00
  0.00000000E+00  0.00000000E+00  0.00000000E+00
  0.00000000E+00  0.00000000E+00  0.00000000E+00
  0.00000000E+00  0.00000000E+00  0.00000000E+00
  0.00000000E+00  0.00000000E+00  0.00000000E+00
  0.00000000E+00  0.00000000E+00  0.00000000E+00
  0.00000000E+00  0.00000000E+00  0.00000000E+00
  0.00000000E+00  0.00000000E+00  0.00000000E+00
  0.00000000E+00  0.00000000E+00  0.00000000E+00
  0.00000000E+00  0.00000000E+00  0.00000000E+00
  0.00000000E+00  0.00000000E+00  0.00000000E+00
  0.00000000E+00  0.00000000E+00  0.00000000E+00
  0.00000000E+00  0.00000000E+00  0.00000000E+00
  0.00000000E+00  0.00000000E+00  0.00000000E+00
  0.00000000E+00  0.00000000E+00  0.00000000E+00
  0.00000000E+00  0.00000000E+00  0.00000000E+00
  0.00000000E+00  0.00000000E+00  0.00000000E+00
  0.00000000E+00  0.00000000E+00  0.00000000E+00
  0.00000000E+00  0.00000000E+00  0.00000000E+00
  0.00000000E+00  0.00000000E+00  0.00000000E+00
  0.00000000E+00  0.00000000E+00  0.00000000E+00
  0.00000000E+00  0.00000000E+00  0.00000000E+00
  0.00000000E+00  0.00000000E+00  0.00000000E+00
  0.00000000E+00  0.00000000E+00  0.00000000E+00
  0.00000000E+00  0.00000000E+00  0.00000000E+00
  0.00000000E+00  0.00000000E+00  0.00000000E+00
  0.00000000E+00  0.00000000E+00  0.00000000E+00
  0.00000000E+00  0.00000000E+00  0.00000000E+00
  0.00000000E+00  0.00000000E+00  0.00000000E+00
  0.00000000E+00  0.00000000E+00  0.00000000E+00
  0.00000000E+00  0.00000000E+00  0.00000000E+00
  0.00000000E+00  0.00000000E+00  0.00000000E+00
  0.00000000E+00  0.00000000E+00  0.00000000E+00
  0.00000000E+00  0.00000000E+00  0.00000000E+00
  0.00000000E+00  0.00000000E+00  0.00000000E+00
  0.00000000E+00  0.00000000E+00  0.00000000E+00
  0.00000000E+00  0.00000000E+00  0.00000000E+00
  0.00000000E+00  0.00000000E+00  0.00000000E+00
  0.00000000E+00  0.00000000E+00  0.00000000E+00
  0.00000000E+00  0.00000000E+00  0.00000000E+00
  0.00000000E+00  0.00000000E+00  0.00000000E+00
  0.00000000E+00  0.00000000E+00  0.00000000E+00
  0.00000000E+00  0.00000000E+00  0.00000000E+00
  0.00000000E+00  0.00000000E+00  0.00000000E+00
  0.00000000E+00  0.00000000E+00  0.00000000E+00
  0.00000000E+00  0.00000000E+00  0.00000000E+00
  0.00000000E+00  0.00000000E+00  0.00000000E+00
  0.00000000E+00  0.00000000E+00  0.00000000E+00
  0.00000000E+00  0.00000000E+00  0.00000000E+00
  0.00000000E+00  0.00000000E+00  0.00000000E+00
  0.00000000E+00  0.00000000E+00  0.00000000E+00
  0.00000000E+00  0.00000000E+00  0.00000000E+00
  0.00000000E+00  0.00000000E+00  0.00000000E+00
  0.00000000E+00  0.00000000E+00  0.00000000E+00
  0.00000000E+00  0.00000000E+00  0.00000000E+00
  0.00000000E+00  0.00000000E+00  0.00000000E+00
  0.00000000E+00  0.00000000E+00  0.00000000E+00
  0.00000000E+00  0.00000000E+00  0.00000000E+00
  0.00000000E+00  0.00000000E+00  0.00000000E+00
  0.00000000E+00  0.00000000E+00  0.00000000E+00
  0.00000000E+00  0.00000000E+00  0.00000000E+00
  0.00000000E+00  0.00000000E+00  0.00000000E+00
  0.00000000E+00  0.00000000E+00  0.00000000E+00
  0.00000000E+00  0.00000000E+00  0.00000000E+00
