Sr   Ti   Fe   O                        
   1.00000000000000     
    11.1989999999999998    0.0000000000000000    0.0000000000000000
     0.0000000000000000   11.1989999999999998    0.0000000000000000
     0.0000000000000000    0.0000000000000000   15.9830000000000005
   Sr   Ti   Fe   O 
    32    31     1    94
Direct
  0.9987662240672028  0.2504119710426602  0.1244581506002544
  0.0051941108247877  0.2506543149209533  0.6257720398917729
  0.9983555941830071  0.7506596615203466  0.1256651310668137
  0.9969495596425764  0.7480910038235463  0.6244700580570505
  0.4998827325997592  0.2490480284542827  0.1237673118846413
  0.4951906826456269  0.2400997843196836  0.6308673497164732
  0.5006286969013974  0.7513188223754745  0.1236843396229479
  0.4998418205885602  0.7598992024715109  0.6295496768543051
  0.0040916695294751  0.2490441575600220  0.3735800408198185
  0.9988913027885127  0.2501752243528091  0.8750877869085387
  0.9983025356978847  0.7488778020690948  0.3752068569434802
  0.9983092752374955  0.7507508680526962  0.8746596227427761
  0.4974444069287159  0.2380360183534650  0.3723828274600109
  0.5001213375498846  0.2493536738498196  0.8766396691214665
  0.5030752928414902  0.7635920084741784  0.3700135682831645
  0.4991032160885388  0.7508302081418397  0.8765370011955855
  0.2489243259227585  0.9991717972031859  0.1249610794905317
  0.2494544558056899  0.9989660781736298  0.6261571167635381
  0.2487048203521469  0.5013275210262014  0.1233681547583439
  0.2412860177377111  0.4996976020641981  0.6322921296780748
  0.7501469534672331  0.9998684960308626  0.1256153118985417
  0.7478565500017667  0.9947257615383769  0.6237272201613567
  0.7502834042313637  0.5006007127818389  0.1232738117048116
  0.7571998908411121  0.4988520949138157  0.6256100892967347
  0.2491702724630204  0.9993536929607141  0.3739227569174573
  0.2483632019960434  0.9991805502560640  0.8753365536568012
  0.2410325183384207  0.4975786647326852  0.3714651211516627
  0.2487427040434881  0.5004551990725854  0.8769447687741769
  0.7491797813170166  0.9949161831228437  0.3762599784623325
  0.7500567640757623  0.9999554142538724  0.8741678340321306
  0.7682518542009417  0.4985264664120936  0.3680522378284727
  0.7498673540863017  0.5008902347778696  0.8758824645539171
  0.9988448134599172  0.0001851998326367  0.0001975275086240
  0.0013166747204322  0.9940146907887373  0.5004181682827390
  0.9996583161839829  0.5001366425766848  0.9997400571723049
  0.0030119387787266  0.5012682164069457  0.5001558809110925
  0.4998779441413878  0.0002216595414058  0.9999240937153318
  0.4992844424862113  0.9988282782727232  0.5003835950282050
  0.4995958762252505  0.5000825432721032  0.9997077980436511
  0.2498872502448492  0.2499179567190794  0.0003908765130279
  0.2487420744993079  0.2446689860514269  0.4994712103213871
  0.2493635930535512  0.7503002908286528  0.0001253155218688
  0.2503077380799421  0.7516035121108631  0.4995416678612871
  0.7500919015447205  0.2499423530196877  0.9998882887150616
  0.7496139017052486  0.7505691032614710  0.9999098726230092
  0.2496816351488660  0.2492043358669621  0.2496236599277296
  0.2499729299969280  0.2499490839936458  0.7519116339165032
  0.2497106036087893  0.7501305627070608  0.2500770031216049
  0.2490913830508190  0.7497844833997005  0.7506970377450638
  0.7487829784896539  0.2504731983251809  0.2505331893829018
  0.7485286096448923  0.2513020600016602  0.7496805013806338
  0.7490659070125748  0.7486183373091462  0.2517454456077922
  0.7480052216255196  0.7480246525116667  0.7483142901566481
  0.9989662700054104  0.9999178826322445  0.2501706728347269
  0.9987007098978395  0.9999455433565243  0.7486711457344578
  0.0016469749683181  0.4999234730269684  0.2476133129279438
  0.9988174344790636  0.4998021628507091  0.7510403802579713
  0.5000046891584247  0.0005170699059485  0.2481212259763118
  0.4995151193518412  0.9999055738304240  0.7517816665497220
  0.4992719523261244  0.4999211422115158  0.2465214502539096
  0.4988217336134063  0.5003853873346054  0.7546291421260115
  0.7629403383185368  0.2447153339281510  0.4998554693840936
  0.4834938832249772  0.5054644363509047  0.5099310674090514
  0.7540572708352100  0.7514397631405452  0.4997218197927715
  0.1096530451729471  0.1403407960374688  0.2462053780235036
  0.1100314869591334  0.1406137206851138  0.7496973128702273
  0.1112617252840675  0.6391583417407889  0.2491541652788818
  0.1090992364899923  0.6398042230356299  0.7488148315965565
  0.6097069002012857  0.1402735269596177  0.2486903542750651
  0.6090220540926515  0.1407412376899850  0.7507841967492169
  0.6083502746323455  0.6387490972751916  0.2523133189998748
  0.6058687043371302  0.6402186501938368  0.7535023396083801
  0.3902021939974989  0.3619565902717529  0.2589989286417512
  0.3902047703648505  0.3589026519774619  0.7524952162943355
  0.3890738969933497  0.8614749023917904  0.2486888912022793
  0.3890895630549240  0.8605683789889024  0.7517356804663065
  0.8893543266160425  0.3610823662218191  0.2520524432224171
  0.8895499573998049  0.3596146406914612  0.7475411039723673
  0.8884029005661054  0.8612318783764508  0.2527089549786508
  0.8876167720054108  0.8599243785832806  0.7462065066521345
  0.3607933591305296  0.1113610479454400  0.2491911729698275
  0.3594190649977071  0.1104259884053837  0.7496622208885262
  0.3611344055926322  0.6092688818370081  0.2564310423175088
  0.3576486067667130  0.6085857183638976  0.7527654195676795
  0.8587232100082857  0.1113129255028057  0.2545980075045932
  0.8578972258471127  0.1112277045653703  0.7438448492466477
  0.8631050329000279  0.6115708398117089  0.2453705261826145
  0.8596294054557913  0.6092217502319337  0.7511393727896172
  0.1404477808114886  0.3892341545329013  0.2479481972482860
  0.1396621026846508  0.3894323932819674  0.7527968311141288
  0.1389035714998261  0.8897267586425541  0.2483954956879882
  0.1388309735145471  0.8894181145491779  0.7498561916313905
  0.6380188009575383  0.3909657358946723  0.2549557962721446
  0.6391297974590057  0.3922514432675795  0.7516687838344824
  0.6387675238685636  0.8899252997093963  0.2510376642314350
  0.6387275988341026  0.8899529077450794  0.7492608213916384
  0.3588815977187842  0.3906312521518382  0.9995573654410089
  0.3590653800912803  0.8908517091321801  0.0000239102772550
  0.3554704282534403  0.8944718168696898  0.4999985168120873
  0.8591738837845785  0.3907082022070347  0.9999106091409832
  0.8586549587329558  0.8910764651699321 -0.0000295024483539
  0.8633623201537624  0.8985749549230521  0.5003902129553620
  0.1403788079116614  0.1092997631075830  0.0012951114782483
  0.1416190847492896  0.1095396041780240  0.5024038114579213
  0.1400389876006081  0.6092359903683067  0.0001235610684438
  0.1515503387140190  0.6055574459455684  0.5008943503644449
  0.6406865696064425  0.1096397444442007  0.0002171879162104
  0.6327833427368488  0.1252006721885527  0.5001232868201495
  0.6402142544976880  0.6094666112571687  0.9994919674166459
  0.1095106302071539  0.3588769079965954  0.9997499246332210
  0.1189420365428540  0.3611041150536337  0.4991630513812246
  0.1086663392865911  0.8599954240141400  0.0007994334601298
  0.1089242294469519  0.8549270075095932  0.5013053877004384
  0.6094389682047648  0.3592637120178691  0.9995267151575761
  0.6086254079218670  0.8596341839791302  0.9995261848714192
  0.6050149120559399  0.8666013747241874  0.5001507610094332
  0.3907603517141898  0.1407748810612136  0.0003355542064772
  0.3880435612215093  0.1400313892268039  0.5008448826060570
  0.3903376202232187  0.6405744066726268  0.9997998822964020
  0.8904893672615279  0.1412028945257261  0.0005525336416923
  0.8917559401864358  0.1405561710198848  0.5015476688484979
  0.8903069286829638  0.6406201667746746  0.0007821006687427
  0.9954992795420090  0.0000244221991783  0.1254880441942726
  0.0040145029383612  0.0003892566085518  0.6248699909927681
  0.0010014089334233  0.4976466285077950  0.1242241190880622
  0.0041678669277730  0.4978527494746986  0.6259428184379082
  0.5003312581504379  0.0000324204279143  0.1245136351450283
  0.4984101124051043  0.0015897349990005  0.6263058641542023
  0.4995845894792549  0.4989574746933017  0.1233964137196443
  0.4913834332209577  0.5002611688576072  0.6266120973501969
  0.0055248325718562  0.0023288512441306  0.3754363682284101
  0.9967722847292138  0.0009985862129033  0.8740244092895559
  0.0052025105018382  0.5000370238264340  0.3735118155529657
  0.9989247831132146  0.4995771562001114  0.8751438594531454
  0.4985577016605982  0.0025841221193659  0.3739630971420543
  0.4997607107404661  0.0009373700437845  0.8753544894868546
  0.4984852205491146  0.4990725084847913  0.8760758198437857
  0.2443548123483481  0.2438200052460905  0.3739016057262507
  0.2499685753801780  0.2480624684715203  0.8757758487668533
  0.2476853048670064  0.7525946409761354  0.3752654356728639
  0.2479724676206742  0.7504246121663957  0.8753523982476517
  0.7520182742132188  0.2490471372091597  0.8740105671670325
  0.7507180675562196  0.7508973247974663  0.8750044958010212
  0.2549215804606556  0.2529278606136667  0.1252986083834003
  0.2538727537312269  0.2564583875409016  0.6249719289306567
  0.2521033552212590  0.7474662459413550  0.1255117846555326
  0.2560380782317212  0.7474333916631696  0.6243872010366899
  0.7498023001591718  0.2521024985568549  0.1262302652429476
  0.7362672705447267  0.2631572082160064  0.6210237741181602
  0.7472377263202773  0.7508434564643202  0.1247869239699020
  0.7395220191041129  0.7381617533889504  0.6260632653339129
  0.7423413008617861  0.2563379312508547  0.3783956883950966
  0.8697916327933187  0.3834447654874620  0.4998351923230807
  0.4088289352260197  0.6530613865365499  0.4918133639769297
  0.3781732818053003  0.3814443058903875  0.4848651887865573
  0.8979309892397757  0.6332800806593089  0.5002108512101576
  0.7464609061551352  0.7417754760524801  0.3734483216043543
  0.6414205141234863  0.4889940606020098  0.4871154366785739
 
  0.00000000E+00  0.00000000E+00  0.00000000E+00
  0.00000000E+00  0.00000000E+00  0.00000000E+00
  0.00000000E+00  0.00000000E+00  0.00000000E+00
  0.00000000E+00  0.00000000E+00  0.00000000E+00
  0.00000000E+00  0.00000000E+00  0.00000000E+00
  0.00000000E+00  0.00000000E+00  0.00000000E+00
  0.00000000E+00  0.00000000E+00  0.00000000E+00
  0.00000000E+00  0.00000000E+00  0.00000000E+00
  0.00000000E+00  0.00000000E+00  0.00000000E+00
  0.00000000E+00  0.00000000E+00  0.00000000E+00
  0.00000000E+00  0.00000000E+00  0.00000000E+00
  0.00000000E+00  0.00000000E+00  0.00000000E+00
  0.00000000E+00  0.00000000E+00  0.00000000E+00
  0.00000000E+00  0.00000000E+00  0.00000000E+00
  0.00000000E+00  0.00000000E+00  0.00000000E+00
  0.00000000E+00  0.00000000E+00  0.00000000E+00
  0.00000000E+00  0.00000000E+00  0.00000000E+00
  0.00000000E+00  0.00000000E+00  0.00000000E+00
  0.00000000E+00  0.00000000E+00  0.00000000E+00
  0.00000000E+00  0.00000000E+00  0.00000000E+00
  0.00000000E+00  0.00000000E+00  0.00000000E+00
  0.00000000E+00  0.00000000E+00  0.00000000E+00
  0.00000000E+00  0.00000000E+00  0.00000000E+00
  0.00000000E+00  0.00000000E+00  0.00000000E+00
  0.00000000E+00  0.00000000E+00  0.00000000E+00
  0.00000000E+00  0.00000000E+00  0.00000000E+00
  0.00000000E+00  0.00000000E+00  0.00000000E+00
  0.00000000E+00  0.00000000E+00  0.00000000E+00
  0.00000000E+00  0.00000000E+00  0.00000000E+00
  0.00000000E+00  0.00000000E+00  0.00000000E+00
  0.00000000E+00  0.00000000E+00  0.00000000E+00
  0.00000000E+00  0.00000000E+00  0.00000000E+00
  0.00000000E+00  0.00000000E+00  0.00000000E+00
  0.00000000E+00  0.00000000E+00  0.00000000E+00
  0.00000000E+00  0.00000000E+00  0.00000000E+00
  0.00000000E+00  0.00000000E+00  0.00000000E+00
  0.00000000E+00  0.00000000E+00  0.00000000E+00
  0.00000000E+00  0.00000000E+00  0.00000000E+00
  0.00000000E+00  0.00000000E+00  0.00000000E+00
  0.00000000E+00  0.00000000E+00  0.00000000E+00
  0.00000000E+00  0.00000000E+00  0.00000000E+00
  0.00000000E+00  0.00000000E+00  0.00000000E+00
  0.00000000E+00  0.00000000E+00  0.00000000E+00
  0.00000000E+00  0.00000000E+00  0.00000000E+00
  0.00000000E+00  0.00000000E+00  0.00000000E+00
  0.00000000E+00  0.00000000E+00  0.00000000E+00
  0.00000000E+00  0.00000000E+00  0.00000000E+00
  0.00000000E+00  0.00000000E+00  0.00000000E+00
  0.00000000E+00  0.00000000E+00  0.00000000E+00
  0.00000000E+00  0.00000000E+00  0.00000000E+00
  0.00000000E+00  0.00000000E+00  0.00000000E+00
  0.00000000E+00  0.00000000E+00  0.00000000E+00
  0.00000000E+00  0.00000000E+00  0.00000000E+00
  0.00000000E+00  0.00000000E+00  0.00000000E+00
  0.00000000E+00  0.00000000E+00  0.00000000E+00
  0.00000000E+00  0.00000000E+00  0.00000000E+00
  0.00000000E+00  0.00000000E+00  0.00000000E+00
  0.00000000E+00  0.00000000E+00  0.00000000E+00
  0.00000000E+00  0.00000000E+00  0.00000000E+00
  0.00000000E+00  0.00000000E+00  0.00000000E+00
  0.00000000E+00  0.00000000E+00  0.00000000E+00
  0.00000000E+00  0.00000000E+00  0.00000000E+00
  0.00000000E+00  0.00000000E+00  0.00000000E+00
  0.00000000E+00  0.00000000E+00  0.00000000E+00
  0.00000000E+00  0.00000000E+00  0.00000000E+00
  0.00000000E+00  0.00000000E+00  0.00000000E+00
  0.00000000E+00  0.00000000E+00  0.00000000E+00
  0.00000000E+00  0.00000000E+00  0.00000000E+00
  0.00000000E+00  0.00000000E+00  0.00000000E+00
  0.00000000E+00  0.00000000E+00  0.00000000E+00
  0.00000000E+00  0.00000000E+00  0.00000000E+00
  0.00000000E+00  0.00000000E+00  0.00000000E+00
  0.00000000E+00  0.00000000E+00  0.00000000E+00
  0.00000000E+00  0.00000000E+00  0.00000000E+00
  0.00000000E+00  0.00000000E+00  0.00000000E+00
  0.00000000E+00  0.00000000E+00  0.00000000E+00
  0.00000000E+00  0.00000000E+00  0.00000000E+00
  0.00000000E+00  0.00000000E+00  0.00000000E+00
  0.00000000E+00  0.00000000E+00  0.00000000E+00
  0.00000000E+00  0.00000000E+00  0.00000000E+00
  0.00000000E+00  0.00000000E+00  0.00000000E+00
  0.00000000E+00  0.00000000E+00  0.00000000E+00
  0.00000000E+00  0.00000000E+00  0.00000000E+00
  0.00000000E+00  0.00000000E+00  0.00000000E+00
  0.00000000E+00  0.00000000E+00  0.00000000E+00
  0.00000000E+00  0.00000000E+00  0.00000000E+00
  0.00000000E+00  0.00000000E+00  0.00000000E+00
  0.00000000E+00  0.00000000E+00  0.00000000E+00
  0.00000000E+00  0.00000000E+00  0.00000000E+00
  0.00000000E+00  0.00000000E+00  0.00000000E+00
  0.00000000E+00  0.00000000E+00  0.00000000E+00
  0.00000000E+00  0.00000000E+00  0.00000000E+00
  0.00000000E+00  0.00000000E+00  0.00000000E+00
  0.00000000E+00  0.00000000E+00  0.00000000E+00
  0.00000000E+00  0.00000000E+00  0.00000000E+00
  0.00000000E+00  0.00000000E+00  0.00000000E+00
  0.00000000E+00  0.00000000E+00  0.00000000E+00
  0.00000000E+00  0.00000000E+00  0.00000000E+00
  0.00000000E+00  0.00000000E+00  0.00000000E+00
  0.00000000E+00  0.00000000E+00  0.00000000E+00
  0.00000000E+00  0.00000000E+00  0.00000000E+00
  0.00000000E+00  0.00000000E+00  0.00000000E+00
  0.00000000E+00  0.00000000E+00  0.00000000E+00
  0.00000000E+00  0.00000000E+00  0.00000000E+00
  0.00000000E+00  0.00000000E+00  0.00000000E+00
  0.00000000E+00  0.00000000E+00  0.00000000E+00
  0.00000000E+00  0.00000000E+00  0.00000000E+00
  0.00000000E+00  0.00000000E+00  0.00000000E+00
  0.00000000E+00  0.00000000E+00  0.00000000E+00
  0.00000000E+00  0.00000000E+00  0.00000000E+00
  0.00000000E+00  0.00000000E+00  0.00000000E+00
  0.00000000E+00  0.00000000E+00  0.00000000E+00
  0.00000000E+00  0.00000000E+00  0.00000000E+00
  0.00000000E+00  0.00000000E+00  0.00000000E+00
  0.00000000E+00  0.00000000E+00  0.00000000E+00
  0.00000000E+00  0.00000000E+00  0.00000000E+00
  0.00000000E+00  0.00000000E+00  0.00000000E+00
  0.00000000E+00  0.00000000E+00  0.00000000E+00
  0.00000000E+00  0.00000000E+00  0.00000000E+00
  0.00000000E+00  0.00000000E+00  0.00000000E+00
  0.00000000E+00  0.00000000E+00  0.00000000E+00
  0.00000000E+00  0.00000000E+00  0.00000000E+00
  0.00000000E+00  0.00000000E+00  0.00000000E+00
  0.00000000E+00  0.00000000E+00  0.00000000E+00
  0.00000000E+00  0.00000000E+00  0.00000000E+00
  0.00000000E+00  0.00000000E+00  0.00000000E+00
  0.00000000E+00  0.00000000E+00  0.00000000E+00
  0.00000000E+00  0.00000000E+00  0.00000000E+00
  0.00000000E+00  0.00000000E+00  0.00000000E+00
  0.00000000E+00  0.00000000E+00  0.00000000E+00
  0.00000000E+00  0.00000000E+00  0.00000000E+00
  0.00000000E+00  0.00000000E+00  0.00000000E+00
  0.00000000E+00  0.00000000E+00  0.00000000E+00
  0.00000000E+00  0.00000000E+00  0.00000000E+00
  0.00000000E+00  0.00000000E+00  0.00000000E+00
  0.00000000E+00  0.00000000E+00  0.00000000E+00
  0.00000000E+00  0.00000000E+00  0.00000000E+00
  0.00000000E+00  0.00000000E+00  0.00000000E+00
  0.00000000E+00  0.00000000E+00  0.00000000E+00
  0.00000000E+00  0.00000000E+00  0.00000000E+00
  0.00000000E+00  0.00000000E+00  0.00000000E+00
  0.00000000E+00  0.00000000E+00  0.00000000E+00
  0.00000000E+00  0.00000000E+00  0.00000000E+00
  0.00000000E+00  0.00000000E+00  0.00000000E+00
  0.00000000E+00  0.00000000E+00  0.00000000E+00
  0.00000000E+00  0.00000000E+00  0.00000000E+00
  0.00000000E+00  0.00000000E+00  0.00000000E+00
  0.00000000E+00  0.00000000E+00  0.00000000E+00
  0.00000000E+00  0.00000000E+00  0.00000000E+00
  0.00000000E+00  0.00000000E+00  0.00000000E+00
  0.00000000E+00  0.00000000E+00  0.00000000E+00
  0.00000000E+00  0.00000000E+00  0.00000000E+00
  0.00000000E+00  0.00000000E+00  0.00000000E+00
  0.00000000E+00  0.00000000E+00  0.00000000E+00
  0.00000000E+00  0.00000000E+00  0.00000000E+00
  0.00000000E+00  0.00000000E+00  0.00000000E+00
  0.00000000E+00  0.00000000E+00  0.00000000E+00
  0.00000000E+00  0.00000000E+00  0.00000000E+00
