SrTiFeO                                 
   1.00000000000000     
    11.1989999999999998    0.0000000000000000    0.0000000000000000
     0.0000000000000000   11.1989999999999998    0.0000000000000000
     0.0000000000000000    0.0000000000000000   15.9830000000000005
   Sr   Ti   Fe   O 
    32    31     1    94
Direct
  0.9991615048027533  0.2505654874421719  0.1249451725076625
  0.0035877483070199  0.2501075789583130  0.6253336523428609
  0.9994927646511892  0.7503799735969982  0.1252708285255027
  0.9982647698923562  0.7498441323019513  0.6241807718205974
  0.4997127885815286  0.2482969527141255  0.1238836438843315
  0.4966575472361670  0.2443902004870290  0.6282429742453387
  0.5011478815064888  0.7514377142227339  0.1242520486965276
  0.5011352448736887  0.7504299071001622  0.6244683409561526
  0.0027137902177532  0.2484827968726380  0.3743925319047435
  0.9996888320626355  0.2499783673798652  0.8750811444215967
  0.9989250206476222  0.7513074500954992  0.3757047064723683
  0.9995159217040437  0.7505548106656612  0.8747222429949751
  0.4962696454356875  0.2381635121067760  0.3731101515480628
  0.5008428158454064  0.2500867781347358  0.8751029662646947
  0.5016391465976374  0.7568791956683887  0.3758608182070499
  0.5003141962090978  0.7498559046450066  0.8746226861175150
  0.2494938856839512  0.9999314047554086  0.1250018234724738
  0.2493054185722175  0.9983027192630415  0.6246500992332271
  0.2487889548543039  0.5011170952109439  0.1240295679667289
  0.2496616794858555  0.4990936152963337  0.6243799834417966
  0.7507584117442153  0.0001077795819363  0.1256964082355564
  0.7489711950023991  0.9946735794451023  0.6245199967807120
  0.7517595791984146  0.5003671332957389  0.1237621154657270
  0.7525861061812921  0.5034465623530445  0.6263212785697367
  0.2483825615100741  0.9987011959967264  0.3757006646517959
  0.2496136719807404  0.9999739380474016  0.8750549260313433
  0.2429734044482930  0.4983311501405140  0.3749193529266820
  0.2503731931831727  0.5003843878577141  0.8744497599449655
  0.7498212734024161  0.9955278171404657  0.3761579151072793
  0.7504559546339092  1.0000424566555597  0.8746402763901522
  0.7612123047907446  0.5035755954596348  0.3723318279796183
  0.7506539943631599  0.5013110877754122  0.8753588325863483
  0.9995943509664706  0.0004153240081993  0.0003566857995035
  0.0003021890487156  0.9955040498374503  0.5006788139779547
  0.0002963398825665  0.5000770568625461  0.9996720939383179
  0.9987630557221857  0.5020184313323223  0.5004212779142662
  0.4997379449835897  0.0000070852825545  0.9997661748848822
  0.5000462118476514  0.9978443194505525  0.5006840051235798
  0.4996785442008780  0.5004187061268488  0.9972057514033597
  0.2502215531319135  0.2502693625762921  0.9999394385931604
  0.2500195642011426  0.2480077454102834  0.4991667783078710
  0.2503796703684247  0.7499296326654258  0.9999115278243667
  0.2510913465504981  0.7486511658496370  0.4995876621747375
  0.7501155240036012  0.2500933212968338  0.9999811000957806
  0.7497207445803747  0.7500766589730562  1.0000027414330790
  0.2497720389585332  0.2494515731251783  0.2499992446882661
  0.2505848606721252  0.2503644895161236  0.7503424865822590
  0.2501547685651359  0.7496353054101919  0.2507204794376204
  0.2500151588216483  0.7490992301833929  0.7495069491206441
  0.7488872145175762  0.2504823846262200  0.2512665278509987
  0.7494309171574653  0.2507611097940113  0.7498200133626619
  0.7501823660325894  0.7502080905090716  0.2516157225914147
  0.7495847786001774  0.7494625883529737  0.7488246207033988
  0.9999840394040270  0.0000366807210404  0.2498296600273565
  0.9999224844339644  0.0001283517927770  0.7494361290906576
  0.0008624749908575  0.4999792441037149  0.2492056254013516
  0.0004437063280223  0.4998436483595605  0.7500530363462211
  0.4999167375064479  0.9990809479742934  0.2492066261413784
  0.4999384212261944  0.9989671831407446  0.7504602589686347
  0.5001530896349528  0.4998426969208449  0.2454159859837464
  0.5006442493485208  0.4991996424726806  0.7488122287522454
  0.7564894719029428  0.2458005774745513  0.5003714102833982
  0.5014725287638296  0.5015967029227940  0.4997273094457761
  0.7508907820262908  0.7482745275963678  0.4990714505024545
  0.1090429096416229  0.1410404149312886  0.2471788889621050
  0.1096215749296969  0.1417105622714890  0.7490490766447853
  0.1101216743266520  0.6398028632917647  0.2497294193137062
  0.1086731187637952  0.6409675471021379  0.7500487436139146
  0.6091465538078150  0.1405454017972621  0.2487868369085982
  0.6088437851084811  0.1407674681486562  0.7508465399020169
  0.6084132955726920  0.6385806139442937  0.2570257392812184
  0.6084747277322919  0.6406571293878290  0.7509706522480258
  0.3913486961667061  0.3612121029313439  0.2577434605214584
  0.3913748390825646  0.3580902155862989  0.7524285553170402
  0.3904575443551553  0.8596478067433573  0.2496252273270105
  0.3911075476945396  0.8587299446300909  0.7500768939691177
  0.8894680553749003  0.3604269467320460  0.2516318272215413
  0.8913211687006631  0.3587698526330411  0.7489258806665086
  0.8900955973734092  0.8612013740192216  0.2477854476262422
  0.8899884569719669  0.8600574172495223  0.7495828299515085
  0.3601649727861370  0.1101247327998051  0.2506858851479092
  0.3591447282202760  0.1092920528319473  0.7486532007919630
  0.3606941997305255  0.6086588596142491  0.2575945391945980
  0.3583254582624801  0.6084785923748451  0.7487198628739331
  0.8584664629791604  0.1112253279232511  0.2533613603952057
  0.8584412386414345  0.1103275614168921  0.7461568552011135
  0.8611779588756868  0.6104713201112594  0.2479369373308418
  0.8598414523916543  0.6089961574103804  0.7510180202635789
  0.1405338403249618  0.3902298438851878  0.2489061735996464
  0.1416214179706848  0.3913028361127673  0.7500036305056232
  0.1398772927126908  0.8909289279919358  0.2474380074736828
  0.1403770321076220  0.8911534580158520  0.7513023301671283
  0.6383526707125478  0.3926495206078203  0.2545624374848027
  0.6420635864592082  0.3911984139783717  0.7551893002052085
  0.6395384095303366  0.8903946006485128  0.2491929096557737
  0.6404474401765534  0.8909024048916125  0.7510639938111936
  0.3589853988479580  0.3911766843100654  0.9995909099890340
  0.3588284317444539  0.8910174432575725  0.0005189309917016
  0.3595836315728830  0.8905952400060760  0.4998281476869080
  0.8592591908454427  0.3908324975542753  0.0000132699789210
  0.8590957476137002  0.8907152233461405  0.0007863247615978
  0.8608338828645061  0.8928834177414521  0.5011136153088467
  0.1407886602967254  0.1096232192367690  0.0009992389861277
  0.1401851994118279  0.1102763387766366  0.5018485739550312
  0.1406303831179468  0.6091559111666310  0.0000270815912668
  0.1413960598441933  0.6089856095934461  0.5003338639421031
  0.6405470584849225  0.1095697728077748  0.0008125741628336
  0.6348146226530069  0.1187808051645042  0.5003362876718555
  0.6404651979953244  0.6088298928018403  0.9999770239252731
  0.1094751475710569  0.3591101537159328  0.0006615846801614
  0.1126812345366148  0.3612703303901129  0.4995505598169339
  0.1091875117515808  0.8597151511946400  0.0008474478504022
  0.1094812773923509  0.8596503040506533  0.5009324595654483
  0.6090541191638655  0.3594980754688316  0.9997927890743596
  0.6086895466427810  0.8595865755886011  0.9997673338948601
  0.6097768079599424  0.8622944476606512  0.5000013269479341
  0.3908146082881013  0.1410298242555804  0.9998240143446249
  0.3879069622615067  0.1370207545257399  0.5004132871260538
  0.3910150308607375  0.6414584187750634  0.0000596557679940
  0.8903527209836662  0.1413672459701115  0.0012215136112066
  0.8925103384606303  0.1419480312986187  0.5009780105038737
  0.8907557438803124  0.6404584516897091  0.0005698475747767
  0.9975804925579761  0.0021156185423100  0.1248795202088749
  0.0015839689832881  0.9998936942181008  0.6254910825617964
  0.0001382304253869  0.4988414381747187  0.1247576279793095
  0.0008564752875725  0.4991995792499151  0.6252677550196253
  0.4989007161987889  0.0003356585227449  0.1247514094205686
  0.5008929643248097  0.9995299243011736  0.6255805010068416
  0.4975155998704281  0.5013962779917234  0.1247001617104110
  0.5036434883015752  0.4925002038685100  0.6269752055611109
  0.0019560744259408  0.0003410768186432  0.3747683884863957
  0.9980399872661171  0.0024042478927451  0.8750683280382507
  0.0012005172763921  0.4995777434050493  0.3745238337467932
  0.0003672074593902  0.4989773520662978  0.8751494393215754
  0.5007860656964588  0.0002353770675068  0.3745772931261065
  0.4987610859649892  0.0005167628388373  0.8752115039933284
  0.4977535322052842  0.5017182440619954  0.8755192611888364
  0.2439492711736427  0.2445154040697538  0.3740357558870237
  0.2491789996728425  0.2489775417334412  0.8752052193174256
  0.2449253132041136  0.7552757242939278  0.3743989756486607
  0.2500677998353497  0.7496502729163785  0.8753331759774747
  0.7522392799827849  0.2476815380236591  0.8753400903748182
  0.7504623569845615  0.7499613570558098  0.8755819370629858
  0.2546872674380509  0.2522906913390477  0.1255247482466980
  0.2537702877412338  0.2559926977242360  0.6243385680097177
  0.2522774102394889  0.7465915358927848  0.1256126854016323
  0.2500593415037384  0.7507587992201427  0.6252113370457610
  0.7488535041626772  0.2529647259807729  0.1262223662764559
  0.7396271853870261  0.2589755609135833  0.6235345376775382
  0.7462625330487386  0.7479378944035513  0.1251538531894291
  0.7470216112254024  0.7468275991727996  0.6260732039833823
  0.7424799179205083  0.2550434681987974  0.3772488662314563
  0.8561202814667266  0.3923500901591603  0.5001731882760669
  0.3885267272290871  0.6431877711090284  0.4959599739461131
  0.3718578848187293  0.3820925717742171  0.4879856933572091
  0.8937505062666046  0.6401094882986516  0.4998300452380857
  0.7548122596299375  0.7544414757102236  0.3729680852287403
  0.6432332963078632  0.6012223852924281  0.4908099185209343
 
  0.00000000E+00  0.00000000E+00  0.00000000E+00
  0.00000000E+00  0.00000000E+00  0.00000000E+00
  0.00000000E+00  0.00000000E+00  0.00000000E+00
  0.00000000E+00  0.00000000E+00  0.00000000E+00
  0.00000000E+00  0.00000000E+00  0.00000000E+00
  0.00000000E+00  0.00000000E+00  0.00000000E+00
  0.00000000E+00  0.00000000E+00  0.00000000E+00
  0.00000000E+00  0.00000000E+00  0.00000000E+00
  0.00000000E+00  0.00000000E+00  0.00000000E+00
  0.00000000E+00  0.00000000E+00  0.00000000E+00
  0.00000000E+00  0.00000000E+00  0.00000000E+00
  0.00000000E+00  0.00000000E+00  0.00000000E+00
  0.00000000E+00  0.00000000E+00  0.00000000E+00
  0.00000000E+00  0.00000000E+00  0.00000000E+00
  0.00000000E+00  0.00000000E+00  0.00000000E+00
  0.00000000E+00  0.00000000E+00  0.00000000E+00
  0.00000000E+00  0.00000000E+00  0.00000000E+00
  0.00000000E+00  0.00000000E+00  0.00000000E+00
  0.00000000E+00  0.00000000E+00  0.00000000E+00
  0.00000000E+00  0.00000000E+00  0.00000000E+00
  0.00000000E+00  0.00000000E+00  0.00000000E+00
  0.00000000E+00  0.00000000E+00  0.00000000E+00
  0.00000000E+00  0.00000000E+00  0.00000000E+00
  0.00000000E+00  0.00000000E+00  0.00000000E+00
  0.00000000E+00  0.00000000E+00  0.00000000E+00
  0.00000000E+00  0.00000000E+00  0.00000000E+00
  0.00000000E+00  0.00000000E+00  0.00000000E+00
  0.00000000E+00  0.00000000E+00  0.00000000E+00
  0.00000000E+00  0.00000000E+00  0.00000000E+00
  0.00000000E+00  0.00000000E+00  0.00000000E+00
  0.00000000E+00  0.00000000E+00  0.00000000E+00
  0.00000000E+00  0.00000000E+00  0.00000000E+00
  0.00000000E+00  0.00000000E+00  0.00000000E+00
  0.00000000E+00  0.00000000E+00  0.00000000E+00
  0.00000000E+00  0.00000000E+00  0.00000000E+00
  0.00000000E+00  0.00000000E+00  0.00000000E+00
  0.00000000E+00  0.00000000E+00  0.00000000E+00
  0.00000000E+00  0.00000000E+00  0.00000000E+00
  0.00000000E+00  0.00000000E+00  0.00000000E+00
  0.00000000E+00  0.00000000E+00  0.00000000E+00
  0.00000000E+00  0.00000000E+00  0.00000000E+00
  0.00000000E+00  0.00000000E+00  0.00000000E+00
  0.00000000E+00  0.00000000E+00  0.00000000E+00
  0.00000000E+00  0.00000000E+00  0.00000000E+00
  0.00000000E+00  0.00000000E+00  0.00000000E+00
  0.00000000E+00  0.00000000E+00  0.00000000E+00
  0.00000000E+00  0.00000000E+00  0.00000000E+00
  0.00000000E+00  0.00000000E+00  0.00000000E+00
  0.00000000E+00  0.00000000E+00  0.00000000E+00
  0.00000000E+00  0.00000000E+00  0.00000000E+00
  0.00000000E+00  0.00000000E+00  0.00000000E+00
  0.00000000E+00  0.00000000E+00  0.00000000E+00
  0.00000000E+00  0.00000000E+00  0.00000000E+00
  0.00000000E+00  0.00000000E+00  0.00000000E+00
  0.00000000E+00  0.00000000E+00  0.00000000E+00
  0.00000000E+00  0.00000000E+00  0.00000000E+00
  0.00000000E+00  0.00000000E+00  0.00000000E+00
  0.00000000E+00  0.00000000E+00  0.00000000E+00
  0.00000000E+00  0.00000000E+00  0.00000000E+00
  0.00000000E+00  0.00000000E+00  0.00000000E+00
  0.00000000E+00  0.00000000E+00  0.00000000E+00
  0.00000000E+00  0.00000000E+00  0.00000000E+00
  0.00000000E+00  0.00000000E+00  0.00000000E+00
  0.00000000E+00  0.00000000E+00  0.00000000E+00
  0.00000000E+00  0.00000000E+00  0.00000000E+00
  0.00000000E+00  0.00000000E+00  0.00000000E+00
  0.00000000E+00  0.00000000E+00  0.00000000E+00
  0.00000000E+00  0.00000000E+00  0.00000000E+00
  0.00000000E+00  0.00000000E+00  0.00000000E+00
  0.00000000E+00  0.00000000E+00  0.00000000E+00
  0.00000000E+00  0.00000000E+00  0.00000000E+00
  0.00000000E+00  0.00000000E+00  0.00000000E+00
  0.00000000E+00  0.00000000E+00  0.00000000E+00
  0.00000000E+00  0.00000000E+00  0.00000000E+00
  0.00000000E+00  0.00000000E+00  0.00000000E+00
  0.00000000E+00  0.00000000E+00  0.00000000E+00
  0.00000000E+00  0.00000000E+00  0.00000000E+00
  0.00000000E+00  0.00000000E+00  0.00000000E+00
  0.00000000E+00  0.00000000E+00  0.00000000E+00
  0.00000000E+00  0.00000000E+00  0.00000000E+00
  0.00000000E+00  0.00000000E+00  0.00000000E+00
  0.00000000E+00  0.00000000E+00  0.00000000E+00
  0.00000000E+00  0.00000000E+00  0.00000000E+00
  0.00000000E+00  0.00000000E+00  0.00000000E+00
  0.00000000E+00  0.00000000E+00  0.00000000E+00
  0.00000000E+00  0.00000000E+00  0.00000000E+00
  0.00000000E+00  0.00000000E+00  0.00000000E+00
  0.00000000E+00  0.00000000E+00  0.00000000E+00
  0.00000000E+00  0.00000000E+00  0.00000000E+00
  0.00000000E+00  0.00000000E+00  0.00000000E+00
  0.00000000E+00  0.00000000E+00  0.00000000E+00
  0.00000000E+00  0.00000000E+00  0.00000000E+00
  0.00000000E+00  0.00000000E+00  0.00000000E+00
  0.00000000E+00  0.00000000E+00  0.00000000E+00
  0.00000000E+00  0.00000000E+00  0.00000000E+00
  0.00000000E+00  0.00000000E+00  0.00000000E+00
  0.00000000E+00  0.00000000E+00  0.00000000E+00
  0.00000000E+00  0.00000000E+00  0.00000000E+00
  0.00000000E+00  0.00000000E+00  0.00000000E+00
  0.00000000E+00  0.00000000E+00  0.00000000E+00
  0.00000000E+00  0.00000000E+00  0.00000000E+00
  0.00000000E+00  0.00000000E+00  0.00000000E+00
  0.00000000E+00  0.00000000E+00  0.00000000E+00
  0.00000000E+00  0.00000000E+00  0.00000000E+00
  0.00000000E+00  0.00000000E+00  0.00000000E+00
  0.00000000E+00  0.00000000E+00  0.00000000E+00
  0.00000000E+00  0.00000000E+00  0.00000000E+00
  0.00000000E+00  0.00000000E+00  0.00000000E+00
  0.00000000E+00  0.00000000E+00  0.00000000E+00
  0.00000000E+00  0.00000000E+00  0.00000000E+00
  0.00000000E+00  0.00000000E+00  0.00000000E+00
  0.00000000E+00  0.00000000E+00  0.00000000E+00
  0.00000000E+00  0.00000000E+00  0.00000000E+00
  0.00000000E+00  0.00000000E+00  0.00000000E+00
  0.00000000E+00  0.00000000E+00  0.00000000E+00
  0.00000000E+00  0.00000000E+00  0.00000000E+00
  0.00000000E+00  0.00000000E+00  0.00000000E+00
  0.00000000E+00  0.00000000E+00  0.00000000E+00
  0.00000000E+00  0.00000000E+00  0.00000000E+00
  0.00000000E+00  0.00000000E+00  0.00000000E+00
  0.00000000E+00  0.00000000E+00  0.00000000E+00
  0.00000000E+00  0.00000000E+00  0.00000000E+00
  0.00000000E+00  0.00000000E+00  0.00000000E+00
  0.00000000E+00  0.00000000E+00  0.00000000E+00
  0.00000000E+00  0.00000000E+00  0.00000000E+00
  0.00000000E+00  0.00000000E+00  0.00000000E+00
  0.00000000E+00  0.00000000E+00  0.00000000E+00
  0.00000000E+00  0.00000000E+00  0.00000000E+00
  0.00000000E+00  0.00000000E+00  0.00000000E+00
  0.00000000E+00  0.00000000E+00  0.00000000E+00
  0.00000000E+00  0.00000000E+00  0.00000000E+00
  0.00000000E+00  0.00000000E+00  0.00000000E+00
  0.00000000E+00  0.00000000E+00  0.00000000E+00
  0.00000000E+00  0.00000000E+00  0.00000000E+00
  0.00000000E+00  0.00000000E+00  0.00000000E+00
  0.00000000E+00  0.00000000E+00  0.00000000E+00
  0.00000000E+00  0.00000000E+00  0.00000000E+00
  0.00000000E+00  0.00000000E+00  0.00000000E+00
  0.00000000E+00  0.00000000E+00  0.00000000E+00
  0.00000000E+00  0.00000000E+00  0.00000000E+00
  0.00000000E+00  0.00000000E+00  0.00000000E+00
  0.00000000E+00  0.00000000E+00  0.00000000E+00
  0.00000000E+00  0.00000000E+00  0.00000000E+00
  0.00000000E+00  0.00000000E+00  0.00000000E+00
  0.00000000E+00  0.00000000E+00  0.00000000E+00
  0.00000000E+00  0.00000000E+00  0.00000000E+00
  0.00000000E+00  0.00000000E+00  0.00000000E+00
  0.00000000E+00  0.00000000E+00  0.00000000E+00
  0.00000000E+00  0.00000000E+00  0.00000000E+00
  0.00000000E+00  0.00000000E+00  0.00000000E+00
  0.00000000E+00  0.00000000E+00  0.00000000E+00
  0.00000000E+00  0.00000000E+00  0.00000000E+00
  0.00000000E+00  0.00000000E+00  0.00000000E+00
  0.00000000E+00  0.00000000E+00  0.00000000E+00
  0.00000000E+00  0.00000000E+00  0.00000000E+00
  0.00000000E+00  0.00000000E+00  0.00000000E+00
  0.00000000E+00  0.00000000E+00  0.00000000E+00
  0.00000000E+00  0.00000000E+00  0.00000000E+00
