Sr   Ti   Fe   O                        
   1.00000000000000     
    11.1989999999999998    0.0000000000000000    0.0000000000000000
     0.0000000000000000   11.1989999999999998    0.0000000000000000
     0.0000000000000000    0.0000000000000000   15.9830000000000005
   Sr   Ti   Fe   O 
    32    30     2    94
Direct
  0.9994894366103945  0.2490673405245586  0.1244792317439828
  0.0053656184425068  0.2494416481674015  0.6244891392504635
  0.9984783484874582  0.7510233274493902  0.1255535621737553
  0.9968028379225380  0.7514747392904955  0.6232155792141207
  0.4985189730084825  0.2498709468923065  0.1268257978071352
  0.4978050683644407  0.2390954490832249  0.6204249807381672
  0.4994973724247685  0.7500092192581073  0.1222258854587960
  0.4996557341155008  0.7501157501726156  0.6274636962272027
  0.9988696302578663  0.2486196136170153  0.3762849708285679
  0.0056919392717795  0.2514590175929331  0.8753858940512383
  0.9948578511050038  0.7490493646083924  0.3777798814702646
  0.0000390675089647  0.7507853401544625  0.8748220926472505
  0.5002913056607110  0.2406157010482449  0.3720334627965913
  0.4982052071059579  0.2487852835818695  0.8779394298131781
  0.4980872859702712  0.7525336558927727  0.3707816098405409
  0.5034532309561351  0.7519275334002290  0.8751899852992898
  0.2498343391956462  1.0004627008240712  0.1248936423389552
  0.2494258489614870 -0.0006855169813639  0.6241261964785729
  0.2510927653554108  0.5004689768913163  0.1245812084329126
  0.2386394926947051  0.5008945837253532  0.6250528176596398
  0.7499189752849545  0.9989015988230993  0.1253321341152787
  0.7514041091240166  0.9883197699873820  0.6217681503659099
  0.7492366669744389  0.4999172141793528  0.1247802937283829
  0.7692585784143585  0.5044727607140731  0.6264664926671354
  0.2479327078606418 -0.0006448556808207  0.3751098594283966
  0.2513008663426603  1.0005591728811360  0.8751927296712477
  0.2431497892242538  0.5018024194784884  0.3741543415345971
  0.2502582144555649  0.5013047609599482  0.8755024274533909
  0.7503850593635293 -0.0030144528349772  0.3751190814336103
  0.7515176437974074  0.9929607785671271  0.8771484408256390
  0.7564528581524739  0.4963235410340857  0.3703009361136461
  0.7541050910778108  0.5074464683973801  0.8792493340180675
  1.0002283198898858  0.0006990556731385  0.9995863809658880
 -0.0022483687895163 -0.0008694059407020  0.4999111356549687
  0.0009560213512301  0.4997928670532984  0.0004754977573369
  0.9978417079498630  0.5002199906837430  0.4990898527570418
  0.5002299663829766  1.0003712736068222 -0.0000497703179758
  0.5010965495039658  0.9943536626429819  0.4995751210399008
  0.5014545547498240  0.4979967660608802  0.9989358177530829
  0.2509881770295845  0.2509098267487697  0.0002031978545195
  0.2481056298152657  0.2466053571049733  0.4999882479964540
  0.2505139104267808  0.7495133954757370  0.9992862677599518
  0.2490024318797064  0.7510456617342998  0.4994405964167129
  0.7493805344503751  0.2509306708373614 -0.0000080442231718
  0.7473432603768696  0.2501283186695910  0.4998496006087820
  0.7509465357872940  0.7506524267582367  0.0014137461301649
  0.2499468873686451  0.2510301325820489  0.2502666981289016
  0.2551629220551682  0.2522033936051054  0.7489858843629583
  0.2486911774951580  0.7500549633203316  0.2499270243509311
  0.2520783574953441  0.7481984227063463  0.7485142637542248
  0.7506726935283581  0.2482038053194411  0.2494343023592418
  0.7569558924972501  0.2372875551833697  0.7497700296141495
  0.7487191685038885  0.7482181356935661  0.2516571308532176
  0.7488733685145135  0.7476524682642728  0.7498657462509877
  0.9993813159159933  0.0002858422975428  0.2505120670804673
  0.0066666124797570  0.9959952126803492  0.7503888209064512
  0.0002533285927692  0.4998380258038503  0.2486901764688786
  0.0017413310416054  0.5017139861942286  0.7516571841866652
  0.5000350483562497  0.9988035374073713  0.2491623181252800
  0.4995528717321463  0.0002286202849106  0.7503921554409458
  0.5006136243691244  0.5014939860444507  0.2475629805701957
  0.4925171482085511  0.4933365124025895  0.4930709195611624
  0.4925987421995821  0.5073237042064707  0.7588211285381905
  0.7499656595531314  0.7524290348684154  0.5008157849126879
  0.1104325634870712  0.1426435083448975  0.2492183853136730
  0.1083157964406907  0.1425315171262801  0.7520861427286327
  0.1084506261257048  0.6410842729927065  0.2498848059405475
  0.1089412688220889  0.6413220331951547  0.7492935022921178
  0.6097715429354501  0.1401182062922944  0.2483913680541306
  0.6052195623395540  0.1490453014267065  0.7508146012324118
  0.6080926549689405  0.6405681673841094  0.2399581278630035
  0.3923389659806834  0.3612910844821667  0.2552623874298877
  0.3974595447577156  0.3597921699067814  0.7412278048674235
  0.3900218605876740  0.8598631103534162  0.2483997847788657
  0.3905406771844127  0.8610418876756201  0.7510920190903336
  0.8905936204299044  0.3591022903733954  0.2512220332700718
  0.8783701706832763  0.3658773789068499  0.7495542927534810
  0.8908261910882732  0.8597275775617879  0.2536593735082834
  0.8922328363014225  0.8622064654974585  0.7531515268667206
  0.3600153793628276  0.1104784391728582  0.2505271195111221
  0.3585526825536569  0.1092953999697023  0.7502455043102216
  0.3584445721091494  0.6089784475501706  0.2529791804451093
  0.3554103328654053  0.6135896191205324  0.7369715826234217
  0.8589940151618882  0.1082741949321711  0.2497690677093874
  0.8571093404882980  0.1076541658890602  0.7486306877757327
  0.8601180373417376  0.6076097697264509  0.2470216949521808
  0.8656994928096281  0.6123410694125623  0.7537467284896809
  0.1416341407721737  0.3919259529328289  0.2488663243639230
  0.1398337607362523  0.3901254099229991  0.7513072545268097
  0.1401355883927010  0.8916219107259846  0.2474293866013966
  0.1429497082567414  0.8924992852764424  0.7517218991759169
  0.6410946945991890  0.3896017776802949  0.2486834575242544
  0.6398007074766096  0.8907484935663854  0.2496885268043663
  0.6387694593517437  0.8916034559422595  0.7524360785399576
  0.3589682513460472  0.3908101920559136  0.9994969663751538
  0.3600173028640190  0.8898733148389670 -0.0002444587155934
  0.3567671793442169  0.8916217830530239  0.4990385273902413
  0.8597721484222957  0.3907257507951186 -0.0004952365693568
  0.8591442302205057  0.3867300681031874  0.4992956548007991
  0.8610434468593789  0.8917980597185775  1.0002720175823645
  0.8642886261441687  0.8961023713428665  0.4958132499004750
  0.1410730379294795  0.1109772369558327  1.0002097898509072
  0.1404754404420333  0.1115708696475962  0.4993423131790144
  0.1413396163199495  0.6087755489402522 -0.0002770841172365
  0.1342094795311165  0.6128847403812919  0.4988054243460266
  0.6415578506644863  0.1096200783285570  0.9981339978828769
  0.6416352104180013  0.1061405335113836  0.5022986140316507
  0.6408249265084933  0.6100107198955449  0.0031047830153184
  0.1100179811314624  0.3588713576527409  0.0003593667663456
  0.1108965551768919  0.3606435945325371  0.4996553926481274
  0.1105090886953751  0.8597396305430004 -0.0000346802416866
  0.1085368264821194  0.8616962453350966  0.4968261242686307
  0.6105868594584591  0.3576669441747429  0.0093241321398184
  0.6096566899404722  0.8604821171342411  0.9998161904684117
  0.6010884854686278  0.8540568086699631  0.5004553928532828
  0.3905502337809098  0.1404716433473711  0.0005219968580528
  0.3895178220228066  0.1400253686128985  0.4987868673177064
  0.3918822339082382  0.6389677347519046  0.9956027904138927
  0.3835007424419499  0.6380239697316501  0.4964005829018905
  0.8896426687762812  0.1422282039388011  0.9939961001401302
  0.8884291185980879  0.1430750689460281  0.5070492241047665
  0.8913320749209724  0.6395079944566676  0.9988449259418061
  0.9981141006476679  0.0028385400793215  0.1243502578864498
  0.0029920695096372  0.9989389418001636  0.6260874656134319
  1.0006943383208955  0.4986946079589814  0.1243549642065416
  0.0030719679838111  0.4975092219632276  0.6258725014653408
  0.5000663112585723  1.0007623717997667  0.1243635186939877
  0.4992464289069614  0.0013265682125017  0.6257130679457719
  0.4929657198332847  0.4984948827429831  0.1255726222319728
  0.0019052395024578  0.0080629013076027  0.3741410574665679
  1.0016242562177260  1.0012131516755418  0.8753645104447640
  0.0004592057966588  0.4995170587905500  0.3740657336368183
  0.0032241976839856  0.4976805774588506  0.8754871936176373
  0.5009901517197902  0.0005734494650154  0.3743114069389697
  0.4990736263054871  1.0009803097462129  0.8753232675017494
  0.5160488879644902  0.4828386590560295  0.8788102698709443
  0.2517554935340871  0.2546251364778416  0.3759364357039375
  0.2537169682842064  0.2532856320091759  0.8746025867556427
  0.2472887445937970  0.7529507337608641  0.3734029063942691
  0.2511203785596641  0.7469056513473267  0.8738975817037095
  0.7518438606952801  0.2451490117833542  0.3749826437802375
  0.7372275378145958  0.2652264414217356  0.8709449109305200
  0.7404549661219878  0.7358828837152028  0.3703125293692651
  0.7506776841624133  0.7525938146134457  0.8777469284715474
  0.2537117691290720  0.2522501982050400  0.1256188317352599
  0.2448261506580222  0.2455965051503588  0.6253711263265668
  0.2520015074849165  0.7472066816054048  0.1241070833889663
  0.2433059380489727  0.7567510662393616  0.6230159941693433
  0.7560983743786218  0.2462535123644223  0.1246609412606721
  0.7328896413976648  0.2675714299296780  0.6295308697098797
  0.7548223326794961  0.7539993857265910  0.1240453546491746
  0.6176047101749341  0.6299167241544773  0.7558061189433914
  0.5185597194567201  0.5177105864766232  0.3756808867397040
  0.6041977983243596  0.3538104050021800  0.4913019768071418
  0.3599994798783930  0.3913524942741686  0.5123239855246410
  0.7527715247021727  0.7529939703278665  0.6315498754157081
  0.8807949912157251  0.6282703107962750  0.5020372515288756
  0.5770681372442281  0.5602044681934123  0.5790276377170068
 
  0.00000000E+00  0.00000000E+00  0.00000000E+00
  0.00000000E+00  0.00000000E+00  0.00000000E+00
  0.00000000E+00  0.00000000E+00  0.00000000E+00
  0.00000000E+00  0.00000000E+00  0.00000000E+00
  0.00000000E+00  0.00000000E+00  0.00000000E+00
  0.00000000E+00  0.00000000E+00  0.00000000E+00
  0.00000000E+00  0.00000000E+00  0.00000000E+00
  0.00000000E+00  0.00000000E+00  0.00000000E+00
  0.00000000E+00  0.00000000E+00  0.00000000E+00
  0.00000000E+00  0.00000000E+00  0.00000000E+00
  0.00000000E+00  0.00000000E+00  0.00000000E+00
  0.00000000E+00  0.00000000E+00  0.00000000E+00
  0.00000000E+00  0.00000000E+00  0.00000000E+00
  0.00000000E+00  0.00000000E+00  0.00000000E+00
  0.00000000E+00  0.00000000E+00  0.00000000E+00
  0.00000000E+00  0.00000000E+00  0.00000000E+00
  0.00000000E+00  0.00000000E+00  0.00000000E+00
  0.00000000E+00  0.00000000E+00  0.00000000E+00
  0.00000000E+00  0.00000000E+00  0.00000000E+00
  0.00000000E+00  0.00000000E+00  0.00000000E+00
  0.00000000E+00  0.00000000E+00  0.00000000E+00
  0.00000000E+00  0.00000000E+00  0.00000000E+00
  0.00000000E+00  0.00000000E+00  0.00000000E+00
  0.00000000E+00  0.00000000E+00  0.00000000E+00
  0.00000000E+00  0.00000000E+00  0.00000000E+00
  0.00000000E+00  0.00000000E+00  0.00000000E+00
  0.00000000E+00  0.00000000E+00  0.00000000E+00
  0.00000000E+00  0.00000000E+00  0.00000000E+00
  0.00000000E+00  0.00000000E+00  0.00000000E+00
  0.00000000E+00  0.00000000E+00  0.00000000E+00
  0.00000000E+00  0.00000000E+00  0.00000000E+00
  0.00000000E+00  0.00000000E+00  0.00000000E+00
  0.00000000E+00  0.00000000E+00  0.00000000E+00
  0.00000000E+00  0.00000000E+00  0.00000000E+00
  0.00000000E+00  0.00000000E+00  0.00000000E+00
  0.00000000E+00  0.00000000E+00  0.00000000E+00
  0.00000000E+00  0.00000000E+00  0.00000000E+00
  0.00000000E+00  0.00000000E+00  0.00000000E+00
  0.00000000E+00  0.00000000E+00  0.00000000E+00
  0.00000000E+00  0.00000000E+00  0.00000000E+00
  0.00000000E+00  0.00000000E+00  0.00000000E+00
  0.00000000E+00  0.00000000E+00  0.00000000E+00
  0.00000000E+00  0.00000000E+00  0.00000000E+00
  0.00000000E+00  0.00000000E+00  0.00000000E+00
  0.00000000E+00  0.00000000E+00  0.00000000E+00
  0.00000000E+00  0.00000000E+00  0.00000000E+00
  0.00000000E+00  0.00000000E+00  0.00000000E+00
  0.00000000E+00  0.00000000E+00  0.00000000E+00
  0.00000000E+00  0.00000000E+00  0.00000000E+00
  0.00000000E+00  0.00000000E+00  0.00000000E+00
  0.00000000E+00  0.00000000E+00  0.00000000E+00
  0.00000000E+00  0.00000000E+00  0.00000000E+00
  0.00000000E+00  0.00000000E+00  0.00000000E+00
  0.00000000E+00  0.00000000E+00  0.00000000E+00
  0.00000000E+00  0.00000000E+00  0.00000000E+00
  0.00000000E+00  0.00000000E+00  0.00000000E+00
  0.00000000E+00  0.00000000E+00  0.00000000E+00
  0.00000000E+00  0.00000000E+00  0.00000000E+00
  0.00000000E+00  0.00000000E+00  0.00000000E+00
  0.00000000E+00  0.00000000E+00  0.00000000E+00
  0.00000000E+00  0.00000000E+00  0.00000000E+00
  0.00000000E+00  0.00000000E+00  0.00000000E+00
  0.00000000E+00  0.00000000E+00  0.00000000E+00
  0.00000000E+00  0.00000000E+00  0.00000000E+00
  0.00000000E+00  0.00000000E+00  0.00000000E+00
  0.00000000E+00  0.00000000E+00  0.00000000E+00
  0.00000000E+00  0.00000000E+00  0.00000000E+00
  0.00000000E+00  0.00000000E+00  0.00000000E+00
  0.00000000E+00  0.00000000E+00  0.00000000E+00
  0.00000000E+00  0.00000000E+00  0.00000000E+00
  0.00000000E+00  0.00000000E+00  0.00000000E+00
  0.00000000E+00  0.00000000E+00  0.00000000E+00
  0.00000000E+00  0.00000000E+00  0.00000000E+00
  0.00000000E+00  0.00000000E+00  0.00000000E+00
  0.00000000E+00  0.00000000E+00  0.00000000E+00
  0.00000000E+00  0.00000000E+00  0.00000000E+00
  0.00000000E+00  0.00000000E+00  0.00000000E+00
  0.00000000E+00  0.00000000E+00  0.00000000E+00
  0.00000000E+00  0.00000000E+00  0.00000000E+00
  0.00000000E+00  0.00000000E+00  0.00000000E+00
  0.00000000E+00  0.00000000E+00  0.00000000E+00
  0.00000000E+00  0.00000000E+00  0.00000000E+00
  0.00000000E+00  0.00000000E+00  0.00000000E+00
  0.00000000E+00  0.00000000E+00  0.00000000E+00
  0.00000000E+00  0.00000000E+00  0.00000000E+00
  0.00000000E+00  0.00000000E+00  0.00000000E+00
  0.00000000E+00  0.00000000E+00  0.00000000E+00
  0.00000000E+00  0.00000000E+00  0.00000000E+00
  0.00000000E+00  0.00000000E+00  0.00000000E+00
  0.00000000E+00  0.00000000E+00  0.00000000E+00
  0.00000000E+00  0.00000000E+00  0.00000000E+00
  0.00000000E+00  0.00000000E+00  0.00000000E+00
  0.00000000E+00  0.00000000E+00  0.00000000E+00
  0.00000000E+00  0.00000000E+00  0.00000000E+00
  0.00000000E+00  0.00000000E+00  0.00000000E+00
  0.00000000E+00  0.00000000E+00  0.00000000E+00
  0.00000000E+00  0.00000000E+00  0.00000000E+00
  0.00000000E+00  0.00000000E+00  0.00000000E+00
  0.00000000E+00  0.00000000E+00  0.00000000E+00
  0.00000000E+00  0.00000000E+00  0.00000000E+00
  0.00000000E+00  0.00000000E+00  0.00000000E+00
  0.00000000E+00  0.00000000E+00  0.00000000E+00
  0.00000000E+00  0.00000000E+00  0.00000000E+00
  0.00000000E+00  0.00000000E+00  0.00000000E+00
  0.00000000E+00  0.00000000E+00  0.00000000E+00
  0.00000000E+00  0.00000000E+00  0.00000000E+00
  0.00000000E+00  0.00000000E+00  0.00000000E+00
  0.00000000E+00  0.00000000E+00  0.00000000E+00
  0.00000000E+00  0.00000000E+00  0.00000000E+00
  0.00000000E+00  0.00000000E+00  0.00000000E+00
  0.00000000E+00  0.00000000E+00  0.00000000E+00
  0.00000000E+00  0.00000000E+00  0.00000000E+00
  0.00000000E+00  0.00000000E+00  0.00000000E+00
  0.00000000E+00  0.00000000E+00  0.00000000E+00
  0.00000000E+00  0.00000000E+00  0.00000000E+00
  0.00000000E+00  0.00000000E+00  0.00000000E+00
  0.00000000E+00  0.00000000E+00  0.00000000E+00
  0.00000000E+00  0.00000000E+00  0.00000000E+00
  0.00000000E+00  0.00000000E+00  0.00000000E+00
  0.00000000E+00  0.00000000E+00  0.00000000E+00
  0.00000000E+00  0.00000000E+00  0.00000000E+00
  0.00000000E+00  0.00000000E+00  0.00000000E+00
  0.00000000E+00  0.00000000E+00  0.00000000E+00
  0.00000000E+00  0.00000000E+00  0.00000000E+00
  0.00000000E+00  0.00000000E+00  0.00000000E+00
  0.00000000E+00  0.00000000E+00  0.00000000E+00
  0.00000000E+00  0.00000000E+00  0.00000000E+00
  0.00000000E+00  0.00000000E+00  0.00000000E+00
  0.00000000E+00  0.00000000E+00  0.00000000E+00
  0.00000000E+00  0.00000000E+00  0.00000000E+00
  0.00000000E+00  0.00000000E+00  0.00000000E+00
  0.00000000E+00  0.00000000E+00  0.00000000E+00
  0.00000000E+00  0.00000000E+00  0.00000000E+00
  0.00000000E+00  0.00000000E+00  0.00000000E+00
  0.00000000E+00  0.00000000E+00  0.00000000E+00
  0.00000000E+00  0.00000000E+00  0.00000000E+00
  0.00000000E+00  0.00000000E+00  0.00000000E+00
  0.00000000E+00  0.00000000E+00  0.00000000E+00
  0.00000000E+00  0.00000000E+00  0.00000000E+00
  0.00000000E+00  0.00000000E+00  0.00000000E+00
  0.00000000E+00  0.00000000E+00  0.00000000E+00
  0.00000000E+00  0.00000000E+00  0.00000000E+00
  0.00000000E+00  0.00000000E+00  0.00000000E+00
  0.00000000E+00  0.00000000E+00  0.00000000E+00
  0.00000000E+00  0.00000000E+00  0.00000000E+00
  0.00000000E+00  0.00000000E+00  0.00000000E+00
  0.00000000E+00  0.00000000E+00  0.00000000E+00
  0.00000000E+00  0.00000000E+00  0.00000000E+00
  0.00000000E+00  0.00000000E+00  0.00000000E+00
  0.00000000E+00  0.00000000E+00  0.00000000E+00
  0.00000000E+00  0.00000000E+00  0.00000000E+00
  0.00000000E+00  0.00000000E+00  0.00000000E+00
  0.00000000E+00  0.00000000E+00  0.00000000E+00
  0.00000000E+00  0.00000000E+00  0.00000000E+00
  0.00000000E+00  0.00000000E+00  0.00000000E+00
  0.00000000E+00  0.00000000E+00  0.00000000E+00
  0.00000000E+00  0.00000000E+00  0.00000000E+00
  0.00000000E+00  0.00000000E+00  0.00000000E+00
