SrTiFeO                                 
   1.00000000000000     
    11.1989999999999998    0.0000000000000000    0.0000000000000000
     0.0000000000000000   11.1989999999999998    0.0000000000000000
     0.0000000000000000    0.0000000000000000   15.9830000000000005
   Sr   Ti   Fe   O 
    32    30     2    94
Direct
  0.0001915360985627  0.2508241010346173  0.1249520480842294
  0.0011909132397472  0.2484390548558026  0.6237071814640883
  0.0041852707555155  0.7506860016923064  0.1232699041725790
  0.0025023309513514  0.7492252071980169  0.6241013222235274
  0.4993371661920499  0.2516961764070839  0.1259410987179944
  0.5004756891218910  0.2521450924108392  0.6223960868373966
  0.4959101441543144  0.7488803254260116  0.1235848742075987
  0.4975387298765894  0.7505905888139386  0.6276898389725560
  0.0023771403834925  0.2493522543238383  0.3762577259438311
  0.0005246634604219  0.2499181828850355  0.8748819986944631
  0.0077056598884567  0.7484501700978530  0.3773705820432041
  0.9999025810223692  0.7501118716916303  0.8733752714792389
  0.4994247582031847  0.2516143687861720  0.3778603081524179
  0.4997777448400382  0.2515013914194189  0.8743492164176778
  0.4864275250872052  0.7508005416355823  0.3725238301158189
  0.4976152132111778  0.7507265297888653  0.8759622899390112
  0.2497818210715816  0.0008724216922345  0.1251285850471536
  0.2493227695599265  0.0009398786945766  0.6238764995943066
  0.2520141911765373  0.5002058568287724  0.1254112327462244
  0.2501156416546757  0.4992868124304239  0.6231833994711573
  0.7498635526520315  0.0042339989741590  0.1230754353267525
  0.7519131644273589  0.0022205905601920  0.6246942544855630
  0.7495192138594199  0.4964559925788271  0.1231775808324988
  0.7528098380205044  0.4936591818346185  0.6286181829406838
  0.2492312895647165  0.0020943973556663  0.3761337606497707
  0.2498880634187970  0.0007291126546070  0.8745976570982502
  0.2515114359524344  0.4982293087956327  0.3774250785923452
  0.2513055055698257  0.4993583215182007  0.8749743370390033
  0.7516695646759252  0.0100503808126636  0.3746667379433088
  0.7499995935537145  0.0000929390450467  0.8741844111208252
  0.7533126573462948  0.4853847192401439  0.3727846506304155
  0.7482064426995156  0.4995544170204264  0.8747713021879340
  0.9993648571298113  0.9995181073180517  0.9998900828802877
  1.0000599254044491  1.0000044149110145  0.4988301684603265
  0.9999308844533795  0.5003895433219288  0.9997785271344056
  0.9970096247339296  0.5000518602118698  0.4989937356704531
  0.5003815573000100  0.9999697978770089  0.9999755121122669
  0.5010864319658123  0.9963614017761686  0.4990292098621961
  0.5001486713640643  0.5002199467987939  0.0000147151152970
  0.2504905472601526  0.2505101073031409  0.0005022367144880
  0.2500664639161566  0.2497913924983760  0.5004528597786702
  0.2496519577704601  0.7500518134548542  0.9995626142851327
  0.2520348757831460  0.7499808499212616  0.5009435503214452
  0.7502133696203673  0.2499632389154700  0.9994601306849263
  0.7505727452697044  0.7507613188270054  0.9944530292266427
  0.2500375886260984  0.2500738773112421  0.2497833585283289
  0.2507027357565206  0.2500234296048076  0.7490260099445197
  0.2489630106649734  0.7500941391494915  0.2494702454488061
  0.2495991809636371  0.7497959175620200  0.7500816350698934
  0.7500456392020415  0.2492538205529491  0.2488834292165536
  0.7499802476746024  0.2489257287456008  0.7501958676747199
  0.7507799708771778  0.7508509467248992  0.2395638631607974
  0.7481898816639982  0.7477519098039443  0.7478484355459102
  0.0006452344143277  0.0004931539376266  0.2507249477992100
  0.9996799932061624  0.9990675991872398  0.7494132973829283
  0.0011070989788726  0.5001758611582995  0.2505784369695172
 -0.0000003612689589  0.5002485180089673  0.7500725411133754
  0.4998264435883019  0.0005468700528732  0.2506546007355389
  0.5007252471628110  0.9997271150020473  0.7496505381331386
  0.5014825611207282  0.5006674339429690  0.2532255306584725
  0.5009705976348094  0.5014688102556394  0.7486412879442821
  0.7495628069856163  0.2503801120969635  0.5006233470604596
  0.4943188704061250  0.4965217070890660  0.5012633809781909
  0.7551499330492366  0.7595579861203609  0.5066429630949778
  0.1097210905208591  0.1407146951305719  0.2448679896791145
  0.1088068868519529  0.1400330741084575  0.7513400164355157
  0.1093573813435809  0.6408684654644378  0.2488114960896520
  0.1080131083459899  0.6415191382905594  0.7501492086033421
  0.6103356673211051  0.1398745089994291  0.2497785098989638
  0.6086280390549788  0.1406839667074235  0.7498648024162050
  0.6150133347715585  0.6455835569006291  0.2564043648974825
  0.6081850568307866  0.6411111067137137  0.7613767295761891
  0.3908770638378654  0.3610877025378489  0.2522169865883880
  0.3908550835735781  0.3595881231444210  0.7469325238837543
  0.3896059823869042  0.8606619411423125  0.2485719773460329
  0.3903084367296371  0.8593329033679705  0.7507177279734525
  0.8890519028394098  0.3616740860727221  0.2510126226752265
  0.8908581792105419  0.3589769527367089  0.7483892252279909
  0.8865212538421835  0.8580735756337471  0.2623964262108759
  0.8898456710976202  0.8574337392203292  0.7458975501118279
  0.3604485854553322  0.1101584348614060  0.2473525600334741
  0.3598596565099748  0.1088400896019324  0.7492970221952607
  0.3607996170461212  0.6116811444427380  0.2507688842460097
  0.3578227782738772  0.6095123077274994  0.7502533009970097
  0.8601109063857423  0.1098831785616305  0.2482465257360354
  0.8585350491837350  0.1080084230796247  0.7507125393610475
  0.8577348845592864  0.6142335084926703  0.2606300679914936
  0.8587988788178469  0.6076169439377803  0.7538840946027052
  0.1407579349637041  0.3912357944309967  0.2473088083276808
  0.1404425434905462  0.3914632597209492  0.7484005329416860
  0.1393342764928044  0.8897612699040582  0.2488449361565338
  0.1400650276833188  0.8907892125026766  0.7509049664603021
  0.6414791308153057  0.3896051254074869  0.2469210428185856
  0.6417274616994650  0.3895304411722745  0.7520875107658717
  0.6431365334400825  0.8872525522488768  0.2601137615921063
  0.6413360446515164  0.8910463570403728  0.7500885231941501
  0.3596475796388661  0.3906174913239484  0.0022960814500382
  0.3595204660028167  0.8906944737241286  0.0008532272697644
  0.3576868230939828  0.8925948915962009  0.4997062963271833
  0.8593931469034738  0.3908411425219344  0.9998727088110093
  0.8581743937277572  0.8915635988602856  0.0004512236291476
  0.8636843104281638  0.8944865217295146  0.4874767075919584
  0.1400885828187138  0.1092791916499531  0.0009915149663911
  0.1400293613376553  0.1097449369031161  0.5014434392167743
  0.1405041731460178  0.6091911874887737  0.0010131854830534
  0.1341021148481040  0.6136794813192493  0.4996855533514207
  0.6410527252588262  0.1091874999580690  0.9997147178097395
  0.6401911553338367  0.1084117640326528  0.4998919153941156
  0.6418864375849493  0.6103270996371127  0.9992819167877337
  0.1091654125772505  0.3597935183958049  0.0016451316844179
  0.1077818849112781  0.3606912542124482  0.5018937146897574
  0.1091290828998071  0.8591173614029683  0.9997172675889991
  0.1100867817737411  0.8608644485106817  0.5002733399591399
  0.6101967614717151  0.3593677373858973  0.0013045260439600
  0.6093610377658720  0.8584475646420816  1.0001106038403631
  0.6056667088980603  0.8498807458266842  0.4901195546854121
  0.3911586234339254  0.1400227531804832  0.0013166517094891
  0.3911534582385633  0.1390704307587005  0.5010402175266739
  0.3902069812758777  0.6410387153056958  0.0001253008771502
  0.8910935757035416  0.1405963717732931  0.0007907864038716
  0.8904938953585124  0.1402786275119287  0.4996633688140135
  0.8911732247814498  0.6417513882598309  0.9993992879379658
  0.9957777750868150  0.9934679355497089  0.1256278831713164
  0.9973893026618665  0.9989006959237930  0.6248049150555595
  0.9941296224072435  0.5036807986842604  0.1260615150442407
  0.9950146628468600  0.5072601047989826  0.6241310610239618
  0.5058465318507884  0.9963823679481439  0.1259693892324375
  0.5038041399022160  0.9951023205732464  0.6241426247198389
  0.5030071905103474  0.5052746406760731  0.1258257650701091
  0.5127143162923227  0.5116494610138175  0.6289997842285493
  0.0084120411620756  0.0086000892834318  0.3729564594064963
  0.9980145211316398  0.9981123697740126  0.8751608801206590
  0.0065072536308907  0.4951218092589208  0.3740588042332372
  0.0017439934101995  0.4982156622832403  0.8754152666885890
  0.4954901029048354  0.0043441130951324  0.3741988495715680
  0.4997583109343146 -0.0001242457287157  0.8753524157491044
  0.4966245438198671  0.4959179190722095  0.8770960273630315
  0.2461298350443722  0.2465159465289547  0.3734454596795644
  0.2511786207692419  0.2513291623001269  0.8753708226392374
  0.2488533980125029  0.7508424316525196  0.3743724978400674
  0.2494164103570398  0.7500235576721390  0.8754419976622464
  0.7511946321859461  0.2492092733940929  0.8753300305024049
  0.7537119385394531  0.7542701191110263  0.8754647182445222
  0.2521988046448047  0.2513705886587944  0.1246900520432564
  0.2477185166148713  0.2474716580681971  0.6261328210736046
  0.2497176078222961  0.7498191887716306  0.1246627819682202
  0.2473541741586513  0.7513065947920667  0.6259117327533267
  0.7514785502261213  0.2491875820077427  0.1244255584192078
  0.7498670342349336  0.2472213565573846  0.6257636598610410
  0.7531403874464567  0.7518693071823804  0.1244653169781053
  0.7362162603979069  0.7309917368305667  0.6285448831335034
  0.7504570083259722  0.2487841348355332  0.3739012412354478
  0.8632601050736606  0.3858448992345952  0.5004453415815603
  0.3895883628077991  0.6462837543005886  0.5016219332440579
  0.5107845831187260  0.5052784678162658  0.3726218959615748
  0.3521720081214251  0.3849512351239809  0.4995949354416657
  0.8710356678905395  0.6305740815144839  0.4856163058435330
  0.6199592340468998  0.3650441862798461  0.4995961264535898
 
  0.00000000E+00  0.00000000E+00  0.00000000E+00
  0.00000000E+00  0.00000000E+00  0.00000000E+00
  0.00000000E+00  0.00000000E+00  0.00000000E+00
  0.00000000E+00  0.00000000E+00  0.00000000E+00
  0.00000000E+00  0.00000000E+00  0.00000000E+00
  0.00000000E+00  0.00000000E+00  0.00000000E+00
  0.00000000E+00  0.00000000E+00  0.00000000E+00
  0.00000000E+00  0.00000000E+00  0.00000000E+00
  0.00000000E+00  0.00000000E+00  0.00000000E+00
  0.00000000E+00  0.00000000E+00  0.00000000E+00
  0.00000000E+00  0.00000000E+00  0.00000000E+00
  0.00000000E+00  0.00000000E+00  0.00000000E+00
  0.00000000E+00  0.00000000E+00  0.00000000E+00
  0.00000000E+00  0.00000000E+00  0.00000000E+00
  0.00000000E+00  0.00000000E+00  0.00000000E+00
  0.00000000E+00  0.00000000E+00  0.00000000E+00
  0.00000000E+00  0.00000000E+00  0.00000000E+00
  0.00000000E+00  0.00000000E+00  0.00000000E+00
  0.00000000E+00  0.00000000E+00  0.00000000E+00
  0.00000000E+00  0.00000000E+00  0.00000000E+00
  0.00000000E+00  0.00000000E+00  0.00000000E+00
  0.00000000E+00  0.00000000E+00  0.00000000E+00
  0.00000000E+00  0.00000000E+00  0.00000000E+00
  0.00000000E+00  0.00000000E+00  0.00000000E+00
  0.00000000E+00  0.00000000E+00  0.00000000E+00
  0.00000000E+00  0.00000000E+00  0.00000000E+00
  0.00000000E+00  0.00000000E+00  0.00000000E+00
  0.00000000E+00  0.00000000E+00  0.00000000E+00
  0.00000000E+00  0.00000000E+00  0.00000000E+00
  0.00000000E+00  0.00000000E+00  0.00000000E+00
  0.00000000E+00  0.00000000E+00  0.00000000E+00
  0.00000000E+00  0.00000000E+00  0.00000000E+00
  0.00000000E+00  0.00000000E+00  0.00000000E+00
  0.00000000E+00  0.00000000E+00  0.00000000E+00
  0.00000000E+00  0.00000000E+00  0.00000000E+00
  0.00000000E+00  0.00000000E+00  0.00000000E+00
  0.00000000E+00  0.00000000E+00  0.00000000E+00
  0.00000000E+00  0.00000000E+00  0.00000000E+00
  0.00000000E+00  0.00000000E+00  0.00000000E+00
  0.00000000E+00  0.00000000E+00  0.00000000E+00
  0.00000000E+00  0.00000000E+00  0.00000000E+00
  0.00000000E+00  0.00000000E+00  0.00000000E+00
  0.00000000E+00  0.00000000E+00  0.00000000E+00
  0.00000000E+00  0.00000000E+00  0.00000000E+00
  0.00000000E+00  0.00000000E+00  0.00000000E+00
  0.00000000E+00  0.00000000E+00  0.00000000E+00
  0.00000000E+00  0.00000000E+00  0.00000000E+00
  0.00000000E+00  0.00000000E+00  0.00000000E+00
  0.00000000E+00  0.00000000E+00  0.00000000E+00
  0.00000000E+00  0.00000000E+00  0.00000000E+00
  0.00000000E+00  0.00000000E+00  0.00000000E+00
  0.00000000E+00  0.00000000E+00  0.00000000E+00
  0.00000000E+00  0.00000000E+00  0.00000000E+00
  0.00000000E+00  0.00000000E+00  0.00000000E+00
  0.00000000E+00  0.00000000E+00  0.00000000E+00
  0.00000000E+00  0.00000000E+00  0.00000000E+00
  0.00000000E+00  0.00000000E+00  0.00000000E+00
  0.00000000E+00  0.00000000E+00  0.00000000E+00
  0.00000000E+00  0.00000000E+00  0.00000000E+00
  0.00000000E+00  0.00000000E+00  0.00000000E+00
  0.00000000E+00  0.00000000E+00  0.00000000E+00
  0.00000000E+00  0.00000000E+00  0.00000000E+00
  0.00000000E+00  0.00000000E+00  0.00000000E+00
  0.00000000E+00  0.00000000E+00  0.00000000E+00
  0.00000000E+00  0.00000000E+00  0.00000000E+00
  0.00000000E+00  0.00000000E+00  0.00000000E+00
  0.00000000E+00  0.00000000E+00  0.00000000E+00
  0.00000000E+00  0.00000000E+00  0.00000000E+00
  0.00000000E+00  0.00000000E+00  0.00000000E+00
  0.00000000E+00  0.00000000E+00  0.00000000E+00
  0.00000000E+00  0.00000000E+00  0.00000000E+00
  0.00000000E+00  0.00000000E+00  0.00000000E+00
  0.00000000E+00  0.00000000E+00  0.00000000E+00
  0.00000000E+00  0.00000000E+00  0.00000000E+00
  0.00000000E+00  0.00000000E+00  0.00000000E+00
  0.00000000E+00  0.00000000E+00  0.00000000E+00
  0.00000000E+00  0.00000000E+00  0.00000000E+00
  0.00000000E+00  0.00000000E+00  0.00000000E+00
  0.00000000E+00  0.00000000E+00  0.00000000E+00
  0.00000000E+00  0.00000000E+00  0.00000000E+00
  0.00000000E+00  0.00000000E+00  0.00000000E+00
  0.00000000E+00  0.00000000E+00  0.00000000E+00
  0.00000000E+00  0.00000000E+00  0.00000000E+00
  0.00000000E+00  0.00000000E+00  0.00000000E+00
  0.00000000E+00  0.00000000E+00  0.00000000E+00
  0.00000000E+00  0.00000000E+00  0.00000000E+00
  0.00000000E+00  0.00000000E+00  0.00000000E+00
  0.00000000E+00  0.00000000E+00  0.00000000E+00
  0.00000000E+00  0.00000000E+00  0.00000000E+00
  0.00000000E+00  0.00000000E+00  0.00000000E+00
  0.00000000E+00  0.00000000E+00  0.00000000E+00
  0.00000000E+00  0.00000000E+00  0.00000000E+00
  0.00000000E+00  0.00000000E+00  0.00000000E+00
  0.00000000E+00  0.00000000E+00  0.00000000E+00
  0.00000000E+00  0.00000000E+00  0.00000000E+00
  0.00000000E+00  0.00000000E+00  0.00000000E+00
  0.00000000E+00  0.00000000E+00  0.00000000E+00
  0.00000000E+00  0.00000000E+00  0.00000000E+00
  0.00000000E+00  0.00000000E+00  0.00000000E+00
  0.00000000E+00  0.00000000E+00  0.00000000E+00
  0.00000000E+00  0.00000000E+00  0.00000000E+00
  0.00000000E+00  0.00000000E+00  0.00000000E+00
  0.00000000E+00  0.00000000E+00  0.00000000E+00
  0.00000000E+00  0.00000000E+00  0.00000000E+00
  0.00000000E+00  0.00000000E+00  0.00000000E+00
  0.00000000E+00  0.00000000E+00  0.00000000E+00
  0.00000000E+00  0.00000000E+00  0.00000000E+00
  0.00000000E+00  0.00000000E+00  0.00000000E+00
  0.00000000E+00  0.00000000E+00  0.00000000E+00
  0.00000000E+00  0.00000000E+00  0.00000000E+00
  0.00000000E+00  0.00000000E+00  0.00000000E+00
  0.00000000E+00  0.00000000E+00  0.00000000E+00
  0.00000000E+00  0.00000000E+00  0.00000000E+00
  0.00000000E+00  0.00000000E+00  0.00000000E+00
  0.00000000E+00  0.00000000E+00  0.00000000E+00
  0.00000000E+00  0.00000000E+00  0.00000000E+00
  0.00000000E+00  0.00000000E+00  0.00000000E+00
  0.00000000E+00  0.00000000E+00  0.00000000E+00
  0.00000000E+00  0.00000000E+00  0.00000000E+00
  0.00000000E+00  0.00000000E+00  0.00000000E+00
  0.00000000E+00  0.00000000E+00  0.00000000E+00
  0.00000000E+00  0.00000000E+00  0.00000000E+00
  0.00000000E+00  0.00000000E+00  0.00000000E+00
  0.00000000E+00  0.00000000E+00  0.00000000E+00
  0.00000000E+00  0.00000000E+00  0.00000000E+00
  0.00000000E+00  0.00000000E+00  0.00000000E+00
  0.00000000E+00  0.00000000E+00  0.00000000E+00
  0.00000000E+00  0.00000000E+00  0.00000000E+00
  0.00000000E+00  0.00000000E+00  0.00000000E+00
  0.00000000E+00  0.00000000E+00  0.00000000E+00
  0.00000000E+00  0.00000000E+00  0.00000000E+00
  0.00000000E+00  0.00000000E+00  0.00000000E+00
  0.00000000E+00  0.00000000E+00  0.00000000E+00
  0.00000000E+00  0.00000000E+00  0.00000000E+00
  0.00000000E+00  0.00000000E+00  0.00000000E+00
  0.00000000E+00  0.00000000E+00  0.00000000E+00
  0.00000000E+00  0.00000000E+00  0.00000000E+00
  0.00000000E+00  0.00000000E+00  0.00000000E+00
  0.00000000E+00  0.00000000E+00  0.00000000E+00
  0.00000000E+00  0.00000000E+00  0.00000000E+00
  0.00000000E+00  0.00000000E+00  0.00000000E+00
  0.00000000E+00  0.00000000E+00  0.00000000E+00
  0.00000000E+00  0.00000000E+00  0.00000000E+00
  0.00000000E+00  0.00000000E+00  0.00000000E+00
  0.00000000E+00  0.00000000E+00  0.00000000E+00
  0.00000000E+00  0.00000000E+00  0.00000000E+00
  0.00000000E+00  0.00000000E+00  0.00000000E+00
  0.00000000E+00  0.00000000E+00  0.00000000E+00
  0.00000000E+00  0.00000000E+00  0.00000000E+00
  0.00000000E+00  0.00000000E+00  0.00000000E+00
  0.00000000E+00  0.00000000E+00  0.00000000E+00
  0.00000000E+00  0.00000000E+00  0.00000000E+00
  0.00000000E+00  0.00000000E+00  0.00000000E+00
  0.00000000E+00  0.00000000E+00  0.00000000E+00
  0.00000000E+00  0.00000000E+00  0.00000000E+00
  0.00000000E+00  0.00000000E+00  0.00000000E+00
  0.00000000E+00  0.00000000E+00  0.00000000E+00
  0.00000000E+00  0.00000000E+00  0.00000000E+00
