SrTiFeO                                 
   1.00000000000000     
    11.1989999999999998    0.0000000000000000    0.0000000000000000
     0.0000000000000000   11.1989999999999998    0.0000000000000000
     0.0000000000000000    0.0000000000000000   15.9830000000000005
   Sr   Ti   Fe   O 
    32    30     2    94
Direct
  0.9986588722112788  0.2504143580774866  0.1251795333604733
  0.9970167999704412  0.2503934760741779  0.6243440606334860
  0.9999981826602944  0.7494767227177473  0.1249839945967972
  0.9930290488528127  0.7515173764242546  0.6265769178671180
  0.5007359827325001  0.2509554960823241  0.1241759999633476
  0.4955850860609194  0.2418056755017251  0.6285332993963777
  0.5004869721892788  0.7491837453258273  0.1240258644940893
  0.5083971874461541  0.7588426760535183  0.6285021438625792
  0.9970167999704412  0.2503934760741779  0.3756559393665140
  0.9986588722112788  0.2504143580774866  0.8748204666395267
  0.9930290488528127  0.7515173764242546  0.3734230821328821
  0.9999981826602944  0.7494767227177473  0.8750160054032029
  0.4955850860609194  0.2418056755017251  0.3714667006036224
  0.5007359827325001  0.2509554960823241  0.8758240000366524
  0.5083971874461541  0.7588426760535183  0.3714978561374209
  0.5004869721892788  0.7491837453258273  0.8759741355059107
  0.2491658866025729  0.9987645780969447  0.1252327794045923
  0.2513070575567057  0.0013123478135191  0.6247010605810570
  0.2500929292277556  0.4993388110041819  0.1238037446292735
  0.2457596107796874  0.4952307308592945  0.6285847611237497
  0.7508543938283396  0.0014557120374204  0.1257308831887056
  0.7483197775281044  0.0019442042771344  0.6218175075020569
  0.7502476667354727  0.5003602435580018  0.1241882655279579
  0.7530323733336709  0.5049790976235493  0.6277640170209716
  0.2513070575567057  0.0013123478135191  0.3752989394189430
  0.2491658866025729  0.9987645780969447  0.8747672205954077
  0.2457596107796874  0.4952307308592945  0.3714152388762503
  0.2500929292277556  0.4993388110041819  0.8761962553707265
  0.7483197775281044  0.0019442042771344  0.3781824924979431
  0.7508543938283396  0.0014557120374204  0.8742691168112944
  0.7530323733336709  0.5049790976235493  0.3722359829790283
  0.7502476667354727  0.5003602435580018  0.8758117344720421
  0.0002375742781590  0.0001128340686055  0.0000000000000000
  0.9940408934468349  0.0043542602386647  0.5000000000000000
  0.0002364743259612  0.4999900344371483  0.0000000000000000
  0.9960588804007710  0.5003312906536788  0.5000000000000000
  0.5000864941759295  0.9998540968201274  0.0000000000000000
  0.5023353421582887  0.9999822168055498  0.5000000000000000
  0.5000129786869190  0.4999821853486616  0.0000000000000000
  0.2499605793499839  0.2490431683189950  0.0000000000000000
  0.2471425236680261  0.2473160795682347  0.5000000000000000
  0.2497113688813524  0.7499772037971615  0.0000000000000000
  0.2388857833375593  0.7543695417724541  0.5000000000000000
  0.7503634666490223  0.2498988681101279  0.0000000000000000
  0.7501513510866353  0.7508023039482863  0.0000000000000000
  0.2490227209143241  0.2495664423006408  0.2492960515791157
  0.2490227209143241  0.2495664423006408  0.7507039484208843
  0.2511557417743869  0.7483806733944508  0.2505251743865396
  0.2511557417743869  0.7483806733944508  0.7494748256134605
  0.7482738905956523  0.2516951250570301  0.2523071738368880
  0.7482738905956523  0.2516951250570301  0.7476928261631121
  0.7502031713617162  0.7512327131578528  0.2501401928689713
  0.7502031713617162  0.7512327131578528  0.7498598071310287
  0.9998778438823727  0.0004135351618781  0.2510149038216741
  0.9998778438823727  0.0004135351618781  0.7489850961783259
  0.9999447143311181  0.5001256348461881  0.2497055052093671
  0.9999447143311181  0.5001256348461881  0.7502944947906329
  0.4996041323631682  0.0000264544038525  0.2484784631101090
  0.4996041323631682  0.0000264544038525  0.7515215368898910
  0.4997833319337875  0.5000992151258317  0.2492194124675162
  0.4997833319337875  0.5000992151258317  0.7507805875324838
  0.5027800973556469  0.4980052544445158  0.5000000000000000
  0.7449655325904214  0.2559027579792477  0.5000000000000000
  0.7521870700987766  0.7515016837273539  0.5000000000000000
  0.1091951533792975  0.1405156551104426  0.2498467436896205
  0.1091951533792975  0.1405156551104426  0.7501532563103795
  0.1103576963696812  0.6405200092290653  0.2516402271259553
  0.1103576963696812  0.6405200092290653  0.7483597728740448
  0.6078533156631848  0.1407965790580648  0.2479787313723963
  0.6078533156631848  0.1407965790580648  0.7520212686276037
  0.6088138244368707  0.6410406155143409  0.2495850875496456
  0.6088138244368707  0.6410406155143409  0.7504149124503544
  0.3905485132533949  0.3585421253095415  0.2504454457835647
  0.3905485132533949  0.3585421253095415  0.7495545542164352
  0.3913407940444031  0.8582178360228684  0.2489468028027992
  0.3913407940444031  0.8582178360228684  0.7510531971972009
  0.8900615966013132  0.3607538297289117  0.2505729553540593
  0.8900615966013132  0.3607538297289117  0.7494270446459407
  0.8909473716942867  0.8603857025375660  0.2478723695783161
  0.8909473716942867  0.8603857025375660  0.7521276304216840
  0.3587969469467712  0.1089151541431999  0.2505830273273988
  0.3587969469467712  0.1089151541431999  0.7494169726726012
  0.3594229138905253  0.6071318293803101  0.2478911385867005
  0.3594229138905253  0.6071318293803101  0.7521088614132994
  0.8591886365078761  0.1105696884286499  0.2538633572294298
  0.8591886365078761  0.1105696884286499  0.7461366427705702
  0.8607029960674654  0.6104151636966825  0.2485327904356352
  0.8607029960674654  0.6104151636966825  0.7514672095643649
  0.1402307044228551  0.3899300556558257  0.2483773265443140
  0.1402307044228551  0.3899300556558257  0.7516226734556860
  0.1423668801843045  0.8886264384966380  0.2541071749663101
  0.1423668801843045  0.8886264384966380  0.7458928250336898
  0.6393513090628625  0.3930346132255382  0.2467065824624863
  0.6393513090628625  0.3930346132255382  0.7532934175375138
  0.6402097342902848  0.8913516489540730  0.2509858632385716
  0.6402097342902848  0.8913516489540730  0.7490141367614284
  0.3595288300471861  0.3900234350304294  0.0000000000000000
  0.3587203074273679  0.8903441840892372  0.0000000000000000
  0.3677699701391733  0.8744869842410607  0.5000000000000000
  0.8600081131517129  0.3910130196819118  0.0000000000000000
  0.8595084977694880  0.8914516029582360  0.0000000000000000
  0.8611733072036858  0.8927325078723817  0.5000000000000000
  0.1414022927857201  0.1085985551888655  0.0000000000000000
  0.1433888351194490  0.1057336883327222  0.5000000000000000
  0.1408257670671289  0.6092237711088797  0.0000000000000000
  0.1555082162106214  0.6017034387402537  0.5000000000000000
  0.6407052536667446  0.1090833056595330  0.0000000000000000
  0.6289395737698993  0.1193119113549396  0.5000000000000000
  0.6401323884711765  0.6096553240251037  0.0000000000000000
  0.1096267487042735  0.3590259424072876  0.0000000000000000
  0.1097238906723487  0.3570664132060720  0.5000000000000000
  0.1089701150005980  0.8590223080050926  0.0000000000000000
  0.1093430942412241  0.8547275296255337  0.5000000000000000
  0.6098641075217286  0.3596969459120084  0.0000000000000000
  0.6088383978687658  0.8595204508269224  0.0000000000000000
  0.6139303870353312  0.8659930149849068  0.5000000000000000
  0.3910980573851506  0.1405399030894119  0.0000000000000000
  0.3839560674690207  0.1334827195170494  0.5000000000000000
  0.3899806571108331  0.6407982934665352  0.0000000000000000
  0.8916504069124181  0.1403480591609997  0.0000000000000000
  0.8977366955530466  0.1402891319842167  0.5000000000000000
  0.8906713287080626  0.6408112497688123  0.0000000000000000
  0.0015884436021185  0.0003429986483217  0.1256238212185993
  0.0022531293573852  0.9979520445036063  0.6252694226212269
  0.0009683783611049  0.5006350618203133  0.1248421783276344
  0.0020946022453688  0.5001502911439392  0.6255102844830123
  0.4991182432837858  0.9992532648594512  0.1246169871756047
  0.4981712097092173  0.9997207706113580  0.6260515142356279
  0.4987747451679779  0.5001068455338888  0.1243881517239430
  0.4999024475639745  0.4997584583178368  0.6228804154708526
  0.0022531293573852  0.9979520445036063  0.3747305773787732
  0.0015884436021185  0.0003429986483217  0.8743761787814006
  0.0020946022453688  0.5001502911439392  0.3744897155169877
  0.0009683783611049  0.5006350618203133  0.8751578216723657
  0.4981712097092173  0.9997207706113580  0.3739484857643721
  0.4991182432837858  0.9992532648594512  0.8753830128243953
  0.4987747451679779  0.5001068455338888  0.8756118482760570
  0.2492184453967370  0.2497377288589551  0.3746042482584278
  0.2504682133598866  0.2489989555427651  0.8751410063072856
  0.2645492891210540  0.7380901919630170  0.3778962766774924
  0.2485693967947259  0.7499398452504029  0.8745107553645949
  0.7515494823506795  0.2494108222316883  0.8751982890889840
  0.7490982303269155  0.7508806165350168  0.8755267249648420
  0.2504682133598866  0.2489989555427651  0.1248589936927144
  0.2492184453967370  0.2497377288589551  0.6253957517415724
  0.2485693967947259  0.7499398452504029  0.1254892446354051
  0.2645492891210540  0.7380901919630170  0.6221037233225147
  0.7515494823506795  0.2494108222316883  0.1248017109110160
  0.7376535389541292  0.2595906379109656  0.6262989918099440
  0.7490982303269155  0.7508806165350168  0.1244732750351580
  0.7517385032968997  0.7497243238104123  0.6271641029836285
  0.7376535389541292  0.2595906379109656  0.3737010081900560
  0.8558107835499270  0.3995310790860432  0.5000000000000000
  0.4999024475639745  0.4997584583178368  0.3771195845291473
  0.3683054334813668  0.3854843649356705  0.5000000000000000
  0.8980366747709924  0.6437263978538262  0.5000000000000000
  0.7517385032968997  0.7497243238104123  0.3728358970163716
  0.6343732695355656  0.6100409938302520  0.5000000000000000
 
  0.00000000E+00  0.00000000E+00  0.00000000E+00
  0.00000000E+00  0.00000000E+00  0.00000000E+00
  0.00000000E+00  0.00000000E+00  0.00000000E+00
  0.00000000E+00  0.00000000E+00  0.00000000E+00
  0.00000000E+00  0.00000000E+00  0.00000000E+00
  0.00000000E+00  0.00000000E+00  0.00000000E+00
  0.00000000E+00  0.00000000E+00  0.00000000E+00
  0.00000000E+00  0.00000000E+00  0.00000000E+00
  0.00000000E+00  0.00000000E+00  0.00000000E+00
  0.00000000E+00  0.00000000E+00  0.00000000E+00
  0.00000000E+00  0.00000000E+00  0.00000000E+00
  0.00000000E+00  0.00000000E+00  0.00000000E+00
  0.00000000E+00  0.00000000E+00  0.00000000E+00
  0.00000000E+00  0.00000000E+00  0.00000000E+00
  0.00000000E+00  0.00000000E+00  0.00000000E+00
  0.00000000E+00  0.00000000E+00  0.00000000E+00
  0.00000000E+00  0.00000000E+00  0.00000000E+00
  0.00000000E+00  0.00000000E+00  0.00000000E+00
  0.00000000E+00  0.00000000E+00  0.00000000E+00
  0.00000000E+00  0.00000000E+00  0.00000000E+00
  0.00000000E+00  0.00000000E+00  0.00000000E+00
  0.00000000E+00  0.00000000E+00  0.00000000E+00
  0.00000000E+00  0.00000000E+00  0.00000000E+00
  0.00000000E+00  0.00000000E+00  0.00000000E+00
  0.00000000E+00  0.00000000E+00  0.00000000E+00
  0.00000000E+00  0.00000000E+00  0.00000000E+00
  0.00000000E+00  0.00000000E+00  0.00000000E+00
  0.00000000E+00  0.00000000E+00  0.00000000E+00
  0.00000000E+00  0.00000000E+00  0.00000000E+00
  0.00000000E+00  0.00000000E+00  0.00000000E+00
  0.00000000E+00  0.00000000E+00  0.00000000E+00
  0.00000000E+00  0.00000000E+00  0.00000000E+00
  0.00000000E+00  0.00000000E+00  0.00000000E+00
  0.00000000E+00  0.00000000E+00  0.00000000E+00
  0.00000000E+00  0.00000000E+00  0.00000000E+00
  0.00000000E+00  0.00000000E+00  0.00000000E+00
  0.00000000E+00  0.00000000E+00  0.00000000E+00
  0.00000000E+00  0.00000000E+00  0.00000000E+00
  0.00000000E+00  0.00000000E+00  0.00000000E+00
  0.00000000E+00  0.00000000E+00  0.00000000E+00
  0.00000000E+00  0.00000000E+00  0.00000000E+00
  0.00000000E+00  0.00000000E+00  0.00000000E+00
  0.00000000E+00  0.00000000E+00  0.00000000E+00
  0.00000000E+00  0.00000000E+00  0.00000000E+00
  0.00000000E+00  0.00000000E+00  0.00000000E+00
  0.00000000E+00  0.00000000E+00  0.00000000E+00
  0.00000000E+00  0.00000000E+00  0.00000000E+00
  0.00000000E+00  0.00000000E+00  0.00000000E+00
  0.00000000E+00  0.00000000E+00  0.00000000E+00
  0.00000000E+00  0.00000000E+00  0.00000000E+00
  0.00000000E+00  0.00000000E+00  0.00000000E+00
  0.00000000E+00  0.00000000E+00  0.00000000E+00
  0.00000000E+00  0.00000000E+00  0.00000000E+00
  0.00000000E+00  0.00000000E+00  0.00000000E+00
  0.00000000E+00  0.00000000E+00  0.00000000E+00
  0.00000000E+00  0.00000000E+00  0.00000000E+00
  0.00000000E+00  0.00000000E+00  0.00000000E+00
  0.00000000E+00  0.00000000E+00  0.00000000E+00
  0.00000000E+00  0.00000000E+00  0.00000000E+00
  0.00000000E+00  0.00000000E+00  0.00000000E+00
  0.00000000E+00  0.00000000E+00  0.00000000E+00
  0.00000000E+00  0.00000000E+00  0.00000000E+00
  0.00000000E+00  0.00000000E+00  0.00000000E+00
  0.00000000E+00  0.00000000E+00  0.00000000E+00
  0.00000000E+00  0.00000000E+00  0.00000000E+00
  0.00000000E+00  0.00000000E+00  0.00000000E+00
  0.00000000E+00  0.00000000E+00  0.00000000E+00
  0.00000000E+00  0.00000000E+00  0.00000000E+00
  0.00000000E+00  0.00000000E+00  0.00000000E+00
  0.00000000E+00  0.00000000E+00  0.00000000E+00
  0.00000000E+00  0.00000000E+00  0.00000000E+00
  0.00000000E+00  0.00000000E+00  0.00000000E+00
  0.00000000E+00  0.00000000E+00  0.00000000E+00
  0.00000000E+00  0.00000000E+00  0.00000000E+00
  0.00000000E+00  0.00000000E+00  0.00000000E+00
  0.00000000E+00  0.00000000E+00  0.00000000E+00
  0.00000000E+00  0.00000000E+00  0.00000000E+00
  0.00000000E+00  0.00000000E+00  0.00000000E+00
  0.00000000E+00  0.00000000E+00  0.00000000E+00
  0.00000000E+00  0.00000000E+00  0.00000000E+00
  0.00000000E+00  0.00000000E+00  0.00000000E+00
  0.00000000E+00  0.00000000E+00  0.00000000E+00
  0.00000000E+00  0.00000000E+00  0.00000000E+00
  0.00000000E+00  0.00000000E+00  0.00000000E+00
  0.00000000E+00  0.00000000E+00  0.00000000E+00
  0.00000000E+00  0.00000000E+00  0.00000000E+00
  0.00000000E+00  0.00000000E+00  0.00000000E+00
  0.00000000E+00  0.00000000E+00  0.00000000E+00
  0.00000000E+00  0.00000000E+00  0.00000000E+00
  0.00000000E+00  0.00000000E+00  0.00000000E+00
  0.00000000E+00  0.00000000E+00  0.00000000E+00
  0.00000000E+00  0.00000000E+00  0.00000000E+00
  0.00000000E+00  0.00000000E+00  0.00000000E+00
  0.00000000E+00  0.00000000E+00  0.00000000E+00
  0.00000000E+00  0.00000000E+00  0.00000000E+00
  0.00000000E+00  0.00000000E+00  0.00000000E+00
  0.00000000E+00  0.00000000E+00  0.00000000E+00
  0.00000000E+00  0.00000000E+00  0.00000000E+00
  0.00000000E+00  0.00000000E+00  0.00000000E+00
  0.00000000E+00  0.00000000E+00  0.00000000E+00
  0.00000000E+00  0.00000000E+00  0.00000000E+00
  0.00000000E+00  0.00000000E+00  0.00000000E+00
  0.00000000E+00  0.00000000E+00  0.00000000E+00
  0.00000000E+00  0.00000000E+00  0.00000000E+00
  0.00000000E+00  0.00000000E+00  0.00000000E+00
  0.00000000E+00  0.00000000E+00  0.00000000E+00
  0.00000000E+00  0.00000000E+00  0.00000000E+00
  0.00000000E+00  0.00000000E+00  0.00000000E+00
  0.00000000E+00  0.00000000E+00  0.00000000E+00
  0.00000000E+00  0.00000000E+00  0.00000000E+00
  0.00000000E+00  0.00000000E+00  0.00000000E+00
  0.00000000E+00  0.00000000E+00  0.00000000E+00
  0.00000000E+00  0.00000000E+00  0.00000000E+00
  0.00000000E+00  0.00000000E+00  0.00000000E+00
  0.00000000E+00  0.00000000E+00  0.00000000E+00
  0.00000000E+00  0.00000000E+00  0.00000000E+00
  0.00000000E+00  0.00000000E+00  0.00000000E+00
  0.00000000E+00  0.00000000E+00  0.00000000E+00
  0.00000000E+00  0.00000000E+00  0.00000000E+00
  0.00000000E+00  0.00000000E+00  0.00000000E+00
  0.00000000E+00  0.00000000E+00  0.00000000E+00
  0.00000000E+00  0.00000000E+00  0.00000000E+00
  0.00000000E+00  0.00000000E+00  0.00000000E+00
  0.00000000E+00  0.00000000E+00  0.00000000E+00
  0.00000000E+00  0.00000000E+00  0.00000000E+00
  0.00000000E+00  0.00000000E+00  0.00000000E+00
  0.00000000E+00  0.00000000E+00  0.00000000E+00
  0.00000000E+00  0.00000000E+00  0.00000000E+00
  0.00000000E+00  0.00000000E+00  0.00000000E+00
  0.00000000E+00  0.00000000E+00  0.00000000E+00
  0.00000000E+00  0.00000000E+00  0.00000000E+00
  0.00000000E+00  0.00000000E+00  0.00000000E+00
  0.00000000E+00  0.00000000E+00  0.00000000E+00
  0.00000000E+00  0.00000000E+00  0.00000000E+00
  0.00000000E+00  0.00000000E+00  0.00000000E+00
  0.00000000E+00  0.00000000E+00  0.00000000E+00
  0.00000000E+00  0.00000000E+00  0.00000000E+00
  0.00000000E+00  0.00000000E+00  0.00000000E+00
  0.00000000E+00  0.00000000E+00  0.00000000E+00
  0.00000000E+00  0.00000000E+00  0.00000000E+00
  0.00000000E+00  0.00000000E+00  0.00000000E+00
  0.00000000E+00  0.00000000E+00  0.00000000E+00
  0.00000000E+00  0.00000000E+00  0.00000000E+00
  0.00000000E+00  0.00000000E+00  0.00000000E+00
  0.00000000E+00  0.00000000E+00  0.00000000E+00
  0.00000000E+00  0.00000000E+00  0.00000000E+00
  0.00000000E+00  0.00000000E+00  0.00000000E+00
  0.00000000E+00  0.00000000E+00  0.00000000E+00
  0.00000000E+00  0.00000000E+00  0.00000000E+00
  0.00000000E+00  0.00000000E+00  0.00000000E+00
  0.00000000E+00  0.00000000E+00  0.00000000E+00
  0.00000000E+00  0.00000000E+00  0.00000000E+00
  0.00000000E+00  0.00000000E+00  0.00000000E+00
  0.00000000E+00  0.00000000E+00  0.00000000E+00
  0.00000000E+00  0.00000000E+00  0.00000000E+00
  0.00000000E+00  0.00000000E+00  0.00000000E+00
  0.00000000E+00  0.00000000E+00  0.00000000E+00
  0.00000000E+00  0.00000000E+00  0.00000000E+00
