Sr   Ti   Fe   O                        
   1.00000000000000     
    11.1989999999999998    0.0000000000000000    0.0000000000000000
     0.0000000000000000   11.1989999999999998    0.0000000000000000
     0.0000000000000000    0.0000000000000000   15.9830000000000005
   Sr   Ti   Fe   O 
    32    30     2    94
Direct
  0.0007586691899711  0.2490690894688706  0.1242930130942104
  0.0045744458689520  0.2478436044051154  0.6300685067508341
  0.9986160132622514  0.7514049720654837  0.1248047063800137
  0.9954764520475425  0.7500018395375473  0.6271216695145553
  0.4995315554365957  0.2504971050502623  0.1232937164521361
  0.4961183023883972  0.2387217844502927  0.6296652486588640
  0.5005493397688454  0.7508304197054714  0.1223753899605403
  0.5074944781411937  0.7504757637736009  0.6284122832211350
  0.0063651480703678  0.2503376480040856  0.3725076221155626
  1.0002662222682022  0.2500730811788321  0.8749903683044902
  0.9951544907882444  0.7481285867122456  0.3747296107361686
  0.9993824041314099  0.7509117749041331  0.8735828520528952
  0.4958938172154773  0.2380735040766665  0.3699405801025494
  0.4992148783633588  0.2541278220717320  0.8732872256995401
  0.5004345227165697  0.7601052027675749  0.3687127715389115
  0.5023450596618287  0.7478670898992877  0.8743642660606791
  0.2492631387579242  0.9999819538415682  0.1243915043227071
  0.2488550729186269  0.9988470162905239  0.6277220539616658
  0.2503094547018346  0.5011504382157682  0.1234554902952787
  0.2369394717725226  0.4971234314741198  0.6294185001454347
  0.7504359400940236 -0.0000299264612507  0.1249406827891044
  0.7482963624766060  0.9950367097120277  0.6268367183246337
  0.7502996373727161  0.5010725508714813  0.1221530417345785
  0.7710976351812028  0.4972384829550931  0.6357707085783186
  0.2486817124793038  0.9991644549422967  0.3727383959995254
  0.2488868264327415  0.9999622468839819  0.8746423100401466
  0.2351721336401913  0.5000819517475269  0.3693156761572707
  0.2546276920123915  0.5003740778461514  0.8737514144987508
  0.7464416350125461  0.9940869686747594  0.3749775295286715
  0.7516817466578262  0.0000958833683818  0.8742628017662080
  0.7592480505252184  0.4995096968758374  0.3691894683298996
  0.7459619599519268  0.5019382202762352  0.8740509227577408
  0.9995248411465536  0.0005769313267679  0.9997670216583355
 -0.0002314306586447  0.9954498153235221  0.4996033291808802
  0.0003388339834670  0.4999918101462882  0.9996764731247215
  0.9988835206482451  0.5019514387968157  0.5000296690487311
  0.4998923587152531  0.0004911613910040  0.9991941996924136
  0.4978056345152719  0.9970165625610088  0.5003523733828631
  0.4994014535214762  0.5001853042402911  0.9984347129779828
  0.2506663246819022  0.2504279008497412  0.9997734196449650
  0.2463746087161280  0.2434733209296017  0.5013466051438380
  0.2506076360874311  0.7494128856446153  0.9993753574884202
  0.2434788463165206  0.7547205464866540  0.4999330469374539
  0.7503607153899868  0.2500008207604482  0.9997489210925491
  0.7639579651215133  0.2421167856493001  0.4996970002626478
  0.7505726450507496  0.7508738464032256  0.9998073006070789
  0.2508812651047003  0.2504479117385264  0.2492803030476977
  0.2521709666251721  0.2500323342125405  0.7504362526915010
  0.2488604243056290  0.7499657964226520  0.2498360147809211
  0.2530522673447703  0.7474707700585844  0.7483035581752618
  0.7488084364503995  0.2504637371712571  0.2494626747628560
  0.7472142289983948  0.2517952177184344  0.7501159604958996
  0.7484395872148363  0.7486820067187558  0.2506201573007921
  0.7485890905703729  0.7496100926699976  0.7493343131335993
  0.9989180727264682  0.9999376866152115  0.2509465298140900
  1.0005791271347366  0.9999825153950830  0.7501279125859802
  0.9992083666864106  0.4993371531703991  0.2475441781705033
  0.0021826910043055  0.4999513272282650  0.7533634779871820
  0.4995498919573158  0.9999095259750233  0.2479288014341768
  0.5000506488089572  0.9988299084377769  0.7514437019602640
  0.5010568021018885  0.4998846996774600  0.2459157014438509
  0.4764827917804274  0.5100085335597743  0.4893110507657173
  0.5012901182817561  0.5001904817139400  0.7522783035196343
  0.7538496700593592  0.7544818073960092  0.5009911045663791
  0.1113657397397537  0.1404711525114786  0.2511830068245542
  0.1096163324249675  0.1387745647592609  0.7542161130281118
  0.1102568659703652  0.6383053878638224  0.2511085757881141
  0.1130041880435934  0.6376370679158002  0.7503407048080390
  0.6095156509196606  0.1403368647602050  0.2488997008716572
  0.6095136269793922  0.1396087378689884  0.7514849939146665
  0.6076324991547645  0.6403720584951251  0.2457791241118807
  0.3919358382494514  0.3605839466176366  0.2525576006193136
  0.3849671217544305  0.3554103521444212  0.7409244260552548
  0.3888008842274092  0.8605813614658645  0.2480571613752886
  0.3910246668333851  0.8596927438143801  0.7487770427163288
  0.8896275589227695  0.3595270019161044  0.2519964425312778
  0.8896926597473612  0.3614332436743953  0.7486621493558546
  0.8881412826977664  0.8604778433685740  0.2531062564700770
  0.8908336669209107  0.8639047113389257  0.7507760185575894
  0.3606199216860169  0.1111524582901162  0.2518819676716537
  0.3599836297898637  0.1083992986011785  0.7501149344874539
  0.3606863228798530  0.6088655715297525  0.2569603170426748
  0.3611275500173853  0.6123309046946331  0.7362833419138635
  0.8583737704362336  0.1114222807980442  0.2563603841741770
  0.8600472688409350  0.1125395082979724  0.7454043110338577
  0.8607925241876034  0.6092184899815347  0.2477348528073694
  0.8668175702077709  0.6134131590649831  0.7545829304606014
  0.1398069182338109  0.3893762261553917  0.2474238932098193
  0.1384478668421287  0.3880561343836340  0.7521961339017544
  0.1386228255831397  0.8893648632326359  0.2474075851569149
  0.1398260900979525  0.8890302861616768  0.7519745339123216
  0.6415167853101774  0.3912403260560411  0.2440447288803125
  0.6384959294357461  0.8898871280849572  0.2503024234814667
  0.6402862702882732  0.8928588368694333  0.7515986145798350
  0.3579436526787759  0.3903294927508408  0.0029972224377594
  0.3586877557791202  0.8908569932826976  0.0009694387992908
  0.3509029159234902  0.8963124545659441  0.4995347930962381
  0.8591342110288139  0.3910526353228018  0.9997673786036144
  0.8514866822570688  0.3936015725853079  0.4992032707154911
  0.8599362582705581  0.8919907145044450  0.0017843249514806
  0.8582956793363682  0.9060809530152701  0.4983713547816289
  0.1409261559441205  0.1093349267274531  1.0008775040082429
  0.1436407120247834  0.1065291723764370  0.4959278767264188
  0.1412239869041516  0.6086619821522408 -0.0005806960638091
  0.1451088718181445  0.6063215250285962  0.4982539905689228
  0.6411817622040646  0.1095147516383071  0.0000352700449468
  0.6354831740054637  0.1212755110338817  0.4984597478574040
  0.6405689598276999  0.6102808135873932  0.0016843864948058
  0.1092739106277625  0.3584218702179958  0.0012281322878595
  0.1118111818035285  0.3587298533483331  0.5002291389686010
  0.1097547862476853  0.8593874406556666  0.0002328796028530
  0.1014342397846611  0.8540954556289292  0.4984779779847702
  0.6104693466871984  0.3593208534393634  0.0030127358329493
  0.6089021008054650  0.8602512778111755  0.0005634513497592
  0.5995363773399627  0.8616990678482020  0.4994694442822991
  0.3914245006064941  0.1411903996927753  0.9999075841694052
  0.3896682642160138  0.1424036709951122  0.4992263563390152
  0.3904667368901329  0.6416393108763027  0.0015996414387048
  0.3930646293429162  0.6518678705765725  0.4978006488075779
  0.8912666393849651  0.1416971411698747  0.9995687566750089
  0.8986074540260205  0.1479912833173629  0.4977709730021095
  0.8915674251096101  0.6405717781711679  0.0005466945220366
  0.9968515069136828  0.0029632902926997  0.1264111647456718
  0.0048607163116733  0.0023072556111328  0.6240623037591732
 -0.0000552689289808  0.4990174522829059  0.1246248335323203
  0.0038529554081673  0.4987308575039483  0.6258972595165633
  0.4990895900926830  0.0014214816391266  0.1248368520513062
  0.5000497817692939  0.0023036835756777  0.6255110230323605
  0.4944617911397445  0.5008132407368684  0.1262921639588651
  0.0038831189647104  0.0004940208766393  0.3743670261317762
  0.9977656762097039  0.0011849524266265  0.8761313490451178
  0.0020795640966737  0.4968109750979344  0.3736175391709749
  0.0015926357240157  0.4978072915550686  0.8761495308731984
  0.4987328867201049  1.0001453250807093  0.3735962951244299
  0.4982075672196268 -0.0005782510288073  0.8756000828965430
  0.4957324351240737  0.4977385341481721  0.8808484729846718
  0.2530230962970623  0.2583009624866168  0.3759283124046375
  0.2533276598305886  0.2515820060316687  0.8759649998764401
  0.2467076081151423  0.7542620515284691  0.3745401620596609
  0.2548365867110040  0.7458161403984170  0.8740972985538291
  0.7349779547984340  0.2629391411712962  0.3781616569114550
  0.7502193828878035  0.2509863515067589  0.8748381770694568
  0.7414369792860619  0.7385817199645485  0.3732979474523948
  0.7521154308459232  0.7531078363909671  0.8774707739040986
  0.2524507157759989  0.2483740961333525  0.1260824053114251
  0.2401731740742665  0.2414172338264411  0.6249906786900741
  0.2501168084678019  0.7463057326241164  0.1256375501861664
  0.2428206441217161  0.7548475633558854  0.6226307377747325
  0.7542821718544094  0.2466535523381905  0.1257635032128498
  0.7409751767546431  0.2557181613233357  0.6204507042141163
  0.7516379872351081  0.7520391739190494  0.1253000913867616
  0.6416207482235066  0.3875839025458941  0.7470921646288859
  0.6160006631601939  0.6449104306080174  0.7520803408213578
  0.5240512304113677  0.4938134210372668  0.3781106666586802
  0.3744225526856470  0.3852568869058661  0.5173944242677466
  0.7520462692735499  0.7525871522934122  0.6276959519581709
  0.8950663723651037  0.6349071146365132  0.4991862708495288
  0.5966687235791037  0.5355634537111059  0.5612346001728401
 
  0.00000000E+00  0.00000000E+00  0.00000000E+00
  0.00000000E+00  0.00000000E+00  0.00000000E+00
  0.00000000E+00  0.00000000E+00  0.00000000E+00
  0.00000000E+00  0.00000000E+00  0.00000000E+00
  0.00000000E+00  0.00000000E+00  0.00000000E+00
  0.00000000E+00  0.00000000E+00  0.00000000E+00
  0.00000000E+00  0.00000000E+00  0.00000000E+00
  0.00000000E+00  0.00000000E+00  0.00000000E+00
  0.00000000E+00  0.00000000E+00  0.00000000E+00
  0.00000000E+00  0.00000000E+00  0.00000000E+00
  0.00000000E+00  0.00000000E+00  0.00000000E+00
  0.00000000E+00  0.00000000E+00  0.00000000E+00
  0.00000000E+00  0.00000000E+00  0.00000000E+00
  0.00000000E+00  0.00000000E+00  0.00000000E+00
  0.00000000E+00  0.00000000E+00  0.00000000E+00
  0.00000000E+00  0.00000000E+00  0.00000000E+00
  0.00000000E+00  0.00000000E+00  0.00000000E+00
  0.00000000E+00  0.00000000E+00  0.00000000E+00
  0.00000000E+00  0.00000000E+00  0.00000000E+00
  0.00000000E+00  0.00000000E+00  0.00000000E+00
  0.00000000E+00  0.00000000E+00  0.00000000E+00
  0.00000000E+00  0.00000000E+00  0.00000000E+00
  0.00000000E+00  0.00000000E+00  0.00000000E+00
  0.00000000E+00  0.00000000E+00  0.00000000E+00
  0.00000000E+00  0.00000000E+00  0.00000000E+00
  0.00000000E+00  0.00000000E+00  0.00000000E+00
  0.00000000E+00  0.00000000E+00  0.00000000E+00
  0.00000000E+00  0.00000000E+00  0.00000000E+00
  0.00000000E+00  0.00000000E+00  0.00000000E+00
  0.00000000E+00  0.00000000E+00  0.00000000E+00
  0.00000000E+00  0.00000000E+00  0.00000000E+00
  0.00000000E+00  0.00000000E+00  0.00000000E+00
  0.00000000E+00  0.00000000E+00  0.00000000E+00
  0.00000000E+00  0.00000000E+00  0.00000000E+00
  0.00000000E+00  0.00000000E+00  0.00000000E+00
  0.00000000E+00  0.00000000E+00  0.00000000E+00
  0.00000000E+00  0.00000000E+00  0.00000000E+00
  0.00000000E+00  0.00000000E+00  0.00000000E+00
  0.00000000E+00  0.00000000E+00  0.00000000E+00
  0.00000000E+00  0.00000000E+00  0.00000000E+00
  0.00000000E+00  0.00000000E+00  0.00000000E+00
  0.00000000E+00  0.00000000E+00  0.00000000E+00
  0.00000000E+00  0.00000000E+00  0.00000000E+00
  0.00000000E+00  0.00000000E+00  0.00000000E+00
  0.00000000E+00  0.00000000E+00  0.00000000E+00
  0.00000000E+00  0.00000000E+00  0.00000000E+00
  0.00000000E+00  0.00000000E+00  0.00000000E+00
  0.00000000E+00  0.00000000E+00  0.00000000E+00
  0.00000000E+00  0.00000000E+00  0.00000000E+00
  0.00000000E+00  0.00000000E+00  0.00000000E+00
  0.00000000E+00  0.00000000E+00  0.00000000E+00
  0.00000000E+00  0.00000000E+00  0.00000000E+00
  0.00000000E+00  0.00000000E+00  0.00000000E+00
  0.00000000E+00  0.00000000E+00  0.00000000E+00
  0.00000000E+00  0.00000000E+00  0.00000000E+00
  0.00000000E+00  0.00000000E+00  0.00000000E+00
  0.00000000E+00  0.00000000E+00  0.00000000E+00
  0.00000000E+00  0.00000000E+00  0.00000000E+00
  0.00000000E+00  0.00000000E+00  0.00000000E+00
  0.00000000E+00  0.00000000E+00  0.00000000E+00
  0.00000000E+00  0.00000000E+00  0.00000000E+00
  0.00000000E+00  0.00000000E+00  0.00000000E+00
  0.00000000E+00  0.00000000E+00  0.00000000E+00
  0.00000000E+00  0.00000000E+00  0.00000000E+00
  0.00000000E+00  0.00000000E+00  0.00000000E+00
  0.00000000E+00  0.00000000E+00  0.00000000E+00
  0.00000000E+00  0.00000000E+00  0.00000000E+00
  0.00000000E+00  0.00000000E+00  0.00000000E+00
  0.00000000E+00  0.00000000E+00  0.00000000E+00
  0.00000000E+00  0.00000000E+00  0.00000000E+00
  0.00000000E+00  0.00000000E+00  0.00000000E+00
  0.00000000E+00  0.00000000E+00  0.00000000E+00
  0.00000000E+00  0.00000000E+00  0.00000000E+00
  0.00000000E+00  0.00000000E+00  0.00000000E+00
  0.00000000E+00  0.00000000E+00  0.00000000E+00
  0.00000000E+00  0.00000000E+00  0.00000000E+00
  0.00000000E+00  0.00000000E+00  0.00000000E+00
  0.00000000E+00  0.00000000E+00  0.00000000E+00
  0.00000000E+00  0.00000000E+00  0.00000000E+00
  0.00000000E+00  0.00000000E+00  0.00000000E+00
  0.00000000E+00  0.00000000E+00  0.00000000E+00
  0.00000000E+00  0.00000000E+00  0.00000000E+00
  0.00000000E+00  0.00000000E+00  0.00000000E+00
  0.00000000E+00  0.00000000E+00  0.00000000E+00
  0.00000000E+00  0.00000000E+00  0.00000000E+00
  0.00000000E+00  0.00000000E+00  0.00000000E+00
  0.00000000E+00  0.00000000E+00  0.00000000E+00
  0.00000000E+00  0.00000000E+00  0.00000000E+00
  0.00000000E+00  0.00000000E+00  0.00000000E+00
  0.00000000E+00  0.00000000E+00  0.00000000E+00
  0.00000000E+00  0.00000000E+00  0.00000000E+00
  0.00000000E+00  0.00000000E+00  0.00000000E+00
  0.00000000E+00  0.00000000E+00  0.00000000E+00
  0.00000000E+00  0.00000000E+00  0.00000000E+00
  0.00000000E+00  0.00000000E+00  0.00000000E+00
  0.00000000E+00  0.00000000E+00  0.00000000E+00
  0.00000000E+00  0.00000000E+00  0.00000000E+00
  0.00000000E+00  0.00000000E+00  0.00000000E+00
  0.00000000E+00  0.00000000E+00  0.00000000E+00
  0.00000000E+00  0.00000000E+00  0.00000000E+00
  0.00000000E+00  0.00000000E+00  0.00000000E+00
  0.00000000E+00  0.00000000E+00  0.00000000E+00
  0.00000000E+00  0.00000000E+00  0.00000000E+00
  0.00000000E+00  0.00000000E+00  0.00000000E+00
  0.00000000E+00  0.00000000E+00  0.00000000E+00
  0.00000000E+00  0.00000000E+00  0.00000000E+00
  0.00000000E+00  0.00000000E+00  0.00000000E+00
  0.00000000E+00  0.00000000E+00  0.00000000E+00
  0.00000000E+00  0.00000000E+00  0.00000000E+00
  0.00000000E+00  0.00000000E+00  0.00000000E+00
  0.00000000E+00  0.00000000E+00  0.00000000E+00
  0.00000000E+00  0.00000000E+00  0.00000000E+00
  0.00000000E+00  0.00000000E+00  0.00000000E+00
  0.00000000E+00  0.00000000E+00  0.00000000E+00
  0.00000000E+00  0.00000000E+00  0.00000000E+00
  0.00000000E+00  0.00000000E+00  0.00000000E+00
  0.00000000E+00  0.00000000E+00  0.00000000E+00
  0.00000000E+00  0.00000000E+00  0.00000000E+00
  0.00000000E+00  0.00000000E+00  0.00000000E+00
  0.00000000E+00  0.00000000E+00  0.00000000E+00
  0.00000000E+00  0.00000000E+00  0.00000000E+00
  0.00000000E+00  0.00000000E+00  0.00000000E+00
  0.00000000E+00  0.00000000E+00  0.00000000E+00
  0.00000000E+00  0.00000000E+00  0.00000000E+00
  0.00000000E+00  0.00000000E+00  0.00000000E+00
  0.00000000E+00  0.00000000E+00  0.00000000E+00
  0.00000000E+00  0.00000000E+00  0.00000000E+00
  0.00000000E+00  0.00000000E+00  0.00000000E+00
  0.00000000E+00  0.00000000E+00  0.00000000E+00
  0.00000000E+00  0.00000000E+00  0.00000000E+00
  0.00000000E+00  0.00000000E+00  0.00000000E+00
  0.00000000E+00  0.00000000E+00  0.00000000E+00
  0.00000000E+00  0.00000000E+00  0.00000000E+00
  0.00000000E+00  0.00000000E+00  0.00000000E+00
  0.00000000E+00  0.00000000E+00  0.00000000E+00
  0.00000000E+00  0.00000000E+00  0.00000000E+00
  0.00000000E+00  0.00000000E+00  0.00000000E+00
  0.00000000E+00  0.00000000E+00  0.00000000E+00
  0.00000000E+00  0.00000000E+00  0.00000000E+00
  0.00000000E+00  0.00000000E+00  0.00000000E+00
  0.00000000E+00  0.00000000E+00  0.00000000E+00
  0.00000000E+00  0.00000000E+00  0.00000000E+00
  0.00000000E+00  0.00000000E+00  0.00000000E+00
  0.00000000E+00  0.00000000E+00  0.00000000E+00
  0.00000000E+00  0.00000000E+00  0.00000000E+00
  0.00000000E+00  0.00000000E+00  0.00000000E+00
  0.00000000E+00  0.00000000E+00  0.00000000E+00
  0.00000000E+00  0.00000000E+00  0.00000000E+00
  0.00000000E+00  0.00000000E+00  0.00000000E+00
  0.00000000E+00  0.00000000E+00  0.00000000E+00
  0.00000000E+00  0.00000000E+00  0.00000000E+00
  0.00000000E+00  0.00000000E+00  0.00000000E+00
  0.00000000E+00  0.00000000E+00  0.00000000E+00
  0.00000000E+00  0.00000000E+00  0.00000000E+00
  0.00000000E+00  0.00000000E+00  0.00000000E+00
  0.00000000E+00  0.00000000E+00  0.00000000E+00
  0.00000000E+00  0.00000000E+00  0.00000000E+00
  0.00000000E+00  0.00000000E+00  0.00000000E+00
