Sr   Ti   O                             
   1.00000000000000     
    11.1989999999999998    0.0000000000000000    0.0000000000000000
     0.0000000000000000   11.1989999999999998    0.0000000000000000
     0.0000000000000000    0.0000000000000000   15.9830000000000005
   Sr   Ti   O 
    32    32    94
Direct
  1.0000815141817887  0.2489949469970313  0.1245123460912222
  0.0025689466271843  0.2470684887031528  0.6275873489552715
  0.9990464128309849  0.7512386938513640  0.1250497193823419
  0.9993771355033658  0.7497203470561600  0.6276099454783406
  0.5004662581878079  0.2506268157801426  0.1251304479625615
  0.4981111677218280  0.2360818569792758  0.6275850980524798
  0.4998688662564030  0.7513957702156332  0.1236181373602453
  0.4992003199358877  0.7531889304427101  0.6281142930300895
  0.0027502312897465  0.2482624314460682  0.3729953609265896
  0.9995796381500278  0.2496053958248833  0.8753102761486761
  0.9976649070557725  0.7494602056346233  0.3739406822178428
  0.9995015497494736  0.7505280392042577  0.8753083914638125
  0.4976216847769770  0.2392356264282414  0.3702033373757191
  0.5004019680778435  0.2470792595743300  0.8767649054822306
  0.4977479634942964  0.7560739458535473  0.3676462578484482
  0.5013904063084378  0.7543655943670290  0.8777282942505871
  0.2496168703866593  0.9999161868610988  0.1248801731833314
  0.2488296466182011  0.9988073908835363  0.6260665979471958
  0.2502038165296329  0.5013419332449444  0.1253980969090870
  0.2359569732563500  0.4985317682857592  0.6275623511265536
  0.7506988333834640  0.9998606715474431  0.1248616900829190
  0.7494486312518913  0.9988341349253068  0.6271511101924282
  0.7502769157418182  0.5016369173162198  0.1233201170728573
  0.7695303408133157  0.4948078490762885  0.6334373726566499
  0.2483883940223435  0.9986846206864769  0.3725402068695660
  0.2495319255219748  0.0002622453471394  0.8750297633523403
  0.2369476111720323  0.5019091084886900  0.3715431053640266
  0.2476081401595489  0.5004616241050565  0.8775509096188288
  0.7483312475826572  0.9988504385512449  0.3713713661348457
  0.7514555803041341  0.0002697960706100  0.8753807633622427
  0.7601431211282296  0.4963200628640956  0.3670551319002336
  0.7529792273444170  0.5010246599710712  0.8773884962181747
  0.9999524047375024  0.0004776248132849  0.9995834734308061
  0.9986237645711133  0.9989674572208983  0.4994722661085503
  0.0003569904658341  0.4998022235168777  0.0003884843240009
  0.9979256011612732  0.4988964192081919  0.4997507662755092
  0.4998073688448639  0.0007274047093629  0.0001202359462091
  0.4979775757109591  0.9970627156991073  0.4995626646074849
  0.4988760993971027  0.5000751189300282  0.0046515501676044
  0.2508181134046394  0.2505994036000680  0.0001923300382981
  0.2472793132779154  0.2445484924128175  0.5009098239052379
  0.2505296328510644  0.7496696656374418  0.0000426317266351
  0.2433802770693650  0.7540836035881103  0.4991956472130931
  0.7502290837079878  0.2500890713142815  0.9996874390253474
  0.7555124305338066  0.2444762650528886  0.4986912957630131
  0.7504122657702987  0.7507888600707036  0.0002428921085968
  0.2505707690443587  0.2508090288056714  0.2499249618235000
  0.2509088318152969  0.2498767468096069  0.7499361629880572
  0.2495228186265752  0.7488938305048961  0.2495885081541110
  0.2510408817414433  0.7499009065072297  0.7494000726689217
  0.7491951132487322  0.2509579329297807  0.2481051104023262
  0.7488799160383841  0.2497507257178272  0.7494533659856542
  0.7484569498335190  0.7486166968219534  0.2503857581075542
  0.7501977433005377  0.7505462100245914  0.7505739360558519
  0.9997709911432842  0.9995018303503321  0.2501200230564368
  0.0001740599663470  0.9996447275146472  0.7501955628103371
 -0.0000249817140585  0.4996086203500880  0.2478809230162796
  0.0015615861022653  0.4996541384071836  0.7526874583048644
  0.4997058385573807  0.9997102706468358  0.2480385609503221
  0.5002590288673738  0.9989739876490480  0.7513767946208165
  0.5015870111106036  0.4998676375172872  0.2500703315735388
  0.5013132048261507  0.5007656617412138  0.7594689990419804
  0.4823743045159142  0.5061550392363580  0.4931652096479571
  0.7522624931442244  0.7555568829718716  0.5021473392958617
  0.1112967975016630  0.1412182882794892  0.2503886518471699
  0.1113982346629926  0.1400653909748722  0.7530918270857342
  0.1083734848059887  0.6401041610522211  0.2501759488678603
  0.1132967810285663  0.6377993633770265  0.7497453976815781
  0.6100977696628531  0.1391931504935652  0.2488532203810306
  0.6101460765853914  0.1397477785323821  0.7511833427947662
  0.6088266614200480  0.6419519369341579  0.2439877816412569
  0.3910722597419689  0.3595397683258360  0.2544766904246123
  0.3926374914463069  0.3646523129762708  0.7371436461220239
  0.3886008197334681  0.8612830753162374  0.2485094298731658
  0.3898575383384086  0.8603906389289074  0.7506972039605126
  0.8915936682810242  0.3588605767061295  0.2521076855414677
  0.8891196073954505  0.3610629983887547  0.7486079166940230
  0.8890438566934058  0.8607866017861479  0.2522723362736185
  0.8912253415047809  0.8618094559458274  0.7524470533195314
  0.3606842549565240  0.1110363794391602  0.2520796417875016
  0.3620982320654996  0.1117849939633997  0.7485723292758690
  0.3558979631114077  0.6123154587733586  0.2565125799739746
  0.3661663295180880  0.6085505321909433  0.7365883125744351
  0.8603482088903525  0.1103789861321305  0.2535211615419161
  0.8601977442665117  0.1115171268216736  0.7474084307277772
  0.8604537905892697  0.6093019036967229  0.2473282867861626
  0.8637178230365953  0.6119963684861044  0.7536040939850274
  0.1408523363861297  0.3908682333758219  0.2492952132331013
  0.1405246584749338  0.3892115899278201  0.7516471689643106
  0.1383919017124950  0.8909470280576521  0.2472737255872453
  0.1407784305637666  0.8888996772682705  0.7509121541782465
  0.6458468242657354  0.3879049495712887  0.2444504532112392
  0.6391046784630644  0.8900505189879079  0.2494354676554312
  0.6397755461658861  0.8906853538081559  0.7517988180412991
  0.3583946699003169  0.3914464830411622  0.0003489386470654
  0.3592993427404305  0.8906558234733333  0.9993255122428681
  0.3551580670811524  0.8922185543551837  0.4999282889491987
  0.8594954989632509  0.3906190435375015  0.9998287101588686
  0.8537211447754938  0.3924690844453158  0.4988976598016198
  0.8602621328811439  0.8913447860071246  0.9995849130501553
  0.8572256627449434  0.8985538869550169  0.4968255699098397
  0.1416211898070193  0.1103065853497771  0.9992496661094015
  0.1432556667824451  0.1070981128866704  0.4986352156613515
  0.1405238858056231  0.6093030209811630  0.9998414272477726
  0.1369428347640804  0.6103290148196778  0.4994573070476500
  0.6407128408977748  0.1097504590120818  0.9991135496813560
  0.6382416406218286  0.1111778878208317  0.4998480578196735
  0.6394330768177326  0.6093120359124237  0.9989540712025418
  0.1099867541151910  0.3588549363893730  0.9994360056479366
  0.1107946557870350  0.3599939570424960  0.5003605229380876
  0.1099972513541115  0.8599204471412888  0.9985984046192772
  0.1035927785795216  0.8573151340622116  0.5013995042923286
  0.6094339037332548  0.3594472963046290  0.9995477982901152
  0.6094192188174627  0.8603128306990012  0.0004787840618172
  0.6015905211659960  0.8501841551369289  0.4999831267525221
  0.3911905409590697  0.1414360906183236  0.0002775658995020
  0.3907998315839538  0.1394521547599523  0.4996879849726549
  0.3907022105122055  0.6414910602334976  0.9989425305196253
  0.3852091823886695  0.6419852967787889  0.4943403655167955
  0.8912894697656418  0.1409323445263247  0.9978826719609604
  0.8978619182617371  0.1440173819454720  0.5020014020909818
  0.8904742542454163  0.6399866644626541  0.9996689059524626
  0.9982970827085107  0.0022729649024778  0.1246265431010618
  0.0022724745598939  0.0002398138929601  0.6257341703957442
  0.0003874730443186  0.4983839506405963  0.1246286133754527
  0.0021628011148455  0.4992015749159008  0.6255443834675756
  0.4987995021363395  0.0009968719763133  0.1246543571326865
  0.5012473727584389  0.9989702697030247  0.6249407710523411
  0.4949228895629078  0.5000467643559956  0.1229018349486524
  0.0038236300602354  0.0013149781757022  0.3747767302442295
  0.9999075686786371  0.0014585174332683  0.8750035116734400
  0.0003725981926276  0.5003161518659237  0.3748296800533364
  0.0008780388321447  0.4985258759170215  0.8755963826448124
  0.5009438249516632  0.9982477727373071  0.3747673803777684
  0.4985646432892969  0.0005977624028696  0.8752637395025030
  0.4923495741487569  0.4969642182617612  0.8747892624434468
  0.2518674756288298  0.2555149723004512  0.3770966907074255
  0.2573833616769239  0.2536087118160035  0.8738575401794116
  0.2432610796856168  0.7562489462518051  0.3753770945601391
  0.2539494473643434  0.7447790011889502  0.8730453300199642
  0.7397188385569998  0.2550095099245014  0.3771422836850804
  0.7494723765798154  0.2523609408835342  0.8736845296751126
  0.7421349584528980  0.7398386929273127  0.3728043948856995
  0.7498657532260459  0.7512044117759331  0.8762169464751793
  0.2525108887030764  0.2507893401726374  0.1255843657204936
  0.2429320477565461  0.2443459636488174  0.6253734130528680
  0.2501365539373348  0.7485765791385155  0.1242390128581416
  0.2476915681198626  0.7520045498093263  0.6238126438980144
  0.7540828733092928  0.2462162769188035  0.1238577934269073
  0.7417032339871550  0.2538865400981527  0.6238651246129716
  0.7522113432550541  0.7519848222302228  0.1239056886664965
  0.6373586536317273  0.3930616412566378  0.7466837422135593
  0.6089885059551007  0.6390212993676515  0.7528009054534418
  0.5297757374250893  0.5001222505163521  0.3818200224641786
  0.3713549740620101  0.3847986135856161  0.5156935894942107
  0.7529737781086087  0.7543351426207416  0.6299013537686414
  0.8823174341849915  0.6352105836314764  0.5017122219432985
  0.5893243089475618  0.5573713545039835  0.5712941642968730
 
  0.00000000E+00  0.00000000E+00  0.00000000E+00
  0.00000000E+00  0.00000000E+00  0.00000000E+00
  0.00000000E+00  0.00000000E+00  0.00000000E+00
  0.00000000E+00  0.00000000E+00  0.00000000E+00
  0.00000000E+00  0.00000000E+00  0.00000000E+00
  0.00000000E+00  0.00000000E+00  0.00000000E+00
  0.00000000E+00  0.00000000E+00  0.00000000E+00
  0.00000000E+00  0.00000000E+00  0.00000000E+00
  0.00000000E+00  0.00000000E+00  0.00000000E+00
  0.00000000E+00  0.00000000E+00  0.00000000E+00
  0.00000000E+00  0.00000000E+00  0.00000000E+00
  0.00000000E+00  0.00000000E+00  0.00000000E+00
  0.00000000E+00  0.00000000E+00  0.00000000E+00
  0.00000000E+00  0.00000000E+00  0.00000000E+00
  0.00000000E+00  0.00000000E+00  0.00000000E+00
  0.00000000E+00  0.00000000E+00  0.00000000E+00
  0.00000000E+00  0.00000000E+00  0.00000000E+00
  0.00000000E+00  0.00000000E+00  0.00000000E+00
  0.00000000E+00  0.00000000E+00  0.00000000E+00
  0.00000000E+00  0.00000000E+00  0.00000000E+00
  0.00000000E+00  0.00000000E+00  0.00000000E+00
  0.00000000E+00  0.00000000E+00  0.00000000E+00
  0.00000000E+00  0.00000000E+00  0.00000000E+00
  0.00000000E+00  0.00000000E+00  0.00000000E+00
  0.00000000E+00  0.00000000E+00  0.00000000E+00
  0.00000000E+00  0.00000000E+00  0.00000000E+00
  0.00000000E+00  0.00000000E+00  0.00000000E+00
  0.00000000E+00  0.00000000E+00  0.00000000E+00
  0.00000000E+00  0.00000000E+00  0.00000000E+00
  0.00000000E+00  0.00000000E+00  0.00000000E+00
  0.00000000E+00  0.00000000E+00  0.00000000E+00
  0.00000000E+00  0.00000000E+00  0.00000000E+00
  0.00000000E+00  0.00000000E+00  0.00000000E+00
  0.00000000E+00  0.00000000E+00  0.00000000E+00
  0.00000000E+00  0.00000000E+00  0.00000000E+00
  0.00000000E+00  0.00000000E+00  0.00000000E+00
  0.00000000E+00  0.00000000E+00  0.00000000E+00
  0.00000000E+00  0.00000000E+00  0.00000000E+00
  0.00000000E+00  0.00000000E+00  0.00000000E+00
  0.00000000E+00  0.00000000E+00  0.00000000E+00
  0.00000000E+00  0.00000000E+00  0.00000000E+00
  0.00000000E+00  0.00000000E+00  0.00000000E+00
  0.00000000E+00  0.00000000E+00  0.00000000E+00
  0.00000000E+00  0.00000000E+00  0.00000000E+00
  0.00000000E+00  0.00000000E+00  0.00000000E+00
  0.00000000E+00  0.00000000E+00  0.00000000E+00
  0.00000000E+00  0.00000000E+00  0.00000000E+00
  0.00000000E+00  0.00000000E+00  0.00000000E+00
  0.00000000E+00  0.00000000E+00  0.00000000E+00
  0.00000000E+00  0.00000000E+00  0.00000000E+00
  0.00000000E+00  0.00000000E+00  0.00000000E+00
  0.00000000E+00  0.00000000E+00  0.00000000E+00
  0.00000000E+00  0.00000000E+00  0.00000000E+00
  0.00000000E+00  0.00000000E+00  0.00000000E+00
  0.00000000E+00  0.00000000E+00  0.00000000E+00
  0.00000000E+00  0.00000000E+00  0.00000000E+00
  0.00000000E+00  0.00000000E+00  0.00000000E+00
  0.00000000E+00  0.00000000E+00  0.00000000E+00
  0.00000000E+00  0.00000000E+00  0.00000000E+00
  0.00000000E+00  0.00000000E+00  0.00000000E+00
  0.00000000E+00  0.00000000E+00  0.00000000E+00
  0.00000000E+00  0.00000000E+00  0.00000000E+00
  0.00000000E+00  0.00000000E+00  0.00000000E+00
  0.00000000E+00  0.00000000E+00  0.00000000E+00
  0.00000000E+00  0.00000000E+00  0.00000000E+00
  0.00000000E+00  0.00000000E+00  0.00000000E+00
  0.00000000E+00  0.00000000E+00  0.00000000E+00
  0.00000000E+00  0.00000000E+00  0.00000000E+00
  0.00000000E+00  0.00000000E+00  0.00000000E+00
  0.00000000E+00  0.00000000E+00  0.00000000E+00
  0.00000000E+00  0.00000000E+00  0.00000000E+00
  0.00000000E+00  0.00000000E+00  0.00000000E+00
  0.00000000E+00  0.00000000E+00  0.00000000E+00
  0.00000000E+00  0.00000000E+00  0.00000000E+00
  0.00000000E+00  0.00000000E+00  0.00000000E+00
  0.00000000E+00  0.00000000E+00  0.00000000E+00
  0.00000000E+00  0.00000000E+00  0.00000000E+00
  0.00000000E+00  0.00000000E+00  0.00000000E+00
  0.00000000E+00  0.00000000E+00  0.00000000E+00
  0.00000000E+00  0.00000000E+00  0.00000000E+00
  0.00000000E+00  0.00000000E+00  0.00000000E+00
  0.00000000E+00  0.00000000E+00  0.00000000E+00
  0.00000000E+00  0.00000000E+00  0.00000000E+00
  0.00000000E+00  0.00000000E+00  0.00000000E+00
  0.00000000E+00  0.00000000E+00  0.00000000E+00
  0.00000000E+00  0.00000000E+00  0.00000000E+00
  0.00000000E+00  0.00000000E+00  0.00000000E+00
  0.00000000E+00  0.00000000E+00  0.00000000E+00
  0.00000000E+00  0.00000000E+00  0.00000000E+00
  0.00000000E+00  0.00000000E+00  0.00000000E+00
  0.00000000E+00  0.00000000E+00  0.00000000E+00
  0.00000000E+00  0.00000000E+00  0.00000000E+00
  0.00000000E+00  0.00000000E+00  0.00000000E+00
  0.00000000E+00  0.00000000E+00  0.00000000E+00
  0.00000000E+00  0.00000000E+00  0.00000000E+00
  0.00000000E+00  0.00000000E+00  0.00000000E+00
  0.00000000E+00  0.00000000E+00  0.00000000E+00
  0.00000000E+00  0.00000000E+00  0.00000000E+00
  0.00000000E+00  0.00000000E+00  0.00000000E+00
  0.00000000E+00  0.00000000E+00  0.00000000E+00
  0.00000000E+00  0.00000000E+00  0.00000000E+00
  0.00000000E+00  0.00000000E+00  0.00000000E+00
  0.00000000E+00  0.00000000E+00  0.00000000E+00
  0.00000000E+00  0.00000000E+00  0.00000000E+00
  0.00000000E+00  0.00000000E+00  0.00000000E+00
  0.00000000E+00  0.00000000E+00  0.00000000E+00
  0.00000000E+00  0.00000000E+00  0.00000000E+00
  0.00000000E+00  0.00000000E+00  0.00000000E+00
  0.00000000E+00  0.00000000E+00  0.00000000E+00
  0.00000000E+00  0.00000000E+00  0.00000000E+00
  0.00000000E+00  0.00000000E+00  0.00000000E+00
  0.00000000E+00  0.00000000E+00  0.00000000E+00
  0.00000000E+00  0.00000000E+00  0.00000000E+00
  0.00000000E+00  0.00000000E+00  0.00000000E+00
  0.00000000E+00  0.00000000E+00  0.00000000E+00
  0.00000000E+00  0.00000000E+00  0.00000000E+00
  0.00000000E+00  0.00000000E+00  0.00000000E+00
  0.00000000E+00  0.00000000E+00  0.00000000E+00
  0.00000000E+00  0.00000000E+00  0.00000000E+00
  0.00000000E+00  0.00000000E+00  0.00000000E+00
  0.00000000E+00  0.00000000E+00  0.00000000E+00
  0.00000000E+00  0.00000000E+00  0.00000000E+00
  0.00000000E+00  0.00000000E+00  0.00000000E+00
  0.00000000E+00  0.00000000E+00  0.00000000E+00
  0.00000000E+00  0.00000000E+00  0.00000000E+00
  0.00000000E+00  0.00000000E+00  0.00000000E+00
  0.00000000E+00  0.00000000E+00  0.00000000E+00
  0.00000000E+00  0.00000000E+00  0.00000000E+00
  0.00000000E+00  0.00000000E+00  0.00000000E+00
  0.00000000E+00  0.00000000E+00  0.00000000E+00
  0.00000000E+00  0.00000000E+00  0.00000000E+00
  0.00000000E+00  0.00000000E+00  0.00000000E+00
  0.00000000E+00  0.00000000E+00  0.00000000E+00
  0.00000000E+00  0.00000000E+00  0.00000000E+00
  0.00000000E+00  0.00000000E+00  0.00000000E+00
  0.00000000E+00  0.00000000E+00  0.00000000E+00
  0.00000000E+00  0.00000000E+00  0.00000000E+00
  0.00000000E+00  0.00000000E+00  0.00000000E+00
  0.00000000E+00  0.00000000E+00  0.00000000E+00
  0.00000000E+00  0.00000000E+00  0.00000000E+00
  0.00000000E+00  0.00000000E+00  0.00000000E+00
  0.00000000E+00  0.00000000E+00  0.00000000E+00
  0.00000000E+00  0.00000000E+00  0.00000000E+00
  0.00000000E+00  0.00000000E+00  0.00000000E+00
  0.00000000E+00  0.00000000E+00  0.00000000E+00
  0.00000000E+00  0.00000000E+00  0.00000000E+00
  0.00000000E+00  0.00000000E+00  0.00000000E+00
  0.00000000E+00  0.00000000E+00  0.00000000E+00
  0.00000000E+00  0.00000000E+00  0.00000000E+00
  0.00000000E+00  0.00000000E+00  0.00000000E+00
  0.00000000E+00  0.00000000E+00  0.00000000E+00
  0.00000000E+00  0.00000000E+00  0.00000000E+00
  0.00000000E+00  0.00000000E+00  0.00000000E+00
  0.00000000E+00  0.00000000E+00  0.00000000E+00
  0.00000000E+00  0.00000000E+00  0.00000000E+00
  0.00000000E+00  0.00000000E+00  0.00000000E+00
  0.00000000E+00  0.00000000E+00  0.00000000E+00
  0.00000000E+00  0.00000000E+00  0.00000000E+00
