SrTiFeO                                 
   1.00000000000000     
    11.1989999999999998    0.0000000000000000    0.0000000000000000
     0.0000000000000000   11.1989999999999998    0.0000000000000000
     0.0000000000000000    0.0000000000000000   15.9830000000000005
   Sr   Ti   O 
    32    32    94
Direct
  0.9997526670035742  0.2503259395069342  0.1246133205462261
  0.0035925905193951  0.2488037505707726  0.6267097017679802
  0.9992984130251151  0.7500214077073243  0.1252312988495256
  0.0025103266993277  0.7482529574375745  0.6256338164126285
  0.5001324647924643  0.2508239488156679  0.1248506904509129
  0.4972660757711886  0.2441225445456649  0.6275141696127929
  0.4999426734274302  0.7505600705869599  0.1235584401003655
  0.4982841235720253  0.7526924121797158  0.6281269194049890
  0.0035925905193951  0.2488037505707726  0.3732902982320198
  0.9997526670035742  0.2503259395069342  0.8753866794537738
  0.0025103266993277  0.7482529574375745  0.3743661835873715
  0.9992984130251151  0.7500214077073243  0.8747687011504744
  0.4972660757711886  0.2441225445456649  0.3724858303872071
  0.5001324647924643  0.2508239488156679  0.8751493095490871
  0.4982841235720253  0.7526924121797158  0.3718730805950110
  0.4999426734274302  0.7505600705869599  0.8764415598996345
  0.2503077998419136  0.0000660908558334  0.1249484053988331
  0.2500394211643911  0.9998633726715297  0.6256306485544451
  0.2509199019873704  0.5005084314950653  0.1250753080065329
  0.2474021178700481  0.4991006312980543  0.6244379036142327
  0.7498267068609391  0.0004423111032502  0.1249613301232366
  0.7485880275898092  0.0011390256780699  0.6264837752196424
  0.7508056926756080  0.5010052019611596  0.1231018245613543
  0.7574362451506313  0.4981396335846578  0.6318262579795192
  0.2500394211643911  0.9998633726715297  0.3743693514455550
  0.2503077998419136  0.0000660908558334  0.8750515946011670
  0.2474021178700481  0.4991006312980543  0.3755620963857674
  0.2509199019873704  0.5005084314950653  0.8749246919934671
  0.7485880275898092  0.0011390256780699  0.3735162247803576
  0.7498267068609391  0.0004423111032502  0.8750386698767634
  0.7574362451506313  0.4981396335846578  0.3681737420204809
  0.7508056926756080  0.5010052019611596  0.8768981754386457
  0.9996121863806887  0.9999959014495932  0.0000000000000000
  0.0045552900839648  0.9991032570061865  0.5000000000000000
  0.0006900640217001  0.4996832940755586  0.0000000000000000
  0.9989241291938040  0.4993161398495880  0.5000000000000000
  0.4999877862712122  0.0003842240286414  0.0000000000000000
  0.4987293293850976  0.9990531077751315  0.5000000000000000
  0.4991974466840133  0.5001548989152549  0.0000000000000000
  0.2503921376277736  0.2501546479158757  0.0000000000000000
  0.2506084035561378  0.2503191577444733  0.5000000000000000
  0.2500245472562686  0.7496867744281859  0.0000000000000000
  0.2512792095171290  0.7501560524159996  0.5000000000000000
  0.7506345959135823  0.2495467016253362  0.0000000000000000
  0.7562128487610645  0.2467392900118384  0.5000000000000000
  0.7504020438254473  0.7509640992739531  0.0000000000000000
  0.2500761115337843  0.2500116865186818  0.2498992944619731
  0.2500761115337843  0.2500116865186818  0.7501007055380269
  0.2501509734532793  0.7496556976169312  0.2500124784229342
  0.2501509734532793  0.7496556976169312  0.7499875215770657
  0.7493182223534612  0.2504649236974441  0.2494275334609449
  0.7493182223534612  0.2504649236974441  0.7505724665390551
  0.7492217433703694  0.7496196736434108  0.2498092714780863
  0.7492217433703694  0.7496196736434108  0.7501907285219137
  0.9997719823291343  0.9995326317315891  0.2502649047761630
  0.9997719823291343  0.9995326317315891  0.7497350952238370
  0.0011217247370130  0.4998563027507107  0.2492189555240132
  0.0011217247370130  0.4998563027507107  0.7507810444759868
  0.4999494566304025  0.9996714488119665  0.2493271229647302
  0.4999494566304025  0.9996714488119665  0.7506728770352699
  0.5018036078097369  0.4998013946830090  0.2499513560721952
  0.5018036078097369  0.4998013946830090  0.7500486439278047
  0.4998031429331362  0.5008387801569176  0.5000000000000000
  0.7541030738837375  0.7565215480626476  0.5000000000000000
  0.1096807450432853  0.1401549180153144  0.2486214910648830
  0.1096807450432853  0.1401549180153144  0.7513785089351170
  0.1103464695978541  0.6399491786622651  0.2498073329069382
  0.1103464695978541  0.6399491786622651  0.7501926670930618
  0.6096813454213058  0.1404230889015610  0.2495749002496530
  0.6096813454213058  0.1404230889015610  0.7504250997503470
  0.6093130348047999  0.6408959954368827  0.2462823906617172
  0.3916409126083790  0.3603297987328880  0.2537870490512787
  0.3916409126083790  0.3603297987328880  0.7462129509487213
  0.3899425534987330  0.8598664391036699  0.2492069317474122
  0.3899425534987330  0.8598664391036699  0.7507930682525877
  0.8901015764925392  0.3598683128926199  0.2519105576657905
  0.8901015764925392  0.3598683128926199  0.7480894423342095
  0.8892623728014838  0.8595339205135697  0.2537542678796917
  0.8892623728014838  0.8595339205135697  0.7462457321203083
  0.3602570497273416  0.1103077141049966  0.2508364838098552
  0.3602570497273416  0.1103077141049966  0.7491635161901448
  0.3613003519598715  0.6089541701037101  0.2555509125800933
  0.3613003519598715  0.6089541701037101  0.7444490874199068
  0.8592075398564762  0.1106250019237467  0.2535212407445420
  0.8592075398564762  0.1106250019237467  0.7464787592554650
  0.8606997547888989  0.6105245026405459  0.2485653813520564
  0.8606997547888989  0.6105245026405459  0.7514346186479437
  0.1409876500954493  0.3904939970887739  0.2502115978352144
  0.1409876500954493  0.3904939970887739  0.7497884021647857
  0.1397855665412437  0.8899498323601888  0.2488261074093326
  0.1397855665412437  0.8899498323601888  0.7511738925906675
  0.6415293432250323  0.3909780735493164  0.2442191330120312
  0.6405611261272126  0.8904487125451627  0.2510290494777485
  0.6405611261272126  0.8904487125451627  0.7489709505222516
  0.3592672188330409  0.3907663093632995  0.0000000000000000
  0.3591484015403978  0.8905198630654905  0.0000000000000000
  0.3551844087461014  0.8943865331062788  0.5000000000000000
  0.8597789073105868  0.3901618854265171  0.0000000000000000
  0.8508252818836163  0.3948499031468172  0.5000000000000000
  0.8593391087778254  0.8910683232201849  0.0000000000000000
  0.8551436990380313  0.8963120871158147  0.5000000000000000
  0.1407024271079901  0.1090601439456060  0.0000000000000000
  0.1411827650387832  0.1076393111409549  0.5000000000000000
  0.1407510023839708  0.6090584619745948  0.0000000000000000
  0.1380228239925428  0.6094489865151018  0.5000000000000000
  0.6407814791579083  0.1096593320441596  0.0000000000000000
  0.6375566296586458  0.1137687572514934  0.5000000000000000
  0.6399027441650070  0.6100805194871624  0.0000000000000000
  0.1096487715700155  0.3586988354040171  0.0000000000000000
  0.1052628958761781  0.3580787413692089  0.5000000000000000
  0.1094208454494921  0.8591739620316110  0.0000000000000000
  0.1049272018372727  0.8569507117072747  0.5000000000000000
  0.6100110837679856  0.3601104764359299  0.0000000000000000
  0.6095055233459025  0.8596940116088714  0.0000000000000000
  0.6052656997195917  0.8549084038774019  0.5000000000000000
  0.3907903640860217  0.1407595832112913  0.0000000000000000
  0.3905657163880045  0.1405355760644436  0.5000000000000000
  0.3906770342969685  0.6408392094349501  0.0000000000000000
  0.3908624322761536  0.6461752223217677  0.5000000000000000
  0.8914814739336969  0.1404992266051281  0.0000000000000000
  0.8924667874160536  0.1427865893875238  0.5000000000000000
  0.8902458201262661  0.6401804755073731  0.0000000000000000
  0.9970750745459238  0.9993212101191485  0.1255259240700611
  0.0014861341941569  0.0006211638872335  0.6246788599039205
  0.0002510682334443  0.4987212988563156  0.1250029924843866
  0.9998475286927011  0.5006631707836254  0.6249964144494033
  0.5000221309249929  0.9999563154532122  0.1250161235259603
  0.5002805299538257  0.9995167038801500  0.6250896913287236
  0.4958135646025161  0.5002284908149629  0.1251445393052042
  0.0014861341941569  0.0006211638872335  0.3753211400960796
  0.9970750745459238  0.9993212101191485  0.8744740759299390
  0.9998475286927011  0.5006631707836254  0.3750035855505966
  0.0002510682334443  0.4987212988563156  0.8749970075156134
  0.5002805299538257  0.9995167038801500  0.3749103086712763
  0.5000221309249929  0.9999563154532122  0.8749838764740397
  0.4958135646025161  0.5002284908149629  0.8748554606947958
  0.2472002489595732  0.2489502647395758  0.3749407736519277
  0.2521714609448711  0.2511447638492492  0.8746292609064970
  0.2476736972433814  0.7521731538818088  0.3750157550456849
  0.2516894519135843  0.7475305149331007  0.8746108496630781
  0.7396255722122930  0.2572993086964722  0.3764931321371305
  0.7526217852788420  0.2478354703153469  0.8750250684876398
  0.7422299448768926  0.7416834733354533  0.3765465554546447
  0.7515801523522417  0.7521743545773836  0.8749186691761797
  0.2521714609448711  0.2511447638492492  0.1253707390935031
  0.2472002489595732  0.2489502647395758  0.6250592263480723
  0.2516894519135843  0.7475305149331007  0.1253891503369219
  0.2476736972433814  0.7521731538818088  0.6249842449543151
  0.7526217852788420  0.2478354703153469  0.1249749315123602
  0.7396255722122930  0.2572993086964722  0.6235068678628695
  0.7515801523522417  0.7521743545773836  0.1250813308238204
  0.6415293432250323  0.3909780735493164  0.7557808669879688
  0.6093130348047999  0.6408959954368827  0.7537176093382828
  0.5208741327211733  0.4978381651645041  0.3771825234369900
  0.3579042564898252  0.3873055350532156  0.5000000000000000
  0.7422299448768926  0.7416834733354533  0.6234534445453553
  0.8837030796738454  0.6390192098118600  0.5000000000000000
  0.5208741327211733  0.4978381651645041  0.6228174765630099
 
  0.00000000E+00  0.00000000E+00  0.00000000E+00
  0.00000000E+00  0.00000000E+00  0.00000000E+00
  0.00000000E+00  0.00000000E+00  0.00000000E+00
  0.00000000E+00  0.00000000E+00  0.00000000E+00
  0.00000000E+00  0.00000000E+00  0.00000000E+00
  0.00000000E+00  0.00000000E+00  0.00000000E+00
  0.00000000E+00  0.00000000E+00  0.00000000E+00
  0.00000000E+00  0.00000000E+00  0.00000000E+00
  0.00000000E+00  0.00000000E+00  0.00000000E+00
  0.00000000E+00  0.00000000E+00  0.00000000E+00
  0.00000000E+00  0.00000000E+00  0.00000000E+00
  0.00000000E+00  0.00000000E+00  0.00000000E+00
  0.00000000E+00  0.00000000E+00  0.00000000E+00
  0.00000000E+00  0.00000000E+00  0.00000000E+00
  0.00000000E+00  0.00000000E+00  0.00000000E+00
  0.00000000E+00  0.00000000E+00  0.00000000E+00
  0.00000000E+00  0.00000000E+00  0.00000000E+00
  0.00000000E+00  0.00000000E+00  0.00000000E+00
  0.00000000E+00  0.00000000E+00  0.00000000E+00
  0.00000000E+00  0.00000000E+00  0.00000000E+00
  0.00000000E+00  0.00000000E+00  0.00000000E+00
  0.00000000E+00  0.00000000E+00  0.00000000E+00
  0.00000000E+00  0.00000000E+00  0.00000000E+00
  0.00000000E+00  0.00000000E+00  0.00000000E+00
  0.00000000E+00  0.00000000E+00  0.00000000E+00
  0.00000000E+00  0.00000000E+00  0.00000000E+00
  0.00000000E+00  0.00000000E+00  0.00000000E+00
  0.00000000E+00  0.00000000E+00  0.00000000E+00
  0.00000000E+00  0.00000000E+00  0.00000000E+00
  0.00000000E+00  0.00000000E+00  0.00000000E+00
  0.00000000E+00  0.00000000E+00  0.00000000E+00
  0.00000000E+00  0.00000000E+00  0.00000000E+00
  0.00000000E+00  0.00000000E+00  0.00000000E+00
  0.00000000E+00  0.00000000E+00  0.00000000E+00
  0.00000000E+00  0.00000000E+00  0.00000000E+00
  0.00000000E+00  0.00000000E+00  0.00000000E+00
  0.00000000E+00  0.00000000E+00  0.00000000E+00
  0.00000000E+00  0.00000000E+00  0.00000000E+00
  0.00000000E+00  0.00000000E+00  0.00000000E+00
  0.00000000E+00  0.00000000E+00  0.00000000E+00
  0.00000000E+00  0.00000000E+00  0.00000000E+00
  0.00000000E+00  0.00000000E+00  0.00000000E+00
  0.00000000E+00  0.00000000E+00  0.00000000E+00
  0.00000000E+00  0.00000000E+00  0.00000000E+00
  0.00000000E+00  0.00000000E+00  0.00000000E+00
  0.00000000E+00  0.00000000E+00  0.00000000E+00
  0.00000000E+00  0.00000000E+00  0.00000000E+00
  0.00000000E+00  0.00000000E+00  0.00000000E+00
  0.00000000E+00  0.00000000E+00  0.00000000E+00
  0.00000000E+00  0.00000000E+00  0.00000000E+00
  0.00000000E+00  0.00000000E+00  0.00000000E+00
  0.00000000E+00  0.00000000E+00  0.00000000E+00
  0.00000000E+00  0.00000000E+00  0.00000000E+00
  0.00000000E+00  0.00000000E+00  0.00000000E+00
  0.00000000E+00  0.00000000E+00  0.00000000E+00
  0.00000000E+00  0.00000000E+00  0.00000000E+00
  0.00000000E+00  0.00000000E+00  0.00000000E+00
  0.00000000E+00  0.00000000E+00  0.00000000E+00
  0.00000000E+00  0.00000000E+00  0.00000000E+00
  0.00000000E+00  0.00000000E+00  0.00000000E+00
  0.00000000E+00  0.00000000E+00  0.00000000E+00
  0.00000000E+00  0.00000000E+00  0.00000000E+00
  0.00000000E+00  0.00000000E+00  0.00000000E+00
  0.00000000E+00  0.00000000E+00  0.00000000E+00
  0.00000000E+00  0.00000000E+00  0.00000000E+00
  0.00000000E+00  0.00000000E+00  0.00000000E+00
  0.00000000E+00  0.00000000E+00  0.00000000E+00
  0.00000000E+00  0.00000000E+00  0.00000000E+00
  0.00000000E+00  0.00000000E+00  0.00000000E+00
  0.00000000E+00  0.00000000E+00  0.00000000E+00
  0.00000000E+00  0.00000000E+00  0.00000000E+00
  0.00000000E+00  0.00000000E+00  0.00000000E+00
  0.00000000E+00  0.00000000E+00  0.00000000E+00
  0.00000000E+00  0.00000000E+00  0.00000000E+00
  0.00000000E+00  0.00000000E+00  0.00000000E+00
  0.00000000E+00  0.00000000E+00  0.00000000E+00
  0.00000000E+00  0.00000000E+00  0.00000000E+00
  0.00000000E+00  0.00000000E+00  0.00000000E+00
  0.00000000E+00  0.00000000E+00  0.00000000E+00
  0.00000000E+00  0.00000000E+00  0.00000000E+00
  0.00000000E+00  0.00000000E+00  0.00000000E+00
  0.00000000E+00  0.00000000E+00  0.00000000E+00
  0.00000000E+00  0.00000000E+00  0.00000000E+00
  0.00000000E+00  0.00000000E+00  0.00000000E+00
  0.00000000E+00  0.00000000E+00  0.00000000E+00
  0.00000000E+00  0.00000000E+00  0.00000000E+00
  0.00000000E+00  0.00000000E+00  0.00000000E+00
  0.00000000E+00  0.00000000E+00  0.00000000E+00
  0.00000000E+00  0.00000000E+00  0.00000000E+00
  0.00000000E+00  0.00000000E+00  0.00000000E+00
  0.00000000E+00  0.00000000E+00  0.00000000E+00
  0.00000000E+00  0.00000000E+00  0.00000000E+00
  0.00000000E+00  0.00000000E+00  0.00000000E+00
  0.00000000E+00  0.00000000E+00  0.00000000E+00
  0.00000000E+00  0.00000000E+00  0.00000000E+00
  0.00000000E+00  0.00000000E+00  0.00000000E+00
  0.00000000E+00  0.00000000E+00  0.00000000E+00
  0.00000000E+00  0.00000000E+00  0.00000000E+00
  0.00000000E+00  0.00000000E+00  0.00000000E+00
  0.00000000E+00  0.00000000E+00  0.00000000E+00
  0.00000000E+00  0.00000000E+00  0.00000000E+00
  0.00000000E+00  0.00000000E+00  0.00000000E+00
  0.00000000E+00  0.00000000E+00  0.00000000E+00
  0.00000000E+00  0.00000000E+00  0.00000000E+00
  0.00000000E+00  0.00000000E+00  0.00000000E+00
  0.00000000E+00  0.00000000E+00  0.00000000E+00
  0.00000000E+00  0.00000000E+00  0.00000000E+00
  0.00000000E+00  0.00000000E+00  0.00000000E+00
  0.00000000E+00  0.00000000E+00  0.00000000E+00
  0.00000000E+00  0.00000000E+00  0.00000000E+00
  0.00000000E+00  0.00000000E+00  0.00000000E+00
  0.00000000E+00  0.00000000E+00  0.00000000E+00
  0.00000000E+00  0.00000000E+00  0.00000000E+00
  0.00000000E+00  0.00000000E+00  0.00000000E+00
  0.00000000E+00  0.00000000E+00  0.00000000E+00
  0.00000000E+00  0.00000000E+00  0.00000000E+00
  0.00000000E+00  0.00000000E+00  0.00000000E+00
  0.00000000E+00  0.00000000E+00  0.00000000E+00
  0.00000000E+00  0.00000000E+00  0.00000000E+00
  0.00000000E+00  0.00000000E+00  0.00000000E+00
  0.00000000E+00  0.00000000E+00  0.00000000E+00
  0.00000000E+00  0.00000000E+00  0.00000000E+00
  0.00000000E+00  0.00000000E+00  0.00000000E+00
  0.00000000E+00  0.00000000E+00  0.00000000E+00
  0.00000000E+00  0.00000000E+00  0.00000000E+00
  0.00000000E+00  0.00000000E+00  0.00000000E+00
  0.00000000E+00  0.00000000E+00  0.00000000E+00
  0.00000000E+00  0.00000000E+00  0.00000000E+00
  0.00000000E+00  0.00000000E+00  0.00000000E+00
  0.00000000E+00  0.00000000E+00  0.00000000E+00
  0.00000000E+00  0.00000000E+00  0.00000000E+00
  0.00000000E+00  0.00000000E+00  0.00000000E+00
  0.00000000E+00  0.00000000E+00  0.00000000E+00
  0.00000000E+00  0.00000000E+00  0.00000000E+00
  0.00000000E+00  0.00000000E+00  0.00000000E+00
  0.00000000E+00  0.00000000E+00  0.00000000E+00
  0.00000000E+00  0.00000000E+00  0.00000000E+00
  0.00000000E+00  0.00000000E+00  0.00000000E+00
  0.00000000E+00  0.00000000E+00  0.00000000E+00
  0.00000000E+00  0.00000000E+00  0.00000000E+00
  0.00000000E+00  0.00000000E+00  0.00000000E+00
  0.00000000E+00  0.00000000E+00  0.00000000E+00
  0.00000000E+00  0.00000000E+00  0.00000000E+00
  0.00000000E+00  0.00000000E+00  0.00000000E+00
  0.00000000E+00  0.00000000E+00  0.00000000E+00
  0.00000000E+00  0.00000000E+00  0.00000000E+00
  0.00000000E+00  0.00000000E+00  0.00000000E+00
  0.00000000E+00  0.00000000E+00  0.00000000E+00
  0.00000000E+00  0.00000000E+00  0.00000000E+00
  0.00000000E+00  0.00000000E+00  0.00000000E+00
  0.00000000E+00  0.00000000E+00  0.00000000E+00
  0.00000000E+00  0.00000000E+00  0.00000000E+00
  0.00000000E+00  0.00000000E+00  0.00000000E+00
  0.00000000E+00  0.00000000E+00  0.00000000E+00
  0.00000000E+00  0.00000000E+00  0.00000000E+00
  0.00000000E+00  0.00000000E+00  0.00000000E+00
  0.00000000E+00  0.00000000E+00  0.00000000E+00
  0.00000000E+00  0.00000000E+00  0.00000000E+00
