SrTiFeO                                 
   1.00000000000000     
    11.1989999999999998    0.0000000000000000    0.0000000000000000
     0.0000000000000000   11.1989999999999998    0.0000000000000000
     0.0000000000000000    0.0000000000000000   15.9830000000000005
   Sr   Ti   Fe   O 
    32    29     3    94
Direct
  0.0000766641208416  0.2497604387635974  0.1244383551126950
  0.0058223914128562  0.2486778340630718  0.6277091497795705
  0.9995873625031665  0.7502902055164641  0.1252771692130750
  0.9981132845806913  0.7511648466870385  0.6251169231144228
  0.5014042946897854  0.2496087223952203  0.1243381492948032
  0.4945826710638233  0.2378852873427575  0.6284664447873569
  0.5006249197827625  0.7494185685711924  0.1252887437721190
  0.5033203075096381  0.7562541584881373  0.6255053457239517
  0.0077703287331184  0.2501924147442234  0.3738375822776998
  0.9991103719079101  0.2509366103620307  0.8742228335507860
  0.9980030747394003  0.7487063284871195  0.3758767115420711
  0.9996106853688995  0.7506349689451507  0.8737113101579519
  0.4951133763369874  0.2436121600222587  0.3705449375564874
  0.4996692233317587  0.2505474056567306  0.8751952869756396
  0.5009026695982838  0.7500248209585384  0.3764789700189741
  0.5009783782225684  0.7504578848525727  0.8750748939620560
  0.2494340641334862  0.9997604194010976  0.1249388641806772
  0.2484857113060570  0.9994528925411739  0.6254073980695334
  0.2510365827756272  0.5003139663551375  0.1257630673600863
  0.2442351107878512  0.4982119991342334  0.6246753089564200
  0.7505388046428341  0.9999321575106023  0.1252972472198230
  0.7499254578901534  0.9931502740177868  0.6248142587605900
  0.7509650914040520  0.5017337731968528  0.1236237883176706
  0.7609010001269541  0.5052015094986448  0.6284121048620784
  0.2500006307822294  0.9982271477387740  0.3757394269860236
  0.2496715056194102  0.0004484278861626  0.8742916636100267
  0.2489929498882865  0.4988385957491617  0.3755276946509136
  0.2499953001287289  0.5009497379728346  0.8751026998365709
  0.7484859498880290  0.9912818334868472  0.3755419985188612
  0.7509635582221893  0.0007303607341470  0.8732115507268383
  0.7510302716786992  0.5046969699034010  0.3739268794779527
  0.7496216374287740  0.5007157340174800  0.8750428479414595
  0.9993591521895169  0.0005374132242281  0.9993509353145036
  0.0029291571621053  0.9929951175003011  0.4993503027864393
  0.0003330448261944  0.5000654697356627  0.9999967826494420
  0.9989262071900323  0.5022810252025951  0.4996625651560924
  0.4996972748945235  0.0000648180196450  0.0000155038360821
  0.4999210723857938  0.9980443111288071  0.4995924243722191
  0.4995931794776555  0.5005043470659146  0.0025678794337153
  0.2503061632417332  0.2503397533284166  0.9999728271900169
  0.2525379895314623  0.2497906402074700  0.5013139514833600
  0.2506573631615600  0.7495819029807965  0.9998075554672780
  0.2517478688118996  0.7483236928832513  0.5016062152891705
  0.7503008519573496  0.2500544412354053 -0.0000064428534449
  0.7629606833732371  0.2421284759925234  0.4990740212835331
  0.7497546654540551  0.7501186254878683  0.9999308339743803
  0.2509861202819429  0.2500876527259475  0.2491631705931539
  0.2516627777987281  0.2516757993125771  0.7500195168466086
  0.2503394259107573  0.7488646036776667  0.2507498299101851
  0.2512828433121853  0.7484078328857550  0.7486234057097813
  0.7495369637140270  0.2511092304005387  0.2500247804537127
  0.7464784469350573  0.2535061145016615  0.7483408415290626
  0.7494628602992776  0.7488256140236469  0.2510681325042564
  0.7483057096652639  0.7487726131107365  0.7488407675562675
  0.9995659619139194  0.9999639801364915  0.2511216101567185
  0.0000552266426016  0.0002760799555297  0.7501629589188866
  0.0002802562024819  0.4993386224113325  0.2499472846955667
  0.0007976707732916  0.5002505775144949  0.7507235729445713
  0.5001670760748209  0.9986792551480068  0.2495147359086184
  0.4999843433088224  0.9992554994545604  0.7510296061354147
  0.5013358745254035  0.4979582878517343  0.2506386496842761
  0.4992833644264182  0.5008176654319291  0.7601873517067526
  0.4955110506974862  0.5074752364258152  0.4937903999046506
  0.7487288007532477  0.7454648387491426  0.5015351690491520
  0.1102079030043195  0.1408718600196754  0.2512331600761811
  0.1106287743841134  0.1399752722078126  0.7534287056618721
  0.1094285337000060  0.6401597960866797  0.2506796570178173
  0.1116522440097604  0.6382374289936499  0.7506288408460219
  0.6094427089909095  0.1402977091404287  0.2495638233362288
  0.6103779689797787  0.1394584061487811  0.7508559062631779
  0.6087772022672902  0.6401471450494616  0.2493029297937142
  0.3910144215419827  0.3572042881077782  0.2451909544599172
  0.3887980416211492  0.3642336981826477  0.7402219306840179
  0.3911479526660498  0.8583615451088606  0.2500361533306789
  0.3887181976831428  0.8620133121792727  0.7499481056680629
  0.8917354288360206  0.3579078218321738  0.2516717726043412
  0.8876255653283925  0.3621113693760225  0.7475445719408473
  0.8899879617323737  0.8598176699084131  0.2512570433695095
  0.8879914942722898  0.8633684818719988  0.7520807862657360
  0.3595894276690357  0.1090539903130410  0.2518486581450611
  0.3620456643751072  0.1121914369141780  0.7490332314805369
  0.3594024027856593  0.6075906799450952  0.2528847897009795
  0.3637922230673821  0.6113394125233185  0.7378792419816103
  0.8582583359244257  0.1105532326298799  0.2561805538926831
  0.8589731160836078  0.1146929408422322  0.7435853849897940
  0.8601619630331693  0.6087699102917415  0.2493013859421089
  0.8629979135419749  0.6122274100536446  0.7521403764348080
  0.1415344825851562  0.3905992111249911  0.2501136113665491
  0.1382959299707388  0.3887491806010993  0.7505578806491255
  0.1403834972955626  0.8900953566531338  0.2497816894335425
  0.1380777359855385  0.8899661191129574  0.7546634294802285
  0.6429250456838633  0.3899868040923353  0.2409814891559829
  0.6404918841753516  0.8903837320321705  0.2487710021576563
  0.6380289408023756  0.8893651031064088  0.7511187589799490
  0.3585787047961633  0.3910437218207686  0.0016223068659332
  0.3583944324713642  0.8912710478376973  0.9996426052724182
  0.3593356451675994  0.8912295877331603  0.5004530327494645
  0.8590436942227184  0.3908479372960165  0.9997766861950992
  0.8538875499242405  0.3925168859219193  0.4993870669904085
  0.8589308894892906  0.8908565636931158  0.9992599129752396
  0.8612834256363574  0.8931779547945162  0.4989618957423924
  0.1407748855551718  0.1093384060274051  0.9985111842696701
  0.1402037992389654  0.1109415427487489  0.4974834521497933
  0.1408833612159560  0.6088401658881183 -0.0000221219203161
  0.1402364289402993  0.6093025395821183  0.4995494294033868
  0.6407627609902297  0.1095464830430292  0.9990447488014574
  0.6341525022373917  0.1222610088159991  0.4985826885926663
  0.6407617776644499  0.6092304272868262  0.0006578296610534
  0.1092301789803043  0.3588276167615598  0.9992985722574318
  0.1132421056762123  0.3617524736541000  0.5006600867403582
  0.1091705738062999  0.8596081082286882  0.9988618850932570
  0.1089081341510945  0.8590830358373364  0.4975227416704723
  0.6096821992449649  0.3591994563680795  0.0015168104556795
  0.6085094862705959  0.8595251491050259  0.0003089921521351
  0.6103111021737141  0.8632102222370929  0.5000888776014937
  0.3909693394745049  0.1412008706291994  0.9999432933443617
  0.3876385149876168  0.1363066488522169  0.4993905804356399
  0.3910644185769557  0.6419484776789082  0.0006446286177405
  0.3855994721515523  0.6443748984495736  0.5126580875025751
  0.8905484243343997  0.1417177098231549  0.9980437554684284
  0.8930160020808696  0.1423968605002910  0.4991727982071256
  0.8909786082642708  0.6405701153457006  0.9995177449043835
  0.9974719208125081  0.0025378638929555  0.1253571964293581
  0.0037640908392726  0.9997749656929238  0.6247807210840232
  0.0001564353897393  0.4988290619731816  0.1249971551827793
  0.0008754356836080  0.4996791750050600  0.6252464408798131
  0.4987295472036833  0.0007175788020853  0.1248453213150676
  0.5016656745058033  0.0009677657210014  0.6252756322810307
  0.4975872246329650  0.5028950029492270  0.1242702158543458
  0.0016448057818652  0.0004108835133936  0.3747550629326578
  0.9952507999377120  0.0032641600105461  0.8751254213975224
  0.0013635311976047  0.4986120610149908  0.3748331988667152
  0.0000162146507665  0.4984911377407684  0.8751314431096504
  0.5010497693253509  0.9983762522137833  0.3744493930105049
  0.4987124711474497  0.0004473681008267  0.8752324703432827
  0.4975106468903840  0.5004440936741796  0.8777184811778449
  0.2547347727849800  0.2573612736087412  0.3756606856507291
  0.2557802300403152  0.2536723581781382  0.8744563222075374
  0.2529906472484712  0.7487918611263371  0.3758130310453514
  0.2541863942773721  0.7446465231367075  0.8742594438149082
  0.7343867654334099  0.2650665727157140  0.3783103863804635
  0.7478823344000042  0.2542557433209973  0.8729512850236806
  0.7460620186200708  0.7463441876485721  0.3742255774231789
  0.7459611084629598  0.7476376514358962  0.8750155566239621
  0.2479558184187815  0.2473449397859698  0.1246833917319972
  0.2431882270546671  0.2435896913707634  0.6258424497295068
  0.2501144039695569  0.7489044517157910  0.1252616193956571
  0.2390030167498650  0.7596428561277900  0.6259590511568174
  0.7547078874510471  0.2448514529400400  0.1247870653351651
  0.7356473680344154  0.2615083175275838  0.6191166685494728
  0.7511961594724103  0.7500925099463510  0.1246968872684800
  0.6352493106940683  0.3917248220334456  0.7430050125566964
  0.6103866146236537  0.6368544094794089  0.7421708810230855
  0.5093458613225270  0.4825248878806117  0.3705290228285171
  0.3765588406259967  0.3811018255607979  0.5146288799340666
  0.7549440825117714  0.7552428707666811  0.6270694454688835
  0.8929929415775942  0.6393685712183742  0.5000867389897325
  0.6415721710085200  0.5977906190491712  0.5113103007834240
 
  0.00000000E+00  0.00000000E+00  0.00000000E+00
  0.00000000E+00  0.00000000E+00  0.00000000E+00
  0.00000000E+00  0.00000000E+00  0.00000000E+00
  0.00000000E+00  0.00000000E+00  0.00000000E+00
  0.00000000E+00  0.00000000E+00  0.00000000E+00
  0.00000000E+00  0.00000000E+00  0.00000000E+00
  0.00000000E+00  0.00000000E+00  0.00000000E+00
  0.00000000E+00  0.00000000E+00  0.00000000E+00
  0.00000000E+00  0.00000000E+00  0.00000000E+00
  0.00000000E+00  0.00000000E+00  0.00000000E+00
  0.00000000E+00  0.00000000E+00  0.00000000E+00
  0.00000000E+00  0.00000000E+00  0.00000000E+00
  0.00000000E+00  0.00000000E+00  0.00000000E+00
  0.00000000E+00  0.00000000E+00  0.00000000E+00
  0.00000000E+00  0.00000000E+00  0.00000000E+00
  0.00000000E+00  0.00000000E+00  0.00000000E+00
  0.00000000E+00  0.00000000E+00  0.00000000E+00
  0.00000000E+00  0.00000000E+00  0.00000000E+00
  0.00000000E+00  0.00000000E+00  0.00000000E+00
  0.00000000E+00  0.00000000E+00  0.00000000E+00
  0.00000000E+00  0.00000000E+00  0.00000000E+00
  0.00000000E+00  0.00000000E+00  0.00000000E+00
  0.00000000E+00  0.00000000E+00  0.00000000E+00
  0.00000000E+00  0.00000000E+00  0.00000000E+00
  0.00000000E+00  0.00000000E+00  0.00000000E+00
  0.00000000E+00  0.00000000E+00  0.00000000E+00
  0.00000000E+00  0.00000000E+00  0.00000000E+00
  0.00000000E+00  0.00000000E+00  0.00000000E+00
  0.00000000E+00  0.00000000E+00  0.00000000E+00
  0.00000000E+00  0.00000000E+00  0.00000000E+00
  0.00000000E+00  0.00000000E+00  0.00000000E+00
  0.00000000E+00  0.00000000E+00  0.00000000E+00
  0.00000000E+00  0.00000000E+00  0.00000000E+00
  0.00000000E+00  0.00000000E+00  0.00000000E+00
  0.00000000E+00  0.00000000E+00  0.00000000E+00
  0.00000000E+00  0.00000000E+00  0.00000000E+00
  0.00000000E+00  0.00000000E+00  0.00000000E+00
  0.00000000E+00  0.00000000E+00  0.00000000E+00
  0.00000000E+00  0.00000000E+00  0.00000000E+00
  0.00000000E+00  0.00000000E+00  0.00000000E+00
  0.00000000E+00  0.00000000E+00  0.00000000E+00
  0.00000000E+00  0.00000000E+00  0.00000000E+00
  0.00000000E+00  0.00000000E+00  0.00000000E+00
  0.00000000E+00  0.00000000E+00  0.00000000E+00
  0.00000000E+00  0.00000000E+00  0.00000000E+00
  0.00000000E+00  0.00000000E+00  0.00000000E+00
  0.00000000E+00  0.00000000E+00  0.00000000E+00
  0.00000000E+00  0.00000000E+00  0.00000000E+00
  0.00000000E+00  0.00000000E+00  0.00000000E+00
  0.00000000E+00  0.00000000E+00  0.00000000E+00
  0.00000000E+00  0.00000000E+00  0.00000000E+00
  0.00000000E+00  0.00000000E+00  0.00000000E+00
  0.00000000E+00  0.00000000E+00  0.00000000E+00
  0.00000000E+00  0.00000000E+00  0.00000000E+00
  0.00000000E+00  0.00000000E+00  0.00000000E+00
  0.00000000E+00  0.00000000E+00  0.00000000E+00
  0.00000000E+00  0.00000000E+00  0.00000000E+00
  0.00000000E+00  0.00000000E+00  0.00000000E+00
  0.00000000E+00  0.00000000E+00  0.00000000E+00
  0.00000000E+00  0.00000000E+00  0.00000000E+00
  0.00000000E+00  0.00000000E+00  0.00000000E+00
  0.00000000E+00  0.00000000E+00  0.00000000E+00
  0.00000000E+00  0.00000000E+00  0.00000000E+00
  0.00000000E+00  0.00000000E+00  0.00000000E+00
  0.00000000E+00  0.00000000E+00  0.00000000E+00
  0.00000000E+00  0.00000000E+00  0.00000000E+00
  0.00000000E+00  0.00000000E+00  0.00000000E+00
  0.00000000E+00  0.00000000E+00  0.00000000E+00
  0.00000000E+00  0.00000000E+00  0.00000000E+00
  0.00000000E+00  0.00000000E+00  0.00000000E+00
  0.00000000E+00  0.00000000E+00  0.00000000E+00
  0.00000000E+00  0.00000000E+00  0.00000000E+00
  0.00000000E+00  0.00000000E+00  0.00000000E+00
  0.00000000E+00  0.00000000E+00  0.00000000E+00
  0.00000000E+00  0.00000000E+00  0.00000000E+00
  0.00000000E+00  0.00000000E+00  0.00000000E+00
  0.00000000E+00  0.00000000E+00  0.00000000E+00
  0.00000000E+00  0.00000000E+00  0.00000000E+00
  0.00000000E+00  0.00000000E+00  0.00000000E+00
  0.00000000E+00  0.00000000E+00  0.00000000E+00
  0.00000000E+00  0.00000000E+00  0.00000000E+00
  0.00000000E+00  0.00000000E+00  0.00000000E+00
  0.00000000E+00  0.00000000E+00  0.00000000E+00
  0.00000000E+00  0.00000000E+00  0.00000000E+00
  0.00000000E+00  0.00000000E+00  0.00000000E+00
  0.00000000E+00  0.00000000E+00  0.00000000E+00
  0.00000000E+00  0.00000000E+00  0.00000000E+00
  0.00000000E+00  0.00000000E+00  0.00000000E+00
  0.00000000E+00  0.00000000E+00  0.00000000E+00
  0.00000000E+00  0.00000000E+00  0.00000000E+00
  0.00000000E+00  0.00000000E+00  0.00000000E+00
  0.00000000E+00  0.00000000E+00  0.00000000E+00
  0.00000000E+00  0.00000000E+00  0.00000000E+00
  0.00000000E+00  0.00000000E+00  0.00000000E+00
  0.00000000E+00  0.00000000E+00  0.00000000E+00
  0.00000000E+00  0.00000000E+00  0.00000000E+00
  0.00000000E+00  0.00000000E+00  0.00000000E+00
  0.00000000E+00  0.00000000E+00  0.00000000E+00
  0.00000000E+00  0.00000000E+00  0.00000000E+00
  0.00000000E+00  0.00000000E+00  0.00000000E+00
  0.00000000E+00  0.00000000E+00  0.00000000E+00
  0.00000000E+00  0.00000000E+00  0.00000000E+00
  0.00000000E+00  0.00000000E+00  0.00000000E+00
  0.00000000E+00  0.00000000E+00  0.00000000E+00
  0.00000000E+00  0.00000000E+00  0.00000000E+00
  0.00000000E+00  0.00000000E+00  0.00000000E+00
  0.00000000E+00  0.00000000E+00  0.00000000E+00
  0.00000000E+00  0.00000000E+00  0.00000000E+00
  0.00000000E+00  0.00000000E+00  0.00000000E+00
  0.00000000E+00  0.00000000E+00  0.00000000E+00
  0.00000000E+00  0.00000000E+00  0.00000000E+00
  0.00000000E+00  0.00000000E+00  0.00000000E+00
  0.00000000E+00  0.00000000E+00  0.00000000E+00
  0.00000000E+00  0.00000000E+00  0.00000000E+00
  0.00000000E+00  0.00000000E+00  0.00000000E+00
  0.00000000E+00  0.00000000E+00  0.00000000E+00
  0.00000000E+00  0.00000000E+00  0.00000000E+00
  0.00000000E+00  0.00000000E+00  0.00000000E+00
  0.00000000E+00  0.00000000E+00  0.00000000E+00
  0.00000000E+00  0.00000000E+00  0.00000000E+00
  0.00000000E+00  0.00000000E+00  0.00000000E+00
  0.00000000E+00  0.00000000E+00  0.00000000E+00
  0.00000000E+00  0.00000000E+00  0.00000000E+00
  0.00000000E+00  0.00000000E+00  0.00000000E+00
  0.00000000E+00  0.00000000E+00  0.00000000E+00
  0.00000000E+00  0.00000000E+00  0.00000000E+00
  0.00000000E+00  0.00000000E+00  0.00000000E+00
  0.00000000E+00  0.00000000E+00  0.00000000E+00
  0.00000000E+00  0.00000000E+00  0.00000000E+00
  0.00000000E+00  0.00000000E+00  0.00000000E+00
  0.00000000E+00  0.00000000E+00  0.00000000E+00
  0.00000000E+00  0.00000000E+00  0.00000000E+00
  0.00000000E+00  0.00000000E+00  0.00000000E+00
  0.00000000E+00  0.00000000E+00  0.00000000E+00
  0.00000000E+00  0.00000000E+00  0.00000000E+00
  0.00000000E+00  0.00000000E+00  0.00000000E+00
  0.00000000E+00  0.00000000E+00  0.00000000E+00
  0.00000000E+00  0.00000000E+00  0.00000000E+00
  0.00000000E+00  0.00000000E+00  0.00000000E+00
  0.00000000E+00  0.00000000E+00  0.00000000E+00
  0.00000000E+00  0.00000000E+00  0.00000000E+00
  0.00000000E+00  0.00000000E+00  0.00000000E+00
  0.00000000E+00  0.00000000E+00  0.00000000E+00
  0.00000000E+00  0.00000000E+00  0.00000000E+00
  0.00000000E+00  0.00000000E+00  0.00000000E+00
  0.00000000E+00  0.00000000E+00  0.00000000E+00
  0.00000000E+00  0.00000000E+00  0.00000000E+00
  0.00000000E+00  0.00000000E+00  0.00000000E+00
  0.00000000E+00  0.00000000E+00  0.00000000E+00
  0.00000000E+00  0.00000000E+00  0.00000000E+00
  0.00000000E+00  0.00000000E+00  0.00000000E+00
  0.00000000E+00  0.00000000E+00  0.00000000E+00
  0.00000000E+00  0.00000000E+00  0.00000000E+00
  0.00000000E+00  0.00000000E+00  0.00000000E+00
  0.00000000E+00  0.00000000E+00  0.00000000E+00
  0.00000000E+00  0.00000000E+00  0.00000000E+00
  0.00000000E+00  0.00000000E+00  0.00000000E+00
  0.00000000E+00  0.00000000E+00  0.00000000E+00
