SrTiFeO                                 
   1.00000000000000     
    11.1989999999999998    0.0000000000000000    0.0000000000000000
     0.0000000000000000   11.1989999999999998    0.0000000000000000
     0.0000000000000000    0.0000000000000000   15.9830000000000005
   Sr   Ti   Fe   O 
    32    29     3    94
Direct
  0.9981735801680051  0.2508513247458952  0.1253027671820015
  0.0032667674115337  0.2497816819885662  0.6240143112997527
  0.9995078165867978  0.7507102059118125  0.1254875287736933
  0.9980459907865168  0.7495283565079864  0.6229879560285126
  0.5006159664589828  0.2461608145026546  0.1234468297148714
  0.4968530507425524  0.2435469792072694  0.6280117057955483
  0.5010943697638194  0.7543386981350519  0.1234946282874574
  0.5003890131007227  0.7509682173352510  0.6229741152957401
  0.0020089831380974  0.2484300330150298  0.3759183709228812
  0.9989425462245811  0.2496347674778557  0.8748659095211840
  0.9984738004722807  0.7514765555619985  0.3771944412386760
  0.9995023027823421  0.7504916325988239  0.8742605963349354
  0.4969241554134204  0.2362185403379506  0.3738462073999898
  0.5018502909468603  0.2492444929958062  0.8746126940217023
  0.5021049801205543  0.7586959921559928  0.3764185628376035
  0.5006805573231324  0.7501567241380404  0.8737640431549678
  0.2499448919443083  0.0008302374140207  0.1249838426279669
  0.2493723825061036  0.9984576288686514  0.6234800396678806
  0.2458708520202136  0.5007161259571165  0.1232954146269289
  0.2479124261447312  0.4990738313929251  0.6239140780078399
  0.7509591386408654  0.0012634827223762  0.1263752368730780
  0.7487319451533805  0.9951481355136492  0.6227593656964675
  0.7537730914139865  0.4999045712200564  0.1237774544500848
  0.7515916306049275  0.5027657918025373  0.6245746939043612
  0.2482393183967338  0.9996712381842194  0.3765652830672868
  0.2494751854883887  0.0002245570224454  0.8749217771104041
  0.2419961158850148  0.4981345129890690  0.3773873968281171
  0.2502063662121740  0.5001374771566887  0.8732061663237566
  0.7497817749389022  0.9968147240556169  0.3782298507192217
  0.7504367224678008  0.0006575046546378  0.8739046918020447
  0.7631779378602628  0.5036237576867233  0.3737599422364370
  0.7516669511124671  0.5011068510167197  0.8752133968095719
  0.9993066661828194  0.0006940664479023  0.0005342943559303
  0.0002132543847276  0.9961363513987879  0.5007373992210463
  0.0001551374455151  0.5000857222959622  0.9995658977290345
  0.9974597154899577  0.5008177339273905  0.5007867645036976
  0.4998580382052360  0.9999332269854506  0.9995338963406286
  0.5013905970707638  0.9994171362403869  0.5007723052646680
  0.4995547875583703  0.5008138070463618  0.9944636164572730
  0.2503240545287133  0.2505413623991058  0.9997579679556141
  0.2526271971746174  0.2498883901818071  0.4988709319113793
  0.2507007655796911  0.7495212382132997  0.0000365352885819
  0.2507924786701279  0.7493020498132106  0.4989456766735624
  0.7498565124254660  0.2501799115305197  0.9997205993157546
  0.7496637289208065  0.7500262835026505  0.9998125478891140
  0.2493739786732603  0.2501774231285280  0.2503478008007701
  0.2505947059143113  0.2503177526398593  0.7501397226724897
  0.2495944420209346  0.7505621895000343  0.2514911854737386
  0.2503287673748826  0.7490159421990987  0.7491847611160841
  0.7485142815162710  0.2511061198158753  0.2539523099764112
  0.7490556554077438  0.2511562509191852  0.7474596806090728
  0.7502196853082550  0.7504819975130840  0.2518593139640529
  0.7493491236971982  0.7491426178632391  0.7479569356931992
  0.0001192341963631  0.0000756685552206  0.2499475914303191
  0.9996352829537245  0.0000358351282646  0.7487192795324378
  0.0009551558323437  0.5003261145789749  0.2497034407929960
  0.9999662145340513  0.4994859558240106  0.7499042457245919
  0.5000257841361102  0.9992692131679065  0.2493785795114839
  0.5000547690728316  0.9987803983492398  0.7500922412819166
  0.4991441759549410  0.5008370429519866  0.2401498412589313
  0.5015477081606896  0.4980050427243977  0.7473733548867811
  0.7624846742505488  0.2413084525688483  0.5007931406385703
  0.4952707965301689  0.5078628137598004  0.5052052183745036
  0.7486506700091531  0.7454424687414540  0.4986587111472726
  0.1093794029318079  0.1413178241789952  0.2464669647192822
  0.1097733168178120  0.1413642598062682  0.7487314399471340
  0.1109560170563176  0.6396070912316859  0.2491227501199672
  0.1095326220713332  0.6405372048722924  0.7500179138746134
  0.6091921037485449  0.1405103906162875  0.2487675152547754
  0.6089296961815910  0.1400813018354805  0.7508406240408505
  0.6070235001276886  0.6370051488675400  0.2592453228522386
  0.6082713646805237  0.6403685115052895  0.7504426527920385
  0.3919240574453606  0.3644755404110140  0.2609854647460100
  0.3910969946198122  0.3575393899387562  0.7543319632776935
  0.3899976923883576  0.8601369912832356  0.2493397051824214
  0.3915673598852022  0.8579878492331090  0.7501075316096832
  0.8886173875591115  0.3614457198196842  0.2520264078044786
  0.8917136335164053  0.3583857444593156  0.7491236231094374
  0.8896052948879105  0.8615310730614087  0.2472647806080390
  0.8902660732687763  0.8594888162578435  0.7491786460929676
  0.3610909143222804  0.1116834026302998  0.2509062896667677
  0.3592563971319208  0.1090116840273151  0.7484626568892665
  0.3637215594882245  0.6083574428413783  0.2634365546441518
  0.3595132989351333  0.6072875530988036  0.7463987214113392
  0.8583260426900897  0.1125631776669200  0.2552687692005768
  0.8585193995047781  0.1101755709529889  0.7449419356408405
  0.8612963702676072  0.6109763815780311  0.2480745201637808
  0.8598982604193702  0.6086479116871469  0.7504316524138388
  0.1403891070658183  0.3904600528478951  0.2487658292679122
  0.1416652232988422  0.3910277693435399  0.7501344655116151
  0.1399227862506471  0.8910674997381656  0.2448283242672094
  0.1410235954153101  0.8903529335074657  0.7512751845566283
  0.6347728541771211  0.3948500931293186  0.2584940526072797
  0.6423522164525421  0.3902200805077406  0.7588441736972837
  0.6391985551589914  0.8902738450724713  0.2491973264757933
  0.6407923505666516  0.8907074864825871  0.7508592662224269
  0.3588968741404106  0.3919091767800559  0.9992244456982009
  0.3589643757232298  0.8906820162803826  0.0008121887244572
  0.3603948228064152  0.8903749280271482  0.4996728485695259
  0.8593359771489372  0.3908303332064816  0.0001770607864321
  0.8590652524483136  0.8903522226945370  0.0011930602763164
  0.8623895194051447  0.8905015014183405  0.5010484373652025
  0.1406328926631233  0.1099661414204521  0.0019424357966593
  0.1399333326590962  0.1122920293787283  0.5021528539809444
  0.1407712844769620  0.6091479236245272  0.9997045269604395
  0.1389821984370070  0.6111658990280113  0.5005055868953348
  0.6400933209457424  0.1096407723449475  0.0014566868876054
  0.6316748761777721  0.1217938433335639  0.5007731609409596
  0.6404588070958590  0.6081745141919208  0.0002052583272267
  0.1094979726798835  0.3592578091105100  0.0010120444181899
  0.1160048633925625  0.3637896639552485  0.4993882031048814
  0.1099175695206814  0.8597538230785525  0.0014027037360273
  0.1104500791330690  0.8611963530562453  0.5019811962441479
  0.6083950053201209  0.3598107832272880  0.9994829082626597
  0.6086961138227897  0.8594714793675918  0.9995390282684274
  0.6109669942692615  0.8633516820017474  0.4999759036978494
  0.3906528787987788  0.1408892359018117  0.9998276818729147
  0.3861308113135047  0.1352697116249243  0.5004109361385394
  0.3918753817960794  0.6414217910124963  0.0003117610570121
  0.8899837603619533  0.1412614774582052  0.0025431589853473
  0.8935407397623245  0.1380132631985355  0.5004938881844004
  0.8907597783978930  0.6404460779013281  0.0008733177704196
  0.9961311184219345  0.0027883903250572  0.1250832094011873
  0.0024822551008890  0.9991445973662212  0.6258081536624183
  0.0000596759343022  0.4989807030447548  0.1247481746438071
  0.0020394510819199  0.4990759290591494  0.6255516087759928
  0.4987097945825853  0.0001717161419392  0.1247180093363096
  0.5004881893829222  0.9983083529012426  0.6257738088189680
  0.4969146811114307  0.5011472442541506  0.1249378658010689
  0.5105311352214604  0.4821047944845185  0.6284532713698924
  0.0041600686908050  0.9986739019893519  0.3741165172299299
  0.9978550527050386  0.0024797831670502  0.8752375452488356
  0.0018062965856554  0.5000669750982868  0.3743347374295042
  0.0001355800770499  0.4991852522553476  0.8751909333311731
  0.5006678858902982  0.0002664112023386  0.3743370709562043
  0.4987423192559057  0.0002234833377435  0.8752405198345404
  0.4975028107259262  0.5030541071988692  0.8754028828005128
  0.2429929001663209  0.2443099108973162  0.3737543945490996
  0.2482161059257282  0.2480278470049015  0.8755492769760694
  0.2399596089305668  0.7596099491711491  0.3734618237033996
  0.2515365489427482  0.7483342231711284  0.8750957243236754
  0.7533080723217955  0.2456606842859835  0.8759982603723766
  0.7505518957927785  0.7493897485776776  0.8755746818519420
  0.2567484357087192  0.2540835777500927  0.1259882590706941
  0.2550196133099149  0.2573575910453722  0.6242800764170588
  0.2547882957923326  0.7434050815433771  0.1259863552323787
  0.2525522666335880  0.7492718720486025  0.6245633292394788
  0.7469800575261342  0.2552987619957314  0.1275035986283524
  0.7362744234535424  0.2628277508398520  0.6233680729135831
  0.7443916176781782  0.7466896625784204  0.1255402247046056
  0.7459543165307414  0.7459803753583714  0.6256489743750573
  0.7381318888388585  0.2590234410092879  0.3784351279049555
  0.8581896764528374  0.3908522595929452  0.5003737960611113
  0.3846954335227982  0.6439488437424284  0.4877518828662795
  0.3779182644226826  0.3802053171308960  0.4850567709032290
  0.8918786445125281  0.6383637216626621  0.4998196737332447
  0.7547801716196684  0.7551124802288599  0.3727067355648104
  0.6414955747095671  0.5978530392397918  0.4883792539969469
 
  0.00000000E+00  0.00000000E+00  0.00000000E+00
  0.00000000E+00  0.00000000E+00  0.00000000E+00
  0.00000000E+00  0.00000000E+00  0.00000000E+00
  0.00000000E+00  0.00000000E+00  0.00000000E+00
  0.00000000E+00  0.00000000E+00  0.00000000E+00
  0.00000000E+00  0.00000000E+00  0.00000000E+00
  0.00000000E+00  0.00000000E+00  0.00000000E+00
  0.00000000E+00  0.00000000E+00  0.00000000E+00
  0.00000000E+00  0.00000000E+00  0.00000000E+00
  0.00000000E+00  0.00000000E+00  0.00000000E+00
  0.00000000E+00  0.00000000E+00  0.00000000E+00
  0.00000000E+00  0.00000000E+00  0.00000000E+00
  0.00000000E+00  0.00000000E+00  0.00000000E+00
  0.00000000E+00  0.00000000E+00  0.00000000E+00
  0.00000000E+00  0.00000000E+00  0.00000000E+00
  0.00000000E+00  0.00000000E+00  0.00000000E+00
  0.00000000E+00  0.00000000E+00  0.00000000E+00
  0.00000000E+00  0.00000000E+00  0.00000000E+00
  0.00000000E+00  0.00000000E+00  0.00000000E+00
  0.00000000E+00  0.00000000E+00  0.00000000E+00
  0.00000000E+00  0.00000000E+00  0.00000000E+00
  0.00000000E+00  0.00000000E+00  0.00000000E+00
  0.00000000E+00  0.00000000E+00  0.00000000E+00
  0.00000000E+00  0.00000000E+00  0.00000000E+00
  0.00000000E+00  0.00000000E+00  0.00000000E+00
  0.00000000E+00  0.00000000E+00  0.00000000E+00
  0.00000000E+00  0.00000000E+00  0.00000000E+00
  0.00000000E+00  0.00000000E+00  0.00000000E+00
  0.00000000E+00  0.00000000E+00  0.00000000E+00
  0.00000000E+00  0.00000000E+00  0.00000000E+00
  0.00000000E+00  0.00000000E+00  0.00000000E+00
  0.00000000E+00  0.00000000E+00  0.00000000E+00
  0.00000000E+00  0.00000000E+00  0.00000000E+00
  0.00000000E+00  0.00000000E+00  0.00000000E+00
  0.00000000E+00  0.00000000E+00  0.00000000E+00
  0.00000000E+00  0.00000000E+00  0.00000000E+00
  0.00000000E+00  0.00000000E+00  0.00000000E+00
  0.00000000E+00  0.00000000E+00  0.00000000E+00
  0.00000000E+00  0.00000000E+00  0.00000000E+00
  0.00000000E+00  0.00000000E+00  0.00000000E+00
  0.00000000E+00  0.00000000E+00  0.00000000E+00
  0.00000000E+00  0.00000000E+00  0.00000000E+00
  0.00000000E+00  0.00000000E+00  0.00000000E+00
  0.00000000E+00  0.00000000E+00  0.00000000E+00
  0.00000000E+00  0.00000000E+00  0.00000000E+00
  0.00000000E+00  0.00000000E+00  0.00000000E+00
  0.00000000E+00  0.00000000E+00  0.00000000E+00
  0.00000000E+00  0.00000000E+00  0.00000000E+00
  0.00000000E+00  0.00000000E+00  0.00000000E+00
  0.00000000E+00  0.00000000E+00  0.00000000E+00
  0.00000000E+00  0.00000000E+00  0.00000000E+00
  0.00000000E+00  0.00000000E+00  0.00000000E+00
  0.00000000E+00  0.00000000E+00  0.00000000E+00
  0.00000000E+00  0.00000000E+00  0.00000000E+00
  0.00000000E+00  0.00000000E+00  0.00000000E+00
  0.00000000E+00  0.00000000E+00  0.00000000E+00
  0.00000000E+00  0.00000000E+00  0.00000000E+00
  0.00000000E+00  0.00000000E+00  0.00000000E+00
  0.00000000E+00  0.00000000E+00  0.00000000E+00
  0.00000000E+00  0.00000000E+00  0.00000000E+00
  0.00000000E+00  0.00000000E+00  0.00000000E+00
  0.00000000E+00  0.00000000E+00  0.00000000E+00
  0.00000000E+00  0.00000000E+00  0.00000000E+00
  0.00000000E+00  0.00000000E+00  0.00000000E+00
  0.00000000E+00  0.00000000E+00  0.00000000E+00
  0.00000000E+00  0.00000000E+00  0.00000000E+00
  0.00000000E+00  0.00000000E+00  0.00000000E+00
  0.00000000E+00  0.00000000E+00  0.00000000E+00
  0.00000000E+00  0.00000000E+00  0.00000000E+00
  0.00000000E+00  0.00000000E+00  0.00000000E+00
  0.00000000E+00  0.00000000E+00  0.00000000E+00
  0.00000000E+00  0.00000000E+00  0.00000000E+00
  0.00000000E+00  0.00000000E+00  0.00000000E+00
  0.00000000E+00  0.00000000E+00  0.00000000E+00
  0.00000000E+00  0.00000000E+00  0.00000000E+00
  0.00000000E+00  0.00000000E+00  0.00000000E+00
  0.00000000E+00  0.00000000E+00  0.00000000E+00
  0.00000000E+00  0.00000000E+00  0.00000000E+00
  0.00000000E+00  0.00000000E+00  0.00000000E+00
  0.00000000E+00  0.00000000E+00  0.00000000E+00
  0.00000000E+00  0.00000000E+00  0.00000000E+00
  0.00000000E+00  0.00000000E+00  0.00000000E+00
  0.00000000E+00  0.00000000E+00  0.00000000E+00
  0.00000000E+00  0.00000000E+00  0.00000000E+00
  0.00000000E+00  0.00000000E+00  0.00000000E+00
  0.00000000E+00  0.00000000E+00  0.00000000E+00
  0.00000000E+00  0.00000000E+00  0.00000000E+00
  0.00000000E+00  0.00000000E+00  0.00000000E+00
  0.00000000E+00  0.00000000E+00  0.00000000E+00
  0.00000000E+00  0.00000000E+00  0.00000000E+00
  0.00000000E+00  0.00000000E+00  0.00000000E+00
  0.00000000E+00  0.00000000E+00  0.00000000E+00
  0.00000000E+00  0.00000000E+00  0.00000000E+00
  0.00000000E+00  0.00000000E+00  0.00000000E+00
  0.00000000E+00  0.00000000E+00  0.00000000E+00
  0.00000000E+00  0.00000000E+00  0.00000000E+00
  0.00000000E+00  0.00000000E+00  0.00000000E+00
  0.00000000E+00  0.00000000E+00  0.00000000E+00
  0.00000000E+00  0.00000000E+00  0.00000000E+00
  0.00000000E+00  0.00000000E+00  0.00000000E+00
  0.00000000E+00  0.00000000E+00  0.00000000E+00
  0.00000000E+00  0.00000000E+00  0.00000000E+00
  0.00000000E+00  0.00000000E+00  0.00000000E+00
  0.00000000E+00  0.00000000E+00  0.00000000E+00
  0.00000000E+00  0.00000000E+00  0.00000000E+00
  0.00000000E+00  0.00000000E+00  0.00000000E+00
  0.00000000E+00  0.00000000E+00  0.00000000E+00
  0.00000000E+00  0.00000000E+00  0.00000000E+00
  0.00000000E+00  0.00000000E+00  0.00000000E+00
  0.00000000E+00  0.00000000E+00  0.00000000E+00
  0.00000000E+00  0.00000000E+00  0.00000000E+00
  0.00000000E+00  0.00000000E+00  0.00000000E+00
  0.00000000E+00  0.00000000E+00  0.00000000E+00
  0.00000000E+00  0.00000000E+00  0.00000000E+00
  0.00000000E+00  0.00000000E+00  0.00000000E+00
  0.00000000E+00  0.00000000E+00  0.00000000E+00
  0.00000000E+00  0.00000000E+00  0.00000000E+00
  0.00000000E+00  0.00000000E+00  0.00000000E+00
  0.00000000E+00  0.00000000E+00  0.00000000E+00
  0.00000000E+00  0.00000000E+00  0.00000000E+00
  0.00000000E+00  0.00000000E+00  0.00000000E+00
  0.00000000E+00  0.00000000E+00  0.00000000E+00
  0.00000000E+00  0.00000000E+00  0.00000000E+00
  0.00000000E+00  0.00000000E+00  0.00000000E+00
  0.00000000E+00  0.00000000E+00  0.00000000E+00
  0.00000000E+00  0.00000000E+00  0.00000000E+00
  0.00000000E+00  0.00000000E+00  0.00000000E+00
  0.00000000E+00  0.00000000E+00  0.00000000E+00
  0.00000000E+00  0.00000000E+00  0.00000000E+00
  0.00000000E+00  0.00000000E+00  0.00000000E+00
  0.00000000E+00  0.00000000E+00  0.00000000E+00
  0.00000000E+00  0.00000000E+00  0.00000000E+00
  0.00000000E+00  0.00000000E+00  0.00000000E+00
  0.00000000E+00  0.00000000E+00  0.00000000E+00
  0.00000000E+00  0.00000000E+00  0.00000000E+00
  0.00000000E+00  0.00000000E+00  0.00000000E+00
  0.00000000E+00  0.00000000E+00  0.00000000E+00
  0.00000000E+00  0.00000000E+00  0.00000000E+00
  0.00000000E+00  0.00000000E+00  0.00000000E+00
  0.00000000E+00  0.00000000E+00  0.00000000E+00
  0.00000000E+00  0.00000000E+00  0.00000000E+00
  0.00000000E+00  0.00000000E+00  0.00000000E+00
  0.00000000E+00  0.00000000E+00  0.00000000E+00
  0.00000000E+00  0.00000000E+00  0.00000000E+00
  0.00000000E+00  0.00000000E+00  0.00000000E+00
  0.00000000E+00  0.00000000E+00  0.00000000E+00
  0.00000000E+00  0.00000000E+00  0.00000000E+00
  0.00000000E+00  0.00000000E+00  0.00000000E+00
  0.00000000E+00  0.00000000E+00  0.00000000E+00
  0.00000000E+00  0.00000000E+00  0.00000000E+00
  0.00000000E+00  0.00000000E+00  0.00000000E+00
  0.00000000E+00  0.00000000E+00  0.00000000E+00
  0.00000000E+00  0.00000000E+00  0.00000000E+00
  0.00000000E+00  0.00000000E+00  0.00000000E+00
  0.00000000E+00  0.00000000E+00  0.00000000E+00
  0.00000000E+00  0.00000000E+00  0.00000000E+00
  0.00000000E+00  0.00000000E+00  0.00000000E+00
  0.00000000E+00  0.00000000E+00  0.00000000E+00
