Sr   Ti   Fe   O                        
   1.00000000000000     
    11.1989999999999998    0.0000000000000000    0.0000000000000000
     0.0000000000000000   11.1989999999999998    0.0000000000000000
     0.0000000000000000    0.0000000000000000   15.9830000000000005
   Sr   Ti   Fe   O 
    32    31     1    94
Direct
  0.9993069726942096  0.2497188409946306  0.1237105360251828
  0.0005750536327838  0.2425676213566663  0.6289248362804088
  0.9984742003870284  0.7503187326994677  0.1245010999423836
  0.0057249578199756  0.7571432050748150  0.6292713659131786
  0.5001198969138428  0.2497950386544940  0.1251744800752574
  0.5023292062821603  0.2392629592841567  0.6251114623391756
  0.5009102804500809  0.7507837446054494  0.1238097557920817
  0.4951481814749257  0.7550319317171221  0.6258677015095316
  0.0004106122729892  0.2435035676323862  0.3714033927821854
  0.9992918655237321  0.2498345046525892  0.8762432236173712
  0.0048627379671331  0.7548585864153213  0.3723804061151631
  0.9988383223835541  0.7499424450136010  0.8758375578656358
  0.5019757569706581  0.2416789308472986  0.3715377672265103
  0.5005247968672100  0.2467023099982616  0.8759267838500608
  0.4967456170430189  0.7521668002144385  0.3711322778540744
  0.5016309665723331  0.7533828720202205  0.8769859877419283
  0.2498326734352214  1.0000017633454461  0.1246112759380973
  0.2498928712008440  0.9990369852981187  0.6252996010671900
  0.2488978365842136  0.5007006488727569  0.1250927522833321
  0.2388081578103023  0.5048328729174579  0.6270973795861089
  0.7496213415230902  0.9982104677654179  0.1251992485925585
  0.7537343076994417  0.9996882946316025  0.6241859938160970
  0.7499056891582557  0.4999494721845214  0.1227801999233152
  0.7602624735763261  0.4958378600890005  0.6346235105202599
  0.2499680202429621  0.9990217861857965  0.3739711763797833
  0.2503642013569032  1.0001897620263283  0.8749585948917584
  0.2468847171125243  0.5045646012822451  0.3734623521883054
  0.2468964666133084  0.5005059069340378  0.8766632926148652
  0.7528835765724974  1.0008613549298302  0.3753448986238558
  0.7504957810484334  0.9981099971887349  0.8746933506022133
  0.7534207451312124  0.4927024970054559  0.3649658290937801
  0.7522780626300836  0.5003918467681282  0.8779037135319827
  1.0000573765787193  0.9997246768919889  0.9999351752005520
  0.9995950227386943  1.0004812888923822  0.4996334712298516
  0.0007743092862013  0.4992356994474986  0.0005400258188593
  0.0045521760416296  0.4868841703988801  0.4994588629335131
  0.5003980503956549  0.9999232489616000  0.0002305110925973
  0.5014601743583883  0.9955320257364458  0.4994252886952261
  0.4991368740438438  0.4997473022741250  0.0021569814088762
  0.2506938570881616  0.2512458852342367  0.9999727463351608
  0.2537123805594727  0.2423450546086298  0.5007705493891114
  0.2512670583814866  0.7495759973565690 -0.0000593785300958
  0.2482985769935345  0.7523612291012972  0.4992023856868424
  0.7489792658507017  0.2499594038649995  0.9998391390926505
  0.7475678713902120  0.2504019009207308  0.4995716691338796
  0.7497254673736257  0.7507278731012599  1.0001075679209148
  0.2505172101324893  0.2510167456822853  0.2504544676431778
  0.2511003121977992  0.2507841751561949  0.7486332326200966
  0.2497829875623425  0.7501904390591836  0.2487840331300779
  0.2513552370636988  0.7501048176704092  0.7500852217939364
  0.7503449075329885  0.2486513567298241  0.2484446945734966
  0.7499885646312960  0.2489106621540895  0.7500561098797035
  0.7502075512204259  0.7472771690382686  0.2527195458745092
  0.7515647968127322  0.7488466527022641  0.7476129136055895
  0.0002806156732708 -0.0001570131027581  0.2497013224419366
  0.0008584907993101  1.0001830613338039  0.7516098497133962
  0.9996321868241406  0.5007062837604686  0.2491685198458219
  1.0000087358680225  0.5005175125721285  0.7520118870871862
  0.5003525870967597  0.9990242677171149  0.2498986015027209
  0.5008725555731057  0.9995349435500659  0.7499660658181582
  0.5005414689245439  0.5006115897344365  0.2476409156505464
  0.5012847359941889  0.5011766389193035  0.7575369606352402
  0.4913100464063709  0.4915654905900897  0.4940980094965561
  0.7468041393805722  0.7594118760916038  0.5017028846483876
  0.1111201725620056  0.1409403382249555  0.2490855804677808
  0.1114546084862354  0.1400676974040617  0.7541816636755421
  0.1094184983571887  0.6400891262099714  0.2501258498248315
  0.1125896665311824  0.6383027580726491  0.7497306539725819
  0.6114000649999809  0.1381232775384808  0.2488674993343201
  0.6119852901608291  0.1384742006933848  0.7504400014637268
  0.6098389777200033  0.6406298423931643  0.2462892517090458
  0.3908684068762419  0.3619203413032641  0.2550999039992828
  0.3913723191686699  0.3664882335083397  0.7349785868494930
  0.3897375379642207  0.8601626393429029  0.2492982166622046
  0.3891248162032512  0.8616617562282243  0.7509134322936311
  0.8900140071362290  0.3603343104033179  0.2522488673310324
  0.8895208613470965  0.3610861426876615  0.7479572093189114
  0.8893904549699926  0.8593145663539483  0.2544960813845741
  0.8909717272394249  0.8610204901028448  0.7507993486822445
  0.3608664948946981  0.1113028941121008  0.2492887286167322
  0.3628602396076283  0.1129941368538747  0.7509563682769641
  0.3588735185683522  0.6100929695922747  0.2530233009328398
  0.3652217811581559  0.6103133521696095  0.7388687236792000
  0.8609988450669761  0.1092806576348696  0.2503988816351214
  0.8612357695221885  0.1105872695679833  0.7492745595010106
  0.8598657932289023  0.6086118391144602  0.2436312564223319
  0.8622823527400216  0.6099159339001105  0.7576645008542008
  0.1392630561976311  0.3913966114182282  0.2550846209360838
  0.1387148445718531  0.3901503148744211  0.7458835134260783
  0.1388949615308033  0.8903931407030731  0.2503629580749072
  0.1397204794129673  0.8890647100741117  0.7493872019290881
  0.6397110037401372  0.3877695624373336  0.2488185475528150
  0.6406573524081263  0.8873605133443017  0.2573243912192811
  0.6409526545379424  0.8877542244365435  0.7436932662417360
  0.3578603144599953  0.3911964948918277  0.0010987709599993
  0.3588475161189378  0.8921037776912676  0.9992788824808663
  0.3552475267857802  0.8922589524630584  0.4998634733809749
  0.8603815610826669  0.3901730854444591 -0.0000446769298701
  0.8477016230515068  0.4088682647227787  0.4993549004223081
  0.8598395547824542  0.8906097788239027  0.9997225487628347
  0.8674777594308626  0.8934478043653602  0.4976173340238884
  0.1415700642640218  0.1103329447217386  0.9992738890309240
  0.1437024442633746  0.1094936555608192  0.4984108659028220
  0.1400819498843619  0.6094008649595728  1.0000093104926306
  0.1198944194813478  0.6193032768732228  0.4988907809213253
  0.6414848539764819  0.1083774977993302  0.9994218711162098
  0.6444808208937272  0.1051789097973187  0.5001660084951591
  0.6406893259419455  0.6098418421073910 -0.0005257821506943
  0.1096781955057347  0.3585514551979202  0.9994136826946454
  0.1050599022321121  0.3567192072977562  0.4996650537027982
  0.1092526284042276  0.8598659385157162  0.9987974732953007
  0.1102162369660556  0.8636392407677015  0.4997714637753113
  0.6113247615687081  0.3562961117408225  0.0004490570293327
  0.6090277700377236  0.8591535781210182  0.0003197161536429
  0.5959618642329241  0.8538238787373993  0.4991723434657832
  0.3913128294671225  0.1409606802931492  1.0001281034163745
  0.3931046998802680  0.1430089396113247  0.4997848777942662
  0.3889991081754786  0.6441904466142955  0.0006144983212042
  0.3771232765174773  0.6343868323511839  0.4959298681133224
  0.8916479115066771  0.1398149962619270  0.9990445978461000
  0.8939233279829675  0.1480881112121920  0.4999383853247277
  0.8899010759867905  0.6394668954773690  0.9998727945539269
  0.9996461906371963  0.9985642614645533  0.1251693924065116
  0.0019803281689197  0.0036924857654365  0.6258119565641994
  0.0030649514293496  0.4965224235065210  0.1253441556267754
  0.9926018962571542  0.5113815180806552  0.6218912773130302
  0.5025989911429153  0.9976511197413453  0.1255377042786935
  0.4976679618439260  0.0025090867033234  0.6246807762931906
  0.4977834971803756  0.4990145793529767  0.1278060628874848
  0.0026116527809464  0.0049921078991967  0.3741653149983120
  1.0001115934598892  0.9993730472122696  0.8750704931253648
  0.9897420303691603  0.5115978172110206  0.3777192644916396
  0.0032758471237182  0.4967086466794958  0.8750454156451382
  0.4971198659820620  0.0027646152810721  0.3749091335777680
  0.5029860555358209  0.9980223026223218  0.8743961675961790
  0.4944235856655829  0.4965661018212124  0.8728860216177325
  0.2528535445790512  0.2530952583725765  0.3770681828561818
  0.2560632493749287  0.2574372296522735  0.8731232547255303
  0.2466426841148796  0.7526753371074931  0.3743264036433843
  0.2526131627803156  0.7463862443317973  0.8730751122225688
  0.7506568887078802  0.2487102767907074  0.3752134838535288
  0.7502055524832996  0.2524417848252069  0.8732799178417157
  0.7547417109295735  0.7237279322898935  0.3800133377536822
  0.7480747406917829  0.7533195378236517  0.8746624679856697
  0.2507879409928620  0.2541061024587936  0.1261604018394849
  0.2434012675945248  0.2415307455785280  0.6248255960568275
  0.2484834933445698  0.7512299880075639  0.1253974582142832
  0.2472862232815326  0.7515489723207535  0.6241023922271841
  0.7533270812344868  0.2485702051197126  0.1252219172695078
  0.7506178533601493  0.2492748235240120  0.6238095158084114
  0.7499920755283491  0.7544403238934221  0.1257467938460581
  0.6364885562932571  0.3898822725025862  0.7446296766582116
  0.6109852750628472  0.6383882468609356  0.7504685212270568
  0.5157815231390186  0.5135033750354578  0.3773226213376526
  0.5998228135535026  0.3504986498266898  0.4974825152940783
  0.3545965826882250  0.3929484740281082  0.5131184773878490
  0.7692007446835650  0.7370871176707170  0.6237028879983599
  0.5767921896274096  0.5664695704495056  0.5764298585006529
 
  0.00000000E+00  0.00000000E+00  0.00000000E+00
  0.00000000E+00  0.00000000E+00  0.00000000E+00
  0.00000000E+00  0.00000000E+00  0.00000000E+00
  0.00000000E+00  0.00000000E+00  0.00000000E+00
  0.00000000E+00  0.00000000E+00  0.00000000E+00
  0.00000000E+00  0.00000000E+00  0.00000000E+00
  0.00000000E+00  0.00000000E+00  0.00000000E+00
  0.00000000E+00  0.00000000E+00  0.00000000E+00
  0.00000000E+00  0.00000000E+00  0.00000000E+00
  0.00000000E+00  0.00000000E+00  0.00000000E+00
  0.00000000E+00  0.00000000E+00  0.00000000E+00
  0.00000000E+00  0.00000000E+00  0.00000000E+00
  0.00000000E+00  0.00000000E+00  0.00000000E+00
  0.00000000E+00  0.00000000E+00  0.00000000E+00
  0.00000000E+00  0.00000000E+00  0.00000000E+00
  0.00000000E+00  0.00000000E+00  0.00000000E+00
  0.00000000E+00  0.00000000E+00  0.00000000E+00
  0.00000000E+00  0.00000000E+00  0.00000000E+00
  0.00000000E+00  0.00000000E+00  0.00000000E+00
  0.00000000E+00  0.00000000E+00  0.00000000E+00
  0.00000000E+00  0.00000000E+00  0.00000000E+00
  0.00000000E+00  0.00000000E+00  0.00000000E+00
  0.00000000E+00  0.00000000E+00  0.00000000E+00
  0.00000000E+00  0.00000000E+00  0.00000000E+00
  0.00000000E+00  0.00000000E+00  0.00000000E+00
  0.00000000E+00  0.00000000E+00  0.00000000E+00
  0.00000000E+00  0.00000000E+00  0.00000000E+00
  0.00000000E+00  0.00000000E+00  0.00000000E+00
  0.00000000E+00  0.00000000E+00  0.00000000E+00
  0.00000000E+00  0.00000000E+00  0.00000000E+00
  0.00000000E+00  0.00000000E+00  0.00000000E+00
  0.00000000E+00  0.00000000E+00  0.00000000E+00
  0.00000000E+00  0.00000000E+00  0.00000000E+00
  0.00000000E+00  0.00000000E+00  0.00000000E+00
  0.00000000E+00  0.00000000E+00  0.00000000E+00
  0.00000000E+00  0.00000000E+00  0.00000000E+00
  0.00000000E+00  0.00000000E+00  0.00000000E+00
  0.00000000E+00  0.00000000E+00  0.00000000E+00
  0.00000000E+00  0.00000000E+00  0.00000000E+00
  0.00000000E+00  0.00000000E+00  0.00000000E+00
  0.00000000E+00  0.00000000E+00  0.00000000E+00
  0.00000000E+00  0.00000000E+00  0.00000000E+00
  0.00000000E+00  0.00000000E+00  0.00000000E+00
  0.00000000E+00  0.00000000E+00  0.00000000E+00
  0.00000000E+00  0.00000000E+00  0.00000000E+00
  0.00000000E+00  0.00000000E+00  0.00000000E+00
  0.00000000E+00  0.00000000E+00  0.00000000E+00
  0.00000000E+00  0.00000000E+00  0.00000000E+00
  0.00000000E+00  0.00000000E+00  0.00000000E+00
  0.00000000E+00  0.00000000E+00  0.00000000E+00
  0.00000000E+00  0.00000000E+00  0.00000000E+00
  0.00000000E+00  0.00000000E+00  0.00000000E+00
  0.00000000E+00  0.00000000E+00  0.00000000E+00
  0.00000000E+00  0.00000000E+00  0.00000000E+00
  0.00000000E+00  0.00000000E+00  0.00000000E+00
  0.00000000E+00  0.00000000E+00  0.00000000E+00
  0.00000000E+00  0.00000000E+00  0.00000000E+00
  0.00000000E+00  0.00000000E+00  0.00000000E+00
  0.00000000E+00  0.00000000E+00  0.00000000E+00
  0.00000000E+00  0.00000000E+00  0.00000000E+00
  0.00000000E+00  0.00000000E+00  0.00000000E+00
  0.00000000E+00  0.00000000E+00  0.00000000E+00
  0.00000000E+00  0.00000000E+00  0.00000000E+00
  0.00000000E+00  0.00000000E+00  0.00000000E+00
  0.00000000E+00  0.00000000E+00  0.00000000E+00
  0.00000000E+00  0.00000000E+00  0.00000000E+00
  0.00000000E+00  0.00000000E+00  0.00000000E+00
  0.00000000E+00  0.00000000E+00  0.00000000E+00
  0.00000000E+00  0.00000000E+00  0.00000000E+00
  0.00000000E+00  0.00000000E+00  0.00000000E+00
  0.00000000E+00  0.00000000E+00  0.00000000E+00
  0.00000000E+00  0.00000000E+00  0.00000000E+00
  0.00000000E+00  0.00000000E+00  0.00000000E+00
  0.00000000E+00  0.00000000E+00  0.00000000E+00
  0.00000000E+00  0.00000000E+00  0.00000000E+00
  0.00000000E+00  0.00000000E+00  0.00000000E+00
  0.00000000E+00  0.00000000E+00  0.00000000E+00
  0.00000000E+00  0.00000000E+00  0.00000000E+00
  0.00000000E+00  0.00000000E+00  0.00000000E+00
  0.00000000E+00  0.00000000E+00  0.00000000E+00
  0.00000000E+00  0.00000000E+00  0.00000000E+00
  0.00000000E+00  0.00000000E+00  0.00000000E+00
  0.00000000E+00  0.00000000E+00  0.00000000E+00
  0.00000000E+00  0.00000000E+00  0.00000000E+00
  0.00000000E+00  0.00000000E+00  0.00000000E+00
  0.00000000E+00  0.00000000E+00  0.00000000E+00
  0.00000000E+00  0.00000000E+00  0.00000000E+00
  0.00000000E+00  0.00000000E+00  0.00000000E+00
  0.00000000E+00  0.00000000E+00  0.00000000E+00
  0.00000000E+00  0.00000000E+00  0.00000000E+00
  0.00000000E+00  0.00000000E+00  0.00000000E+00
  0.00000000E+00  0.00000000E+00  0.00000000E+00
  0.00000000E+00  0.00000000E+00  0.00000000E+00
  0.00000000E+00  0.00000000E+00  0.00000000E+00
  0.00000000E+00  0.00000000E+00  0.00000000E+00
  0.00000000E+00  0.00000000E+00  0.00000000E+00
  0.00000000E+00  0.00000000E+00  0.00000000E+00
  0.00000000E+00  0.00000000E+00  0.00000000E+00
  0.00000000E+00  0.00000000E+00  0.00000000E+00
  0.00000000E+00  0.00000000E+00  0.00000000E+00
  0.00000000E+00  0.00000000E+00  0.00000000E+00
  0.00000000E+00  0.00000000E+00  0.00000000E+00
  0.00000000E+00  0.00000000E+00  0.00000000E+00
  0.00000000E+00  0.00000000E+00  0.00000000E+00
  0.00000000E+00  0.00000000E+00  0.00000000E+00
  0.00000000E+00  0.00000000E+00  0.00000000E+00
  0.00000000E+00  0.00000000E+00  0.00000000E+00
  0.00000000E+00  0.00000000E+00  0.00000000E+00
  0.00000000E+00  0.00000000E+00  0.00000000E+00
  0.00000000E+00  0.00000000E+00  0.00000000E+00
  0.00000000E+00  0.00000000E+00  0.00000000E+00
  0.00000000E+00  0.00000000E+00  0.00000000E+00
  0.00000000E+00  0.00000000E+00  0.00000000E+00
  0.00000000E+00  0.00000000E+00  0.00000000E+00
  0.00000000E+00  0.00000000E+00  0.00000000E+00
  0.00000000E+00  0.00000000E+00  0.00000000E+00
  0.00000000E+00  0.00000000E+00  0.00000000E+00
  0.00000000E+00  0.00000000E+00  0.00000000E+00
  0.00000000E+00  0.00000000E+00  0.00000000E+00
  0.00000000E+00  0.00000000E+00  0.00000000E+00
  0.00000000E+00  0.00000000E+00  0.00000000E+00
  0.00000000E+00  0.00000000E+00  0.00000000E+00
  0.00000000E+00  0.00000000E+00  0.00000000E+00
  0.00000000E+00  0.00000000E+00  0.00000000E+00
  0.00000000E+00  0.00000000E+00  0.00000000E+00
  0.00000000E+00  0.00000000E+00  0.00000000E+00
  0.00000000E+00  0.00000000E+00  0.00000000E+00
  0.00000000E+00  0.00000000E+00  0.00000000E+00
  0.00000000E+00  0.00000000E+00  0.00000000E+00
  0.00000000E+00  0.00000000E+00  0.00000000E+00
  0.00000000E+00  0.00000000E+00  0.00000000E+00
  0.00000000E+00  0.00000000E+00  0.00000000E+00
  0.00000000E+00  0.00000000E+00  0.00000000E+00
  0.00000000E+00  0.00000000E+00  0.00000000E+00
  0.00000000E+00  0.00000000E+00  0.00000000E+00
  0.00000000E+00  0.00000000E+00  0.00000000E+00
  0.00000000E+00  0.00000000E+00  0.00000000E+00
  0.00000000E+00  0.00000000E+00  0.00000000E+00
  0.00000000E+00  0.00000000E+00  0.00000000E+00
  0.00000000E+00  0.00000000E+00  0.00000000E+00
  0.00000000E+00  0.00000000E+00  0.00000000E+00
  0.00000000E+00  0.00000000E+00  0.00000000E+00
  0.00000000E+00  0.00000000E+00  0.00000000E+00
  0.00000000E+00  0.00000000E+00  0.00000000E+00
  0.00000000E+00  0.00000000E+00  0.00000000E+00
  0.00000000E+00  0.00000000E+00  0.00000000E+00
  0.00000000E+00  0.00000000E+00  0.00000000E+00
  0.00000000E+00  0.00000000E+00  0.00000000E+00
  0.00000000E+00  0.00000000E+00  0.00000000E+00
  0.00000000E+00  0.00000000E+00  0.00000000E+00
  0.00000000E+00  0.00000000E+00  0.00000000E+00
  0.00000000E+00  0.00000000E+00  0.00000000E+00
  0.00000000E+00  0.00000000E+00  0.00000000E+00
  0.00000000E+00  0.00000000E+00  0.00000000E+00
  0.00000000E+00  0.00000000E+00  0.00000000E+00
  0.00000000E+00  0.00000000E+00  0.00000000E+00
  0.00000000E+00  0.00000000E+00  0.00000000E+00
  0.00000000E+00  0.00000000E+00  0.00000000E+00
