SrTiFeO                                 
   1.00000000000000     
    11.1989999999999998    0.0000000000000000    0.0000000000000000
     0.0000000000000000   11.1989999999999998    0.0000000000000000
     0.0000000000000000    0.0000000000000000   15.9830000000000005
   Sr   Ti   Fe   O 
    32    31     1    94
Direct
  0.9998124535439799  0.2504787380593907  0.1246673074573687
  0.0012558110401736  0.2459526640449671  0.6263692055512609
  0.9987859830363711  0.7499051103448814  0.1251334930408591
  0.0074841029655166  0.7529179439195057  0.6265548409579274
  0.4996418595559836  0.2517014702119043  0.1256718884399265
  0.5012187531946586  0.2532450096027228  0.6229348786844463
  0.4992398817914899  0.7495157970813946  0.1234404205776571
  0.4959950020450271  0.7503983500555051  0.6292683699061927
  0.0012558110401736  0.2459526640449671  0.3736307944487390
  0.9998124535439799  0.2504787380593907  0.8753326925426312
  0.0074841029655166  0.7529179439195057  0.3734451590420729
  0.9987859830363711  0.7499051103448814  0.8748665069591411
  0.5012187531946586  0.2532450096027228  0.3770651213155537
  0.4996418595559836  0.2517014702119043  0.8743281115600736
  0.4959950020450271  0.7503983500555051  0.3707316300938073
  0.4992398817914899  0.7495157970813946  0.8765595794223427
  0.2499129147231891  0.0003375240837122  0.1250642285256890
  0.2500016871676826  0.0012384348821063  0.6248168000583738
  0.2507537346668891  0.4998172645767025  0.1253009905078776
  0.2562392958469152  0.5013897912163021  0.6237302079288506
  0.7492647242517887  0.9987845190583966  0.1249782872397270
  0.7519707890315218  0.0053941255718599  0.6254169005137549
  0.7483703464238166  0.4999964336857731  0.1234076776320415
  0.7513128837023062  0.4918688855736751  0.6316560829732291
  0.2500016871676826  0.0012384348821063  0.3751831999416260
  0.2499129147231891  0.0003375240837122  0.8749357714743112
  0.2562392958469152  0.5013897912163021  0.3762697920711493
  0.2507537346668891  0.4998172645767025  0.8746990094921226
  0.7519707890315218  0.0053941255718599  0.3745830994862455
  0.7492647242517887  0.9987845190583966  0.8750217127602732
  0.7513128837023062  0.4918688855736751  0.3683439170267710
  0.7483703464238166  0.4999964336857731  0.8765923223679583
  0.9995991009473275  0.9994271419231284  0.0000000000000000
  0.0023019678821387  0.0013609331898513  0.5000000000000000
  0.0006012070974818  0.4994015661943620  0.0000000000000000
  0.0043490275356182  0.4930606543635552  0.5000000000000000
  0.5003423498707725  0.0002210675209588  0.0000000000000000
  0.4990394050218212  1.0001298447688214  0.5000000000000000
  0.4989883422747975  0.4994855705757099  0.0000000000000000
  0.2499885592563660  0.2504392439359303  0.0000000000000000
  0.2525635506687776  0.2495479337719437  0.5000000000000000
  0.2494210833377500  0.7501497027205077  0.0000000000000000
  0.2537211315742720  0.7505637219749012  0.5000000000000000
  0.7502519681799886  0.2494682900122367  0.0000000000000000
  0.7501297292682211  0.7509179381517354  0.0000000000000000
  0.2504152922232201  0.2503948320338895  0.2506975437468219
  0.2504152922232201  0.2503948320338895  0.7493024562531784
  0.2502625664461361  0.7502102787941475  0.2492619808326890
  0.2502625664461361  0.7502102787941475  0.7507380191673113
  0.7501444875705064  0.2490952029969627  0.2490251848904578
  0.7501444875705064  0.2490952029969627  0.7509748151095420
  0.7497334489083254  0.7481249176585451  0.2500380493297149
  0.7497334489083254  0.7481249176585451  0.7499619506702849
  1.0001205779934770  0.9998854537561841  0.2498002487526031
  1.0001205779934770  0.9998854537561841  0.7501997512473965
  0.0003797508791458  0.5009018482199470  0.2499795679181313
  0.0003797508791458  0.5009018482199470  0.7500204320818687
  0.5003067072172636  0.0006835402566583  0.2503244734332404
  0.5003067072172636  0.0006835402566583  0.7496755265667593
  0.5009846684473668  0.5008763559000070  0.2517072938545037
  0.5009846684473668  0.5008763559000070  0.7482927061454966
  0.7490993265925542  0.2531895359727894  0.5000000000000000
  0.7485682051458312  0.7573676230555464  0.5000000000000000
  0.4986742924751501  0.4993159601208667  0.5000000000000000
  0.1088607703036182  0.1402858170828318  0.2471846335193802
  0.1088607703036182  0.1402858170828318  0.7528153664806198
  0.1090853902964145  0.6412596724153392  0.2490021947584478
  0.1090853902964145  0.6412596724153392  0.7509978052415524
  0.6098470780173537  0.1402884587686239  0.2502850377820227
  0.6098470780173537  0.1402884587686239  0.7497149622179776
  0.6096442188150764  0.6414220419955007  0.2436010002080757
  0.6096442188150764  0.6414220419955007  0.7563989997919247
  0.3900746710176925  0.3602417553573315  0.2533036848795991
  0.3900746710176925  0.3602417553573315  0.7466963151204012
  0.3902184512722272  0.8601892276910048  0.2488070428128636
  0.3902184512722272  0.8601892276910048  0.7511929571871365
  0.8904182232130088  0.3598587221793240  0.2519716996607503
  0.8904182232130088  0.3598587221793240  0.7480283003392496
  0.8893374430848602  0.8580149608342769  0.2551305686344178
  0.8893374430848602  0.8580149608342769  0.7448694313655823
  0.3597490025960825  0.1097430936345788  0.2484687990985600
  0.3597490025960825  0.1097430936345788  0.7515312009014399
  0.3593549020272138  0.6104580456799646  0.2498886584167686
  0.3593549020272138  0.6104580456799646  0.7501113415832312
  0.8592265576624092  0.1087319414549026  0.2490362444445780
  0.8592265576624092  0.1087319414549026  0.7509637555554221
  0.8590278554536767  0.6086336740494117  0.2450227781476152
  0.8590278554536767  0.6086336740494117  0.7549772218523850
  0.1398541504683664  0.3916351100095011  0.2540300969324130
  0.1398541504683664  0.3916351100095011  0.7459699030675868
  0.1397090278050334  0.8902079805093941  0.2504023723574569
  0.1397090278050334  0.8902079805093941  0.7495976276425431
  0.6407420829216873  0.3890531184328019  0.2471890762375822
  0.6407420829216873  0.3890531184328019  0.7528109237624109
  0.6412823650808367  0.8893565126258716  0.2551413966005118
  0.6412823650808367  0.8893565126258716  0.7448586033994885
  0.3585065415323010  0.3903498264473954  0.0000000000000000
  0.3594901763292904  0.8910754888287074  0.0000000000000000
  0.3559802806445221  0.8948894799212623  0.5000000000000000
  0.8596141122629283  0.3904656994337636  0.0000000000000000
  0.8589989621795943  0.8912374084870598  0.0000000000000000
  0.8661910728950440  0.8885135223376367  0.5000000000000000
  0.1407344580361902  0.1088719458567148  0.0000000000000000
  0.1414539260141491  0.1072955852256946  0.5000000000000000
  0.1406017305555401  0.6089747688544502  0.0000000000000000
  0.1343381519027086  0.6124075420040085  0.5000000000000000
  0.6413644336704133  0.1090799800597174  0.0000000000000000
  0.6416106517533811  0.1075756187812632  0.5000000000000000
  0.6402443361896321  0.6105808564361250  0.0000000000000000
  0.1089651387752823  0.3584013363212141  0.0000000000000000
  0.1026407701165746  0.3546221812826636  0.5000000000000000
  0.1088943041497514  0.8589093464285857  0.0000000000000000
  0.1104599309246591  0.8597074230038736  0.5000000000000000
  0.6100971453840832  0.3591081333984011  0.0000000000000000
  0.6091883305059260  0.8593701885901376  0.0000000000000000
  0.5999653767105437  0.8518046966404639  0.5000000000000000
  0.3908846607627698  0.1405655064773964  0.0000000000000000
  0.3928642620873702  0.1424060308568044  0.5000000000000000
  0.3898581866449056  0.6409231498365967  0.0000000000000000
  0.8916480633176267  0.1405247990968874  0.0000000000000000
  0.8911324978593695  0.1429000888220305  0.5000000000000000
  0.8902297743573406  0.6401062712670095  0.0000000000000000
  0.9982757848349625  0.9965214766785039  0.1251640181595449
  0.0006617586279228  0.0030143681404491  0.6256693501828099
  0.0020703949198304  0.4974800179469082  0.1250887339156773
  0.9921675741375737  0.5107976427453845  0.6233202038602247
  0.5028813260386525  0.9988839753479565  0.1252967828099641
  0.4984510527387110  0.0012834176405075  0.6249196654482908
  0.4975711835503804  0.4979382794133137  0.1241738813927437
  0.5098258803803551  0.5078815371980742  0.6273829704771340
  0.0006617586279228  0.0030143681404491  0.3743306498171897
  0.9982757848349625  0.9965214766785039  0.8748359818404553
  0.9921675741375737  0.5107976427453845  0.3766797961397752
  0.0020703949198304  0.4974800179469082  0.8749112660843226
  0.4984510527387110  0.0012834176405075  0.3750803345517092
  0.5028813260386525  0.9988839753479565  0.8747032171900360
  0.4975711835503804  0.4979382794133137  0.8758261186072562
  0.2470890547210680  0.2452661788267987  0.3743027431605017
  0.2502192330340754  0.2528220092216933  0.8746950124156024
  0.2496611464050348  0.7502963175265486  0.3742393201908159
  0.2495242121325477  0.7507821001315201  0.8752946156204157
  0.7516442470286395  0.2491756082877810  0.8752869062482515
  0.7516330823966507  0.7550029450822213  0.8749467265965379
  0.2502192330340754  0.2528220092216933  0.1253049875843975
  0.2470890547210680  0.2452661788267987  0.6256972568394982
  0.2495242121325477  0.7507821001315201  0.1247053843795843
  0.2496611464050348  0.7502963175265486  0.6257606798091844
  0.7516442470286395  0.2491756082877810  0.1247130937517484
  0.7503776453757899  0.2486919148178676  0.6256323984378498
  0.7516330823966507  0.7550029450822213  0.1250532734034622
  0.7459103795807478  0.7267773280899136  0.6216088600988513
  0.7503776453757899  0.2486919148178676  0.3743676015621502
  0.8552879625563700  0.3986751664234832  0.5000000000000000
  0.3919867807780265  0.6459003133350375  0.5000000000000000
  0.5098258803803551  0.5078815371980742  0.3726170295228656
  0.3473920944542676  0.3880899750735831  0.5000000000000000
  0.7459103795807478  0.7267773280899136  0.3783911399011488
  0.6137289022980814  0.3624014594166914  0.5000000000000000
 
  0.00000000E+00  0.00000000E+00  0.00000000E+00
  0.00000000E+00  0.00000000E+00  0.00000000E+00
  0.00000000E+00  0.00000000E+00  0.00000000E+00
  0.00000000E+00  0.00000000E+00  0.00000000E+00
  0.00000000E+00  0.00000000E+00  0.00000000E+00
  0.00000000E+00  0.00000000E+00  0.00000000E+00
  0.00000000E+00  0.00000000E+00  0.00000000E+00
  0.00000000E+00  0.00000000E+00  0.00000000E+00
  0.00000000E+00  0.00000000E+00  0.00000000E+00
  0.00000000E+00  0.00000000E+00  0.00000000E+00
  0.00000000E+00  0.00000000E+00  0.00000000E+00
  0.00000000E+00  0.00000000E+00  0.00000000E+00
  0.00000000E+00  0.00000000E+00  0.00000000E+00
  0.00000000E+00  0.00000000E+00  0.00000000E+00
  0.00000000E+00  0.00000000E+00  0.00000000E+00
  0.00000000E+00  0.00000000E+00  0.00000000E+00
  0.00000000E+00  0.00000000E+00  0.00000000E+00
  0.00000000E+00  0.00000000E+00  0.00000000E+00
  0.00000000E+00  0.00000000E+00  0.00000000E+00
  0.00000000E+00  0.00000000E+00  0.00000000E+00
  0.00000000E+00  0.00000000E+00  0.00000000E+00
  0.00000000E+00  0.00000000E+00  0.00000000E+00
  0.00000000E+00  0.00000000E+00  0.00000000E+00
  0.00000000E+00  0.00000000E+00  0.00000000E+00
  0.00000000E+00  0.00000000E+00  0.00000000E+00
  0.00000000E+00  0.00000000E+00  0.00000000E+00
  0.00000000E+00  0.00000000E+00  0.00000000E+00
  0.00000000E+00  0.00000000E+00  0.00000000E+00
  0.00000000E+00  0.00000000E+00  0.00000000E+00
  0.00000000E+00  0.00000000E+00  0.00000000E+00
  0.00000000E+00  0.00000000E+00  0.00000000E+00
  0.00000000E+00  0.00000000E+00  0.00000000E+00
  0.00000000E+00  0.00000000E+00  0.00000000E+00
  0.00000000E+00  0.00000000E+00  0.00000000E+00
  0.00000000E+00  0.00000000E+00  0.00000000E+00
  0.00000000E+00  0.00000000E+00  0.00000000E+00
  0.00000000E+00  0.00000000E+00  0.00000000E+00
  0.00000000E+00  0.00000000E+00  0.00000000E+00
  0.00000000E+00  0.00000000E+00  0.00000000E+00
  0.00000000E+00  0.00000000E+00  0.00000000E+00
  0.00000000E+00  0.00000000E+00  0.00000000E+00
  0.00000000E+00  0.00000000E+00  0.00000000E+00
  0.00000000E+00  0.00000000E+00  0.00000000E+00
  0.00000000E+00  0.00000000E+00  0.00000000E+00
  0.00000000E+00  0.00000000E+00  0.00000000E+00
  0.00000000E+00  0.00000000E+00  0.00000000E+00
  0.00000000E+00  0.00000000E+00  0.00000000E+00
  0.00000000E+00  0.00000000E+00  0.00000000E+00
  0.00000000E+00  0.00000000E+00  0.00000000E+00
  0.00000000E+00  0.00000000E+00  0.00000000E+00
  0.00000000E+00  0.00000000E+00  0.00000000E+00
  0.00000000E+00  0.00000000E+00  0.00000000E+00
  0.00000000E+00  0.00000000E+00  0.00000000E+00
  0.00000000E+00  0.00000000E+00  0.00000000E+00
  0.00000000E+00  0.00000000E+00  0.00000000E+00
  0.00000000E+00  0.00000000E+00  0.00000000E+00
  0.00000000E+00  0.00000000E+00  0.00000000E+00
  0.00000000E+00  0.00000000E+00  0.00000000E+00
  0.00000000E+00  0.00000000E+00  0.00000000E+00
  0.00000000E+00  0.00000000E+00  0.00000000E+00
  0.00000000E+00  0.00000000E+00  0.00000000E+00
  0.00000000E+00  0.00000000E+00  0.00000000E+00
  0.00000000E+00  0.00000000E+00  0.00000000E+00
  0.00000000E+00  0.00000000E+00  0.00000000E+00
  0.00000000E+00  0.00000000E+00  0.00000000E+00
  0.00000000E+00  0.00000000E+00  0.00000000E+00
  0.00000000E+00  0.00000000E+00  0.00000000E+00
  0.00000000E+00  0.00000000E+00  0.00000000E+00
  0.00000000E+00  0.00000000E+00  0.00000000E+00
  0.00000000E+00  0.00000000E+00  0.00000000E+00
  0.00000000E+00  0.00000000E+00  0.00000000E+00
  0.00000000E+00  0.00000000E+00  0.00000000E+00
  0.00000000E+00  0.00000000E+00  0.00000000E+00
  0.00000000E+00  0.00000000E+00  0.00000000E+00
  0.00000000E+00  0.00000000E+00  0.00000000E+00
  0.00000000E+00  0.00000000E+00  0.00000000E+00
  0.00000000E+00  0.00000000E+00  0.00000000E+00
  0.00000000E+00  0.00000000E+00  0.00000000E+00
  0.00000000E+00  0.00000000E+00  0.00000000E+00
  0.00000000E+00  0.00000000E+00  0.00000000E+00
  0.00000000E+00  0.00000000E+00  0.00000000E+00
  0.00000000E+00  0.00000000E+00  0.00000000E+00
  0.00000000E+00  0.00000000E+00  0.00000000E+00
  0.00000000E+00  0.00000000E+00  0.00000000E+00
  0.00000000E+00  0.00000000E+00  0.00000000E+00
  0.00000000E+00  0.00000000E+00  0.00000000E+00
  0.00000000E+00  0.00000000E+00  0.00000000E+00
  0.00000000E+00  0.00000000E+00  0.00000000E+00
  0.00000000E+00  0.00000000E+00  0.00000000E+00
  0.00000000E+00  0.00000000E+00  0.00000000E+00
  0.00000000E+00  0.00000000E+00  0.00000000E+00
  0.00000000E+00  0.00000000E+00  0.00000000E+00
  0.00000000E+00  0.00000000E+00  0.00000000E+00
  0.00000000E+00  0.00000000E+00  0.00000000E+00
  0.00000000E+00  0.00000000E+00  0.00000000E+00
  0.00000000E+00  0.00000000E+00  0.00000000E+00
  0.00000000E+00  0.00000000E+00  0.00000000E+00
  0.00000000E+00  0.00000000E+00  0.00000000E+00
  0.00000000E+00  0.00000000E+00  0.00000000E+00
  0.00000000E+00  0.00000000E+00  0.00000000E+00
  0.00000000E+00  0.00000000E+00  0.00000000E+00
  0.00000000E+00  0.00000000E+00  0.00000000E+00
  0.00000000E+00  0.00000000E+00  0.00000000E+00
  0.00000000E+00  0.00000000E+00  0.00000000E+00
  0.00000000E+00  0.00000000E+00  0.00000000E+00
  0.00000000E+00  0.00000000E+00  0.00000000E+00
  0.00000000E+00  0.00000000E+00  0.00000000E+00
  0.00000000E+00  0.00000000E+00  0.00000000E+00
  0.00000000E+00  0.00000000E+00  0.00000000E+00
  0.00000000E+00  0.00000000E+00  0.00000000E+00
  0.00000000E+00  0.00000000E+00  0.00000000E+00
  0.00000000E+00  0.00000000E+00  0.00000000E+00
  0.00000000E+00  0.00000000E+00  0.00000000E+00
  0.00000000E+00  0.00000000E+00  0.00000000E+00
  0.00000000E+00  0.00000000E+00  0.00000000E+00
  0.00000000E+00  0.00000000E+00  0.00000000E+00
  0.00000000E+00  0.00000000E+00  0.00000000E+00
  0.00000000E+00  0.00000000E+00  0.00000000E+00
  0.00000000E+00  0.00000000E+00  0.00000000E+00
  0.00000000E+00  0.00000000E+00  0.00000000E+00
  0.00000000E+00  0.00000000E+00  0.00000000E+00
  0.00000000E+00  0.00000000E+00  0.00000000E+00
  0.00000000E+00  0.00000000E+00  0.00000000E+00
  0.00000000E+00  0.00000000E+00  0.00000000E+00
  0.00000000E+00  0.00000000E+00  0.00000000E+00
  0.00000000E+00  0.00000000E+00  0.00000000E+00
  0.00000000E+00  0.00000000E+00  0.00000000E+00
  0.00000000E+00  0.00000000E+00  0.00000000E+00
  0.00000000E+00  0.00000000E+00  0.00000000E+00
  0.00000000E+00  0.00000000E+00  0.00000000E+00
  0.00000000E+00  0.00000000E+00  0.00000000E+00
  0.00000000E+00  0.00000000E+00  0.00000000E+00
  0.00000000E+00  0.00000000E+00  0.00000000E+00
  0.00000000E+00  0.00000000E+00  0.00000000E+00
  0.00000000E+00  0.00000000E+00  0.00000000E+00
  0.00000000E+00  0.00000000E+00  0.00000000E+00
  0.00000000E+00  0.00000000E+00  0.00000000E+00
  0.00000000E+00  0.00000000E+00  0.00000000E+00
  0.00000000E+00  0.00000000E+00  0.00000000E+00
  0.00000000E+00  0.00000000E+00  0.00000000E+00
  0.00000000E+00  0.00000000E+00  0.00000000E+00
  0.00000000E+00  0.00000000E+00  0.00000000E+00
  0.00000000E+00  0.00000000E+00  0.00000000E+00
  0.00000000E+00  0.00000000E+00  0.00000000E+00
  0.00000000E+00  0.00000000E+00  0.00000000E+00
  0.00000000E+00  0.00000000E+00  0.00000000E+00
  0.00000000E+00  0.00000000E+00  0.00000000E+00
  0.00000000E+00  0.00000000E+00  0.00000000E+00
  0.00000000E+00  0.00000000E+00  0.00000000E+00
  0.00000000E+00  0.00000000E+00  0.00000000E+00
  0.00000000E+00  0.00000000E+00  0.00000000E+00
  0.00000000E+00  0.00000000E+00  0.00000000E+00
  0.00000000E+00  0.00000000E+00  0.00000000E+00
  0.00000000E+00  0.00000000E+00  0.00000000E+00
  0.00000000E+00  0.00000000E+00  0.00000000E+00
  0.00000000E+00  0.00000000E+00  0.00000000E+00
  0.00000000E+00  0.00000000E+00  0.00000000E+00
  0.00000000E+00  0.00000000E+00  0.00000000E+00
