SrTiFeO                                 
   1.00000000000000     
    11.1989999999999998    0.0000000000000000    0.0000000000000000
     0.0000000000000000   11.1989999999999998    0.0000000000000000
     0.0000000000000000    0.0000000000000000   15.9830000000000005
   Sr   Ti   Fe   O 
    32    31     1    94
Direct
  0.9993266220593066  0.2510610292011284  0.1240688669041590
  0.0057600586269117  0.2469285950910876  0.6292433617131348
  0.9998087462017675  0.7491817038226273  0.1242794742791662
  0.0039779884831566  0.7526362044963367  0.6283430674680773
  0.5005338863563656  0.2507294609670862  0.1244099093161949
  0.4943424983412125  0.2456627818568284  0.6299410689652239
  0.5004968464884688  0.7488133539794446  0.1246201479064655
  0.4964827227015583  0.7495606315525783  0.6260611166532620
  0.0057600586269117  0.2469285950910876  0.3707566382868652
  0.9993266220593066  0.2510610292011284  0.8759311330958409
  0.0039779884831566  0.7526362044963367  0.3716569325319228
  0.9998087462017675  0.7491817038226273  0.8757205257208337
  0.4943424983412125  0.2456627818568284  0.3700589310347832
  0.5005338863563656  0.2507294609670862  0.8755900906838051
  0.4964827227015583  0.7495606315525783  0.3739388833467377
  0.5004968464884688  0.7488133539794446  0.8753798520935344
  0.2505052959827132  0.0003403190196077  0.1247606702913606
  0.2500567829500803 -0.0000774352990749  0.6257014778303689
  0.2509015274393216  0.4999995918429349  0.1256505281959269
  0.2554553794338515  0.4997946471863389  0.6231036096702319
  0.7496800081108292  0.9999591670723323  0.1251744471525880
  0.7493761659701024  0.9969172924146278  0.6255639305908379
  0.7498535698897253  0.5005022762166262  0.1226584365864737
  0.7500596748842794  0.5012773972443654  0.6314911629881653
  0.2500567829500803 -0.0000774352990749  0.3742985221696313
  0.2505052959827132  0.0003403190196077  0.8752393297086395
  0.2554553794338515  0.4997946471863389  0.3768963903297681
  0.2509015274393216  0.4999995918429349  0.8743494718040730
  0.7493761659701024  0.9969172924146278  0.3744360694091620
  0.7496800081108292  0.9999591670723323  0.8748255528474123
  0.7500596748842794  0.5012773972443654  0.3685088370118346
  0.7498535698897253  0.5005022762166262  0.8773415634135264
  0.9998141153015807  0.0003434544460014 -0.0000000000000000
  0.0048859615898885  0.9944881753110669  0.5000000000000000
  0.0009393829420405  0.4995557543761516 -0.0000000000000000
  0.0023699778848619  0.4930644147269838  0.5000000000000000
  0.5000070176661469  0.9996916448225246 -0.0000000000000000
  0.4972516364019719  0.0019164851242282  0.5000000000000000
  0.4993019829758503  0.5004842131321771 -0.0000000000000000
  0.2497696883121857  0.2501779363453622 -0.0000000000000000
  0.2525110368197355  0.2495412649849437  0.5000000000000000
  0.2503545519755214  0.7499482441350122 -0.0000000000000000
  0.2512858685051778  0.7497293234449577  0.5000000000000000
  0.7505369985363590  0.2492794134239047 -0.0000000000000000
  0.7495768986686607  0.7507305312644414 -0.0000000000000000
  0.2495843313068471  0.2503013234480914  0.2493531919944071
  0.2495843313068471  0.2503013234480914  0.7506468080055999
  0.2502319108148348  0.7496719939436370  0.2498831626443652
  0.2502319108148348  0.7496719939436370  0.7501168373556347
  0.7492252672876730  0.2507316080841982  0.2495696882067441
  0.7492252672876730  0.2507316080841982  0.7504303117932558
  0.7509210895690722  0.7495927350092448  0.2495475171577951
  0.7509210895690722  0.7495927350092448  0.7504524828422049
  0.9998735005276979  0.0000277258555929  0.2495087807034382
  0.9998735005276979  0.0000277258555929  0.7504912192965619
  0.9998222471829381  0.5008734318218535  0.2498829125268426
  0.9998222471829381  0.5008734318218535  0.7501170874731575
  0.5003228098871947  0.9990287870660186  0.2497275899138153
  0.5003228098871947  0.9990287870660186  0.7502724100861846
  0.5013513343224237  0.4989825850740049  0.2516556904222828
  0.5013513343224237  0.4989825850740049  0.7483443095777174
  0.7628416359250821  0.2439568123578425  0.5000000000000000
  0.7436275958673693  0.7507676921487360  0.5000000000000000
  0.5006017672765499  0.5058335041707920  0.5000000000000000
  0.1088725607080353  0.1405320976203007  0.2482977177259053
  0.1088725607080353  0.1405320976203007  0.7517022822740950
  0.1094473154716057  0.6408646408150181  0.2494894432568829
  0.1094473154716057  0.6408646408150181  0.7505105567431171
  0.6097902701798731  0.1403960978560854  0.2502383392235852
  0.6097902701798731  0.1403960978560854  0.7497616607764150
  0.6099596877353516  0.6409890599201236  0.2518254010544434
  0.6099596877353516  0.6409890599201236  0.7481745989455567
  0.3897432394939652  0.3591293926250201  0.2487533553942427
  0.3897432394939652  0.3591293926250201  0.7512466446057572
  0.3910290115419877  0.8588512102882891  0.2503140484286996
  0.3910290115419877  0.8588512102882891  0.7496859515713006
  0.8904993284314668  0.3590134118020689  0.2527080244086926
  0.8904993284314668  0.3590134118020689  0.7472919755913073
  0.8910524304549235  0.8600321083147546  0.2488873205884020
  0.8910524304549235  0.8600321083147546  0.7511126794115983
  0.3601371604127510  0.1100170562734683  0.2508118250655809
  0.3601371604127510  0.1100170562734683  0.7491881749344192
  0.3605025419249367  0.6091168615031760  0.2541299616567373
  0.3605025419249367  0.6091168615031760  0.7458700383432625
  0.8584623022103623  0.1107280549750462  0.2553697223161013
  0.8584623022103623  0.1107280549750462  0.7446302776838987
  0.8595361293456488  0.6096211512563153  0.2452866862668768
  0.8595361293456488  0.6096211512563153  0.7547133137331233
  0.1396499734081609  0.3912848533388490  0.2545042788482849
  0.1396499734081609  0.3912848533388490  0.7454957211517148
  0.1401498676233341  0.8910137132394071  0.2495382545388703
  0.1401498676233341  0.8910137132394071  0.7504617454611296
  0.6411567561927759  0.3900629654771900  0.2435165196458876
  0.6411567561927759  0.3900629654771900  0.7564834803541125
  0.6416734253422566  0.8898978893741117  0.2529605583250601
  0.6416734253422566  0.8898978893741117  0.7470394416749404
  0.3593606727868893  0.3905497831308338 -0.0000000000000000
  0.3588919266112512  0.8909717830906726 -0.0000000000000000
  0.3580363168440124  0.8932149576289147  0.5000000000000000
  0.8597070264566640  0.3899965553188258 -0.0000000000000000
  0.8593240435236530  0.8907916837259310 -0.0000000000000000
  0.8631962176090666  0.8878532313336029  0.5000000000000000
  0.1408085328364247  0.1087812419981942 -0.0000000000000000
  0.1401851897800581  0.1067854946108210  0.5000000000000000
  0.1405844079130251  0.6094975548389431 -0.0000000000000000
  0.1299439298708199  0.6129480671453619  0.5000000000000000
  0.6408004273723965  0.1095126119257865 -0.0000000000000000
  0.6360607744049404  0.1215713924009733  0.5000000000000000
  0.6403529308371440  0.6099167554463384 -0.0000000000000000
  0.1094202982891524  0.3588152742955375 -0.0000000000000000
  0.1024819233947146  0.3551305721299881  0.5000000000000000
  0.1090808154027005  0.8596519843163153 -0.0000000000000000
  0.1083542588663163  0.8588299687795053  0.5000000000000000
  0.6102757221140912  0.3596544877590245 -0.0000000000000000
  0.6089943663770165  0.8593773939205736 -0.0000000000000000
  0.6095415689873556  0.8611924624417170  0.5000000000000000
  0.3904363740904802  0.1406324382842127 -0.0000000000000000
  0.3900554110165699  0.1399175664385238  0.5000000000000000
  0.3903883015940407  0.6412829634148498 -0.0000000000000000
  0.8913416196958548  0.1407020579005613 -0.0000000000000000
  0.8930660769157051  0.1435317719148193  0.5000000000000000
  0.8901065712587075  0.6400196539918348 -0.0000000000000000
  0.9977080631514001  0.0016561729159558  0.1251986968068460
  0.0006007881906529  0.0003453433518942  0.6250725154318953
  0.0017746714811203  0.4974020349237819  0.1254506635085762
  0.9906303279979594  0.5095273452151864  0.6227300383561420
  0.5009543619778478  0.9991868749008350  0.1254958034167533
  0.5005279865918170  0.9999233092776428  0.6244046030873438
  0.4982919510971877  0.5024169253818768  0.1247293441188058
  0.5097416399757413  0.4875128074797033  0.6259279814914167
  0.0006007881906529  0.0003453433518942  0.3749274845681052
  0.9977080631514001  0.0016561729159558  0.8748013031931541
  0.9906303279979594  0.5095273452151864  0.3772699616438581
  0.0017746714811203  0.4974020349237819  0.8745493364914239
  0.5005279865918170  0.9999233092776428  0.3755953969126564
  0.5009543619778478  0.9991868749008350  0.8745041965832469
  0.4982919510971877  0.5024169253818768  0.8752706558811940
  0.2476522127657681  0.2474967714052936  0.3745566205064824
  0.2486065295405626  0.2509652318636658  0.8748384145862571
  0.2476915696414843  0.7521612359342075  0.3747514563780331
  0.2510120061807926  0.7490772478824291  0.8746125932806333
  0.7530418474923831  0.2471729587834302  0.8745782261060819
  0.7482701157644119  0.7517392327098988  0.8749971915287585
  0.2486065295405626  0.2509652318636658  0.1251615854137428
  0.2476522127657681  0.2474967714052936  0.6254433794935175
  0.2510120061807926  0.7490772478824291  0.1253874067193669
  0.2476915696414843  0.7521612359342075  0.6252485436219667
  0.7530418474923831  0.2471729587834302  0.1254217738939179
  0.7362635681051607  0.2620164619033195  0.6211463242859099
  0.7482701157644119  0.7517392327098988  0.1250028084712415
  0.7605844748028058  0.7458491251768334  0.6241211423660624
  0.7362635681051607  0.2620164619033195  0.3788536757140898
  0.8466500256628542  0.3997746850166341  0.5000000000000000
  0.3838422791670764  0.6453235244508281  0.5000000000000000
  0.5097416399757413  0.4875128074797033  0.3740720185085832
  0.3560920057038061  0.3840187652417066  0.5000000000000000
  0.7605844748028058  0.7458491251768334  0.3758788576339376
  0.6610151078625010  0.6032507513876703  0.5000000000000000
 
  0.00000000E+00  0.00000000E+00  0.00000000E+00
  0.00000000E+00  0.00000000E+00  0.00000000E+00
  0.00000000E+00  0.00000000E+00  0.00000000E+00
  0.00000000E+00  0.00000000E+00  0.00000000E+00
  0.00000000E+00  0.00000000E+00  0.00000000E+00
  0.00000000E+00  0.00000000E+00  0.00000000E+00
  0.00000000E+00  0.00000000E+00  0.00000000E+00
  0.00000000E+00  0.00000000E+00  0.00000000E+00
  0.00000000E+00  0.00000000E+00  0.00000000E+00
  0.00000000E+00  0.00000000E+00  0.00000000E+00
  0.00000000E+00  0.00000000E+00  0.00000000E+00
  0.00000000E+00  0.00000000E+00  0.00000000E+00
  0.00000000E+00  0.00000000E+00  0.00000000E+00
  0.00000000E+00  0.00000000E+00  0.00000000E+00
  0.00000000E+00  0.00000000E+00  0.00000000E+00
  0.00000000E+00  0.00000000E+00  0.00000000E+00
  0.00000000E+00  0.00000000E+00  0.00000000E+00
  0.00000000E+00  0.00000000E+00  0.00000000E+00
  0.00000000E+00  0.00000000E+00  0.00000000E+00
  0.00000000E+00  0.00000000E+00  0.00000000E+00
  0.00000000E+00  0.00000000E+00  0.00000000E+00
  0.00000000E+00  0.00000000E+00  0.00000000E+00
  0.00000000E+00  0.00000000E+00  0.00000000E+00
  0.00000000E+00  0.00000000E+00  0.00000000E+00
  0.00000000E+00  0.00000000E+00  0.00000000E+00
  0.00000000E+00  0.00000000E+00  0.00000000E+00
  0.00000000E+00  0.00000000E+00  0.00000000E+00
  0.00000000E+00  0.00000000E+00  0.00000000E+00
  0.00000000E+00  0.00000000E+00  0.00000000E+00
  0.00000000E+00  0.00000000E+00  0.00000000E+00
  0.00000000E+00  0.00000000E+00  0.00000000E+00
  0.00000000E+00  0.00000000E+00  0.00000000E+00
  0.00000000E+00  0.00000000E+00  0.00000000E+00
  0.00000000E+00  0.00000000E+00  0.00000000E+00
  0.00000000E+00  0.00000000E+00  0.00000000E+00
  0.00000000E+00  0.00000000E+00  0.00000000E+00
  0.00000000E+00  0.00000000E+00  0.00000000E+00
  0.00000000E+00  0.00000000E+00  0.00000000E+00
  0.00000000E+00  0.00000000E+00  0.00000000E+00
  0.00000000E+00  0.00000000E+00  0.00000000E+00
  0.00000000E+00  0.00000000E+00  0.00000000E+00
  0.00000000E+00  0.00000000E+00  0.00000000E+00
  0.00000000E+00  0.00000000E+00  0.00000000E+00
  0.00000000E+00  0.00000000E+00  0.00000000E+00
  0.00000000E+00  0.00000000E+00  0.00000000E+00
  0.00000000E+00  0.00000000E+00  0.00000000E+00
  0.00000000E+00  0.00000000E+00  0.00000000E+00
  0.00000000E+00  0.00000000E+00  0.00000000E+00
  0.00000000E+00  0.00000000E+00  0.00000000E+00
  0.00000000E+00  0.00000000E+00  0.00000000E+00
  0.00000000E+00  0.00000000E+00  0.00000000E+00
  0.00000000E+00  0.00000000E+00  0.00000000E+00
  0.00000000E+00  0.00000000E+00  0.00000000E+00
  0.00000000E+00  0.00000000E+00  0.00000000E+00
  0.00000000E+00  0.00000000E+00  0.00000000E+00
  0.00000000E+00  0.00000000E+00  0.00000000E+00
  0.00000000E+00  0.00000000E+00  0.00000000E+00
  0.00000000E+00  0.00000000E+00  0.00000000E+00
  0.00000000E+00  0.00000000E+00  0.00000000E+00
  0.00000000E+00  0.00000000E+00  0.00000000E+00
  0.00000000E+00  0.00000000E+00  0.00000000E+00
  0.00000000E+00  0.00000000E+00  0.00000000E+00
  0.00000000E+00  0.00000000E+00  0.00000000E+00
  0.00000000E+00  0.00000000E+00  0.00000000E+00
  0.00000000E+00  0.00000000E+00  0.00000000E+00
  0.00000000E+00  0.00000000E+00  0.00000000E+00
  0.00000000E+00  0.00000000E+00  0.00000000E+00
  0.00000000E+00  0.00000000E+00  0.00000000E+00
  0.00000000E+00  0.00000000E+00  0.00000000E+00
  0.00000000E+00  0.00000000E+00  0.00000000E+00
  0.00000000E+00  0.00000000E+00  0.00000000E+00
  0.00000000E+00  0.00000000E+00  0.00000000E+00
  0.00000000E+00  0.00000000E+00  0.00000000E+00
  0.00000000E+00  0.00000000E+00  0.00000000E+00
  0.00000000E+00  0.00000000E+00  0.00000000E+00
  0.00000000E+00  0.00000000E+00  0.00000000E+00
  0.00000000E+00  0.00000000E+00  0.00000000E+00
  0.00000000E+00  0.00000000E+00  0.00000000E+00
  0.00000000E+00  0.00000000E+00  0.00000000E+00
  0.00000000E+00  0.00000000E+00  0.00000000E+00
  0.00000000E+00  0.00000000E+00  0.00000000E+00
  0.00000000E+00  0.00000000E+00  0.00000000E+00
  0.00000000E+00  0.00000000E+00  0.00000000E+00
  0.00000000E+00  0.00000000E+00  0.00000000E+00
  0.00000000E+00  0.00000000E+00  0.00000000E+00
  0.00000000E+00  0.00000000E+00  0.00000000E+00
  0.00000000E+00  0.00000000E+00  0.00000000E+00
  0.00000000E+00  0.00000000E+00  0.00000000E+00
  0.00000000E+00  0.00000000E+00  0.00000000E+00
  0.00000000E+00  0.00000000E+00  0.00000000E+00
  0.00000000E+00  0.00000000E+00  0.00000000E+00
  0.00000000E+00  0.00000000E+00  0.00000000E+00
  0.00000000E+00  0.00000000E+00  0.00000000E+00
  0.00000000E+00  0.00000000E+00  0.00000000E+00
  0.00000000E+00  0.00000000E+00  0.00000000E+00
  0.00000000E+00  0.00000000E+00  0.00000000E+00
  0.00000000E+00  0.00000000E+00  0.00000000E+00
  0.00000000E+00  0.00000000E+00  0.00000000E+00
  0.00000000E+00  0.00000000E+00  0.00000000E+00
  0.00000000E+00  0.00000000E+00  0.00000000E+00
  0.00000000E+00  0.00000000E+00  0.00000000E+00
  0.00000000E+00  0.00000000E+00  0.00000000E+00
  0.00000000E+00  0.00000000E+00  0.00000000E+00
  0.00000000E+00  0.00000000E+00  0.00000000E+00
  0.00000000E+00  0.00000000E+00  0.00000000E+00
  0.00000000E+00  0.00000000E+00  0.00000000E+00
  0.00000000E+00  0.00000000E+00  0.00000000E+00
  0.00000000E+00  0.00000000E+00  0.00000000E+00
  0.00000000E+00  0.00000000E+00  0.00000000E+00
  0.00000000E+00  0.00000000E+00  0.00000000E+00
  0.00000000E+00  0.00000000E+00  0.00000000E+00
  0.00000000E+00  0.00000000E+00  0.00000000E+00
  0.00000000E+00  0.00000000E+00  0.00000000E+00
  0.00000000E+00  0.00000000E+00  0.00000000E+00
  0.00000000E+00  0.00000000E+00  0.00000000E+00
  0.00000000E+00  0.00000000E+00  0.00000000E+00
  0.00000000E+00  0.00000000E+00  0.00000000E+00
  0.00000000E+00  0.00000000E+00  0.00000000E+00
  0.00000000E+00  0.00000000E+00  0.00000000E+00
  0.00000000E+00  0.00000000E+00  0.00000000E+00
  0.00000000E+00  0.00000000E+00  0.00000000E+00
  0.00000000E+00  0.00000000E+00  0.00000000E+00
  0.00000000E+00  0.00000000E+00  0.00000000E+00
  0.00000000E+00  0.00000000E+00  0.00000000E+00
  0.00000000E+00  0.00000000E+00  0.00000000E+00
  0.00000000E+00  0.00000000E+00  0.00000000E+00
  0.00000000E+00  0.00000000E+00  0.00000000E+00
  0.00000000E+00  0.00000000E+00  0.00000000E+00
  0.00000000E+00  0.00000000E+00  0.00000000E+00
  0.00000000E+00  0.00000000E+00  0.00000000E+00
  0.00000000E+00  0.00000000E+00  0.00000000E+00
  0.00000000E+00  0.00000000E+00  0.00000000E+00
  0.00000000E+00  0.00000000E+00  0.00000000E+00
  0.00000000E+00  0.00000000E+00  0.00000000E+00
  0.00000000E+00  0.00000000E+00  0.00000000E+00
  0.00000000E+00  0.00000000E+00  0.00000000E+00
  0.00000000E+00  0.00000000E+00  0.00000000E+00
  0.00000000E+00  0.00000000E+00  0.00000000E+00
  0.00000000E+00  0.00000000E+00  0.00000000E+00
  0.00000000E+00  0.00000000E+00  0.00000000E+00
  0.00000000E+00  0.00000000E+00  0.00000000E+00
  0.00000000E+00  0.00000000E+00  0.00000000E+00
  0.00000000E+00  0.00000000E+00  0.00000000E+00
  0.00000000E+00  0.00000000E+00  0.00000000E+00
  0.00000000E+00  0.00000000E+00  0.00000000E+00
  0.00000000E+00  0.00000000E+00  0.00000000E+00
  0.00000000E+00  0.00000000E+00  0.00000000E+00
  0.00000000E+00  0.00000000E+00  0.00000000E+00
  0.00000000E+00  0.00000000E+00  0.00000000E+00
  0.00000000E+00  0.00000000E+00  0.00000000E+00
  0.00000000E+00  0.00000000E+00  0.00000000E+00
  0.00000000E+00  0.00000000E+00  0.00000000E+00
  0.00000000E+00  0.00000000E+00  0.00000000E+00
  0.00000000E+00  0.00000000E+00  0.00000000E+00
  0.00000000E+00  0.00000000E+00  0.00000000E+00
  0.00000000E+00  0.00000000E+00  0.00000000E+00
  0.00000000E+00  0.00000000E+00  0.00000000E+00
  0.00000000E+00  0.00000000E+00  0.00000000E+00
