SrTiFeO                                 
   1.00000000000000     
    11.1989999999999998    0.0000000000000000    0.0000000000000000
     0.0000000000000000   11.1989999999999998    0.0000000000000000
     0.0000000000000000    0.0000000000000000   15.9830000000000005
   Sr   Ti   O 
    32    32    94
Direct
  0.0004896774198536  0.2499955165412395  0.1235555671073170
  0.0026811564616339  0.2483693781793290  0.6281565447096682
  0.0000019414855418  0.7492909442703007  0.1252258215239345
 -0.0017251359832820  0.7524907460133425  0.6256490120873287
  0.5007947067588681  0.2501233146580441  0.1248560310990222
  0.4941860281572255  0.2472996417594491  0.6275176391320982
  0.5003205900972829  0.7496992180672704  0.1245789364518314
  0.4988264944412714  0.7535774693043302  0.6267332013926116
  0.0026811564616339  0.2483693781793290  0.3718434552903322
  0.0004896774198536  0.2499955165412395  0.8764444328926830
 -0.0017251359832820  0.7524907460133425  0.3743509879126711
  0.0000019414855418  0.7492909442703007  0.8747741784760655
  0.4941860281572255  0.2472996417594491  0.3724823608679015
  0.5007947067588681  0.2501233146580441  0.8751439689009777
  0.4988264944412714  0.7535774693043302  0.3732667986073883
  0.5003205900972829  0.7496992180672704  0.8754210635481687
  0.2500312055466228  0.0002686821373483  0.1249578695513624
  0.2498602490732300  0.0000632300723741  0.6256389224827474
  0.2504548084808898  0.4997554768668130  0.1249512307688859
  0.2511383499038879  0.4986445013153605  0.6264792941936537
  0.7505264741571348  0.0009392583048589  0.1250759781854566
  0.7491817401845652 -0.0026507271772144  0.6244489934486365
  0.7510051645658516  0.5008447530253278  0.1230911303555993
  0.7481655752675929  0.5074186924196964  0.6318586327808782
  0.2498602490732300  0.0000632300723741  0.3743610775172526
  0.2500312055466228  0.0002686821373483  0.8750421304486379
  0.2511383499038879  0.4986445013153605  0.3735207058063464
  0.2504548084808898  0.4997554768668130  0.8750487692311143
  0.7491817401845652 -0.0026507271772144  0.3755510065513635
  0.7505264741571348  0.0009392583048589  0.8749240218145433
  0.7481655752675929  0.5074186924196964  0.3681413672191217
  0.7510051645658516  0.5008447530253278  0.8769088696444007
 -0.0003507904376654  0.0000245322668908  0.0000000000000000
  0.0001333673464791  0.0012994703189710  0.5000000000000000
  0.0009140020004028  0.5003895563705747  0.0000000000000000
  0.0065306216143279  0.5040969936490780  0.5000000000000000
  0.5001242189212640  0.0003636840301485  0.0000000000000000
  0.5003472919348319  0.0006128926193817  0.5000000000000000
  0.4994615783901771  0.5006050506140314  0.0000000000000000
  0.2503224706837517  0.2499767588380534  0.0000000000000000
  0.2490775120685425  0.2488249075771429  0.5000000000000000
  0.2499669916936947  0.7496119235975588  0.0000000000000000
  0.2490839480882509  0.7545816307030292  0.5000000000000000
  0.7500684706272581  0.2492020376948259  0.0000000000000000
  0.7496710271653018  0.7507219212040008  0.0000000000000000
  0.2496881580092885  0.2499189543782813  0.2492995270066115
  0.2496881580092885  0.2499189543782813  0.7507004729933887
  0.2495542156792838  0.7497737623293083  0.2502599419647409
  0.2495542156792838  0.7497737623293083  0.7497400580352592
  0.7498324088106467  0.2518335320353434  0.2499356913488112
  0.7498324088106467  0.2518335320353434  0.7500643086511889
  0.7498535917133610  0.7511401220386997  0.2492245467628136
  0.7498535917133610  0.7511401220386997  0.7507754532371864
 -0.0003505093918606  0.0001832105269217  0.2500402982119160
 -0.0003505093918606  0.0001832105269217  0.7499597017880839
 -0.0004125223024798  0.4992037186219963  0.2497906797895630
 -0.0004125223024798  0.4992037186219963  0.7502093202104370
  0.5000193018652412  0.0000903618265605  0.2498735097526608
  0.5000193018652412  0.0000903618265605  0.7501264902473391
  0.5004723879058498  0.4993296610944701  0.2494394222174310
  0.5004723879058498  0.4993296610944701  0.7505605777825689
  0.7507719537855813  0.2497955949079485  0.5000000000000000
  0.4967486739448587  0.5062637579361987  0.5000000000000000
  0.7492502489436212  0.7488888883126109  0.5000000000000000
  0.1098441746456886  0.1399785281946238  0.2491908481655558
  0.1098441746456886  0.1399785281946238  0.7508091518344442
  0.1095304081429336  0.6392958281422116  0.2537310503293081
  0.1095304081429336  0.6392958281422116  0.7462689496706917
  0.6103140155011347  0.1416940738518907  0.2537493418008526
  0.6103140155011347  0.1416940738518907  0.7462506581991475
  0.6098062496439187  0.6401432840496042  0.2518777977777961
  0.6098062496439187  0.6401432840496042  0.7481222022222039
  0.3905129275983545  0.3596088745138385  0.2495477296313043
  0.3905129275983545  0.3596088745138385  0.7504522703686961
  0.3902136332039827  0.8596604915076249  0.2486216281208972
  0.3902136332039827  0.8596604915076249  0.7513783718791028
  0.8909613221961215  0.3592873119903966  0.2463249560208089
  0.8909613221961215  0.3592873119903966  0.7536750439791911
  0.8899788488193300  0.8602976469457092  0.2498534717348407
  0.8899788488193300  0.8602976469457092  0.7501465282651593
  0.3602887724209786  0.1102229522632052  0.2508186551749982
  0.3602887724209786  0.1102229522632052  0.7491813448250016
  0.3606251423968248  0.6092033935273072  0.2535010408584843
  0.3606251423968248  0.6092033935273072  0.7464989591415155
  0.8589157075035257  0.1112760647815147  0.2555533811724585
  0.8589157075035257  0.1112760647815147  0.7444466188275413
  0.8604763037031113  0.6106109887215220  0.2485501460026757
  0.8604763037031113  0.6106109887215220  0.7514498539973244
  0.1405269525335573  0.3906140263875494  0.2510454013653187
  0.1405269525335573  0.3906140263875494  0.7489545986346812
  0.1399790278256045  0.8898001108950031  0.2488621774333331
  0.1399790278256045  0.8898001108950031  0.7511378225666669
  0.6410026925926571  0.3915952703642364  0.2441878116101222
  0.6410026925926571  0.3915952703642364  0.7558121883898778
  0.6405794639021124  0.8910760213719634  0.2502211902324820
  0.6405794639021124  0.8910760213719634  0.7497788097675180
  0.3596053381748285  0.3907222937358500  0.0000000000000000
  0.3590739630553435  0.8906662298911424  0.0000000000000000
  0.3576387894050960  0.8912793561287171  0.5000000000000000
  0.8600521902562182  0.3899246108112874  0.0000000000000000
  0.8590387763194430  0.8907494560792385  0.0000000000000000
  0.8594535209498240  0.8880022341613096  0.5000000000000000
  0.1404534545592990  0.1091155274144267  0.0000000000000000
  0.1444218909145084  0.1051926103474462  0.5000000000000000
  0.1410025615005938  0.6093179292100662  0.0000000000000000
  0.1463862105842590  0.6051819498121875  0.5000000000000000
  0.6407468712870612  0.1092465287326553  0.0000000000000000
  0.6374334119662470  0.1078418208378343  0.5000000000000000
  0.6401756245899678  0.6097233689056578  0.0000000000000000
  0.1096309360404544  0.3594431957941565  0.0000000000000000
  0.1049710546323804  0.3553334508359255  0.5000000000000000
  0.1091558524155271  0.8594194680155508  0.0000000000000000
  0.1069794938794602  0.8549295388024353  0.5000000000000000
  0.6100784306670990  0.3599817431518699  0.0000000000000000
  0.6086632936078645  0.8596229723343531  0.0000000000000000
  0.6079866942389711  0.8552414428204279  0.5000000000000000
  0.3907111036082242  0.1407179071983396  0.0000000000000000
  0.3906443253492164  0.1406472369484243  0.5000000000000000
  0.3904350087707136  0.6414329550717750  0.0000000000000000
  0.8908270948571372  0.1406578359066498  0.0000000000000000
  0.8961570774226392  0.1408676312106339  0.5000000000000000
  0.8901842196161263  0.6402573464410336  0.0000000000000000
 -0.0024865678254600  0.0016622868241756  0.1253821338964053
  0.0022072904633585 -0.0023244488982293  0.6249763320439341
  0.0021507852031275  0.5015259694684442  0.1250698008698169
 -0.0082415004630888  0.4922744744211836  0.6234571530452726
  0.5011462671729223  0.0021673946313977  0.1253600871046429
  0.4990067488228143 -0.0027763645557519  0.6250796178895320
  0.4977859147149142  0.5026537119440899  0.1249580452288981
  0.5072390023097637  0.4896208311161276  0.6235153426297610
  0.0022072904633585 -0.0023244488982293  0.3750236679560662
 -0.0024865678254600  0.0016622868241756  0.8746178661035946
 -0.0082415004630888  0.4922744744211836  0.3765428469547272
  0.0021507852031275  0.5015259694684442  0.8749301991301829
  0.4990067488228143 -0.0027763645557519  0.3749203821104680
  0.5011462671729223  0.0021673946313977  0.8746399128953571
  0.4977859147149142  0.5026537119440899  0.8750419547711020
  0.2495442498859784  0.2502255640018898  0.3749247052351232
  0.2499498596859985  0.2500133089011521  0.8749859391166512
  0.2506894023475466  0.7514408946238865  0.3752997418709597
  0.2492961505973598  0.7471044558469652  0.8744909737665065
  0.7502809081947912  0.2458131131955861  0.8748882619748991
  0.7486999321475722  0.7502576515793888  0.8750012493782766
  0.2499498596859985  0.2500133089011521  0.1250140608833487
  0.2495442498859784  0.2502255640018898  0.6250752947648768
  0.2492961505973598  0.7471044558469652  0.1255090262334934
  0.2506894023475466  0.7514408946238865  0.6247002581290403
  0.7502809081947912  0.2458131131955861  0.1251117380251008
  0.7477692068692122  0.2708950948615741  0.6228170731868737
  0.7486999321475722  0.7502576515793888  0.1249987506217236
  0.7506572507376288  0.7498092605133762  0.6250034869889557
  0.7477692068692122  0.2708950948615741  0.3771829268131263
  0.3927310883969394  0.6424787609516853  0.5000000000000000
  0.5072390023097637  0.4896208311161276  0.3764846573702390
  0.3637254169298569  0.3876144921197574  0.5000000000000000
  0.8889703387102548  0.6336546758026429  0.5000000000000000
  0.7506572507376288  0.7498092605133762  0.3749965130110444
  0.6448511769202089  0.6008128607002593  0.5000000000000000
 
  0.00000000E+00  0.00000000E+00  0.00000000E+00
  0.00000000E+00  0.00000000E+00  0.00000000E+00
  0.00000000E+00  0.00000000E+00  0.00000000E+00
  0.00000000E+00  0.00000000E+00  0.00000000E+00
  0.00000000E+00  0.00000000E+00  0.00000000E+00
  0.00000000E+00  0.00000000E+00  0.00000000E+00
  0.00000000E+00  0.00000000E+00  0.00000000E+00
  0.00000000E+00  0.00000000E+00  0.00000000E+00
  0.00000000E+00  0.00000000E+00  0.00000000E+00
  0.00000000E+00  0.00000000E+00  0.00000000E+00
  0.00000000E+00  0.00000000E+00  0.00000000E+00
  0.00000000E+00  0.00000000E+00  0.00000000E+00
  0.00000000E+00  0.00000000E+00  0.00000000E+00
  0.00000000E+00  0.00000000E+00  0.00000000E+00
  0.00000000E+00  0.00000000E+00  0.00000000E+00
  0.00000000E+00  0.00000000E+00  0.00000000E+00
  0.00000000E+00  0.00000000E+00  0.00000000E+00
  0.00000000E+00  0.00000000E+00  0.00000000E+00
  0.00000000E+00  0.00000000E+00  0.00000000E+00
  0.00000000E+00  0.00000000E+00  0.00000000E+00
  0.00000000E+00  0.00000000E+00  0.00000000E+00
  0.00000000E+00  0.00000000E+00  0.00000000E+00
  0.00000000E+00  0.00000000E+00  0.00000000E+00
  0.00000000E+00  0.00000000E+00  0.00000000E+00
  0.00000000E+00  0.00000000E+00  0.00000000E+00
  0.00000000E+00  0.00000000E+00  0.00000000E+00
  0.00000000E+00  0.00000000E+00  0.00000000E+00
  0.00000000E+00  0.00000000E+00  0.00000000E+00
  0.00000000E+00  0.00000000E+00  0.00000000E+00
  0.00000000E+00  0.00000000E+00  0.00000000E+00
  0.00000000E+00  0.00000000E+00  0.00000000E+00
  0.00000000E+00  0.00000000E+00  0.00000000E+00
  0.00000000E+00  0.00000000E+00  0.00000000E+00
  0.00000000E+00  0.00000000E+00  0.00000000E+00
  0.00000000E+00  0.00000000E+00  0.00000000E+00
  0.00000000E+00  0.00000000E+00  0.00000000E+00
  0.00000000E+00  0.00000000E+00  0.00000000E+00
  0.00000000E+00  0.00000000E+00  0.00000000E+00
  0.00000000E+00  0.00000000E+00  0.00000000E+00
  0.00000000E+00  0.00000000E+00  0.00000000E+00
  0.00000000E+00  0.00000000E+00  0.00000000E+00
  0.00000000E+00  0.00000000E+00  0.00000000E+00
  0.00000000E+00  0.00000000E+00  0.00000000E+00
  0.00000000E+00  0.00000000E+00  0.00000000E+00
  0.00000000E+00  0.00000000E+00  0.00000000E+00
  0.00000000E+00  0.00000000E+00  0.00000000E+00
  0.00000000E+00  0.00000000E+00  0.00000000E+00
  0.00000000E+00  0.00000000E+00  0.00000000E+00
  0.00000000E+00  0.00000000E+00  0.00000000E+00
  0.00000000E+00  0.00000000E+00  0.00000000E+00
  0.00000000E+00  0.00000000E+00  0.00000000E+00
  0.00000000E+00  0.00000000E+00  0.00000000E+00
  0.00000000E+00  0.00000000E+00  0.00000000E+00
  0.00000000E+00  0.00000000E+00  0.00000000E+00
  0.00000000E+00  0.00000000E+00  0.00000000E+00
  0.00000000E+00  0.00000000E+00  0.00000000E+00
  0.00000000E+00  0.00000000E+00  0.00000000E+00
  0.00000000E+00  0.00000000E+00  0.00000000E+00
  0.00000000E+00  0.00000000E+00  0.00000000E+00
  0.00000000E+00  0.00000000E+00  0.00000000E+00
  0.00000000E+00  0.00000000E+00  0.00000000E+00
  0.00000000E+00  0.00000000E+00  0.00000000E+00
  0.00000000E+00  0.00000000E+00  0.00000000E+00
  0.00000000E+00  0.00000000E+00  0.00000000E+00
  0.00000000E+00  0.00000000E+00  0.00000000E+00
  0.00000000E+00  0.00000000E+00  0.00000000E+00
  0.00000000E+00  0.00000000E+00  0.00000000E+00
  0.00000000E+00  0.00000000E+00  0.00000000E+00
  0.00000000E+00  0.00000000E+00  0.00000000E+00
  0.00000000E+00  0.00000000E+00  0.00000000E+00
  0.00000000E+00  0.00000000E+00  0.00000000E+00
  0.00000000E+00  0.00000000E+00  0.00000000E+00
  0.00000000E+00  0.00000000E+00  0.00000000E+00
  0.00000000E+00  0.00000000E+00  0.00000000E+00
  0.00000000E+00  0.00000000E+00  0.00000000E+00
  0.00000000E+00  0.00000000E+00  0.00000000E+00
  0.00000000E+00  0.00000000E+00  0.00000000E+00
  0.00000000E+00  0.00000000E+00  0.00000000E+00
  0.00000000E+00  0.00000000E+00  0.00000000E+00
  0.00000000E+00  0.00000000E+00  0.00000000E+00
  0.00000000E+00  0.00000000E+00  0.00000000E+00
  0.00000000E+00  0.00000000E+00  0.00000000E+00
  0.00000000E+00  0.00000000E+00  0.00000000E+00
  0.00000000E+00  0.00000000E+00  0.00000000E+00
  0.00000000E+00  0.00000000E+00  0.00000000E+00
  0.00000000E+00  0.00000000E+00  0.00000000E+00
  0.00000000E+00  0.00000000E+00  0.00000000E+00
  0.00000000E+00  0.00000000E+00  0.00000000E+00
  0.00000000E+00  0.00000000E+00  0.00000000E+00
  0.00000000E+00  0.00000000E+00  0.00000000E+00
  0.00000000E+00  0.00000000E+00  0.00000000E+00
  0.00000000E+00  0.00000000E+00  0.00000000E+00
  0.00000000E+00  0.00000000E+00  0.00000000E+00
  0.00000000E+00  0.00000000E+00  0.00000000E+00
  0.00000000E+00  0.00000000E+00  0.00000000E+00
  0.00000000E+00  0.00000000E+00  0.00000000E+00
  0.00000000E+00  0.00000000E+00  0.00000000E+00
  0.00000000E+00  0.00000000E+00  0.00000000E+00
  0.00000000E+00  0.00000000E+00  0.00000000E+00
  0.00000000E+00  0.00000000E+00  0.00000000E+00
  0.00000000E+00  0.00000000E+00  0.00000000E+00
  0.00000000E+00  0.00000000E+00  0.00000000E+00
  0.00000000E+00  0.00000000E+00  0.00000000E+00
  0.00000000E+00  0.00000000E+00  0.00000000E+00
  0.00000000E+00  0.00000000E+00  0.00000000E+00
  0.00000000E+00  0.00000000E+00  0.00000000E+00
  0.00000000E+00  0.00000000E+00  0.00000000E+00
  0.00000000E+00  0.00000000E+00  0.00000000E+00
  0.00000000E+00  0.00000000E+00  0.00000000E+00
  0.00000000E+00  0.00000000E+00  0.00000000E+00
  0.00000000E+00  0.00000000E+00  0.00000000E+00
  0.00000000E+00  0.00000000E+00  0.00000000E+00
  0.00000000E+00  0.00000000E+00  0.00000000E+00
  0.00000000E+00  0.00000000E+00  0.00000000E+00
  0.00000000E+00  0.00000000E+00  0.00000000E+00
  0.00000000E+00  0.00000000E+00  0.00000000E+00
  0.00000000E+00  0.00000000E+00  0.00000000E+00
  0.00000000E+00  0.00000000E+00  0.00000000E+00
  0.00000000E+00  0.00000000E+00  0.00000000E+00
  0.00000000E+00  0.00000000E+00  0.00000000E+00
  0.00000000E+00  0.00000000E+00  0.00000000E+00
  0.00000000E+00  0.00000000E+00  0.00000000E+00
  0.00000000E+00  0.00000000E+00  0.00000000E+00
  0.00000000E+00  0.00000000E+00  0.00000000E+00
  0.00000000E+00  0.00000000E+00  0.00000000E+00
  0.00000000E+00  0.00000000E+00  0.00000000E+00
  0.00000000E+00  0.00000000E+00  0.00000000E+00
  0.00000000E+00  0.00000000E+00  0.00000000E+00
  0.00000000E+00  0.00000000E+00  0.00000000E+00
  0.00000000E+00  0.00000000E+00  0.00000000E+00
  0.00000000E+00  0.00000000E+00  0.00000000E+00
  0.00000000E+00  0.00000000E+00  0.00000000E+00
  0.00000000E+00  0.00000000E+00  0.00000000E+00
  0.00000000E+00  0.00000000E+00  0.00000000E+00
  0.00000000E+00  0.00000000E+00  0.00000000E+00
  0.00000000E+00  0.00000000E+00  0.00000000E+00
  0.00000000E+00  0.00000000E+00  0.00000000E+00
  0.00000000E+00  0.00000000E+00  0.00000000E+00
  0.00000000E+00  0.00000000E+00  0.00000000E+00
  0.00000000E+00  0.00000000E+00  0.00000000E+00
  0.00000000E+00  0.00000000E+00  0.00000000E+00
  0.00000000E+00  0.00000000E+00  0.00000000E+00
  0.00000000E+00  0.00000000E+00  0.00000000E+00
  0.00000000E+00  0.00000000E+00  0.00000000E+00
  0.00000000E+00  0.00000000E+00  0.00000000E+00
  0.00000000E+00  0.00000000E+00  0.00000000E+00
  0.00000000E+00  0.00000000E+00  0.00000000E+00
  0.00000000E+00  0.00000000E+00  0.00000000E+00
  0.00000000E+00  0.00000000E+00  0.00000000E+00
  0.00000000E+00  0.00000000E+00  0.00000000E+00
  0.00000000E+00  0.00000000E+00  0.00000000E+00
  0.00000000E+00  0.00000000E+00  0.00000000E+00
  0.00000000E+00  0.00000000E+00  0.00000000E+00
  0.00000000E+00  0.00000000E+00  0.00000000E+00
  0.00000000E+00  0.00000000E+00  0.00000000E+00
  0.00000000E+00  0.00000000E+00  0.00000000E+00
  0.00000000E+00  0.00000000E+00  0.00000000E+00
  0.00000000E+00  0.00000000E+00  0.00000000E+00
