Sr   Ti   O                             
   1.00000000000000     
    11.1989999999999998    0.0000000000000000    0.0000000000000000
     0.0000000000000000   11.1989999999999998    0.0000000000000000
     0.0000000000000000    0.0000000000000000   15.9830000000000005
   Sr   Ti   O 
    32    32    94
Direct
 -0.0001271921632621  0.2499827511694455  0.1233277552564860
  0.0038654293323597  0.2484998897606820  0.6288138932843019
  0.9987634488238921  0.7492244929279930  0.1251682637532857
  0.9991672536052492  0.7517206706154355  0.6268387269851046
  0.5008880306397736  0.2508645007696507  0.1244176296620813
  0.4918940042484991  0.2440980738605993  0.6299550381037968
  0.4993372311541232  0.7498824638621501  0.1234820753047802
  0.4971975323159482  0.7556172856554003  0.6307837080463438
  0.0038654293323597  0.2484998897606820  0.3711861067156977
 -0.0001271921632621  0.2499827511694455  0.8766722447435144
  0.9991672536052492  0.7517206706154355  0.3731612730148951
  0.9987634488238921  0.7492244929279930  0.8748317362467147
  0.4918940042484991  0.2440980738605993  0.3700449618962025
  0.5008880306397736  0.2508645007696507  0.8755823703379183
  0.4971975323159482  0.7556172856554003  0.3692162919536570
  0.4993372311541232  0.7498824638621501  0.8765179246952193
  0.2497507661443965 -0.0004809567077523  0.1249211713110849
  0.2497529985165424 -0.0009518927058803  0.6260268514429618
  0.2502292359433070  0.5002912228715456  0.1238468788861468
  0.2507368420883613  0.4984152564968681  0.6288685813751519
  0.7502805564687139  0.0002001161090446  0.1248804019821846
  0.7481463584203984  0.9987555520148218  0.6253953775843967
  0.7498006208780337  0.5008571299226303  0.1226626339568218
  0.7512021277718154  0.5029892444395959  0.6372395516625224
  0.2497529985165424 -0.0009518927058803  0.3739731485570348
  0.2497507661443965 -0.0004809567077523  0.8750788286889140
  0.2507368420883613  0.4984152564968681  0.3711314186248469
  0.2502292359433070  0.5002912228715456  0.8761531211138526
  0.7481463584203984  0.9987555520148218  0.3746046224156031
  0.7502805564687139  0.0002001161090446  0.8751195980178159
  0.7512021277718154  0.5029892444395959  0.3627604483374773
  0.7498006208780337  0.5008571299226303  0.8773373660431786
  0.9995177570073246  0.9999682350644167  0.0000000000000000
 -0.0004306339230474  0.0005855224260261  0.5000000000000000
  0.0008500667003467  0.5001809682702397  0.0000000000000000
  0.0072468356587776  0.5047394207490856  0.5000000000000000
  0.5000318265381860  0.0007266427906037  0.0000000000000000
  0.5001360665215183  0.9994501947209768  0.5000000000000000
  0.4990374132661455  0.5002958682705150  0.0000000000000000
  0.2502194358261717  0.2495354489327038  0.0000000000000000
  0.2473294503466284  0.2453063698444525  0.5000000000000000
  0.2490303369728704  0.7501428486141268  0.0000000000000000
  0.2504918537874509  0.7537636851874419  0.5000000000000000
  0.7501391364097258  0.2491491898144185  0.0000000000000000
  0.7496149578060278  0.7509866440415879  0.0000000000000000
  0.2491194759585464  0.2496455402993028  0.2484521613064035
  0.2491194759585464  0.2496455402993028  0.7515478386935962
  0.2489385979921827  0.7499726013475948  0.2494147485107595
  0.2489385979921827  0.7499726013475948  0.7505852514892408
  0.7496085808454650  0.2514133147703359  0.2492757399286036
  0.7496085808454650  0.2514133147703359  0.7507242600713974
  0.7489623690228204  0.7502283806595827  0.2494202656287866
  0.7489623690228204  0.7502283806595827  0.7505797343712134
  0.9990909209695500  0.9998318564241530  0.2501478347531434
  0.9990909209695500  0.9998318564241530  0.7498521652468562
  1.0001466628775677  0.4995708711190925  0.2487241928946869
  1.0001466628775677  0.4995708711190925  0.7512758071053129
  0.4999763006702326  0.0001261400504547  0.2490142869144835
  0.4999763006702326  0.0001261400504547  0.7509857130855171
  0.4987562738533792  0.5001178569954191  0.2488401443408513
  0.4987562738533792  0.5001178569954191  0.7511598556591506
  0.7544406526409100  0.2517149937503225  0.5000000000000000
  0.4918182243941978  0.5029662855538052  0.5000000000000000
  0.7540721144725024  0.7530729030910946  0.5000000000000000
  0.1101455523609214  0.1399665992566535  0.2484976785930811
  0.1101455523609214  0.1399665992566535  0.7515023214069183
  0.1097996756701314  0.6391213726210466  0.2536014800505348
  0.1097996756701314  0.6391213726210466  0.7463985199494658
  0.6108773169242017  0.1407580110767755  0.2536022854608186
  0.6108773169242017  0.1407580110767755  0.7463977145391810
  0.6090934607271422  0.6386083972191674  0.2472754942176053
  0.6090934607271422  0.6386083972191674  0.7527245057823954
  0.3889751056696942  0.3596281384548952  0.2491346861571479
  0.3889751056696942  0.3596281384548952  0.7508653138428514
  0.3887253582245709  0.8611685524715057  0.2477455929145521
  0.3887253582245709  0.8611685524715057  0.7522544070854488
  0.8893538873528375  0.3607218224518626  0.2471833923070837
  0.8893538873528375  0.3607218224518626  0.7528166076929170
  0.8887467451924832  0.8614607427320651  0.2510477009055829
  0.8887467451924832  0.8614607427320651  0.7489522990944171
  0.3610129491148844  0.1112771140917403  0.2514638769963523
  0.3610129491148844  0.1112771140917403  0.7485361230036467
  0.3592918390577948  0.6103522867896481  0.2493953485512017
  0.3592918390577948  0.6103522867896481  0.7506046514487972
  0.8591936610846457  0.1120895585640437  0.2556752938095166
  0.8591936610846457  0.1120895585640437  0.7443247061904829
  0.8622850255890515  0.6120025091970247  0.2453798721690668
  0.8622850255890515  0.6120025091970247  0.7546201278309334
  0.1399269009860964  0.3897705177775114  0.2504362717829726
  0.1399269009860964  0.3897705177775114  0.7495637282170289
  0.1387377023074045  0.8894224461276909  0.2495393209407374
  0.1387377023074045  0.8894224461276909  0.7504606790592619
  0.6384175802924704  0.3902204094433083  0.2449862210374907
  0.6384175802924704  0.3902204094433083  0.7550137789625090
  0.6392284629332711  0.8902295106316175  0.2496897882245293
  0.6392284629332711  0.8902295106316175  0.7503102117754684
  0.3589189764952038  0.3901251376347757  0.0000000000000000
  0.3592353037466255  0.8907251328022893  0.0000000000000000
  0.3558289425637254  0.8936318564896687  0.5000000000000000
  0.8600648319602499  0.3898695285146354  0.0000000000000000
  0.8591884842953244  0.8911972554512263  0.0000000000000000
  0.8602095826458768  0.8946714502540101  0.5000000000000000
  0.1405399125386687  0.1089052227031909  0.0000000000000000
  0.1457650761343921  0.1041078385275523  0.5000000000000000
  0.1406353938705224  0.6094294277078701  0.0000000000000000
  0.1540360901454365  0.6025967659675480  0.5000000000000000
  0.6409095051005728  0.1093774241279373  0.0000000000000000
  0.6370056585102262  0.1102323571129759  0.5000000000000000
  0.6395619239583172  0.6099387368629170  0.0000000000000000
  0.1098840763027253  0.3588211692525182  0.0000000000000000
  0.1086328647388809  0.3549541464786248  0.5000000000000000
  0.1084743155634938  0.8599722618817592  0.0000000000000000
  0.1065221570535597  0.8527891332381388  0.5000000000000000
  0.6102179741904177  0.3600264098973600  0.0000000000000000
  0.6086014117863502  0.8600766012505321  0.0000000000000000
  0.6047935120231154  0.8499381909533182  0.5000000000000000
  0.3907746699688285  0.1411397708806044  0.0000000000000000
  0.3908117388946401  0.1396140224174034  0.5000000000000000
  0.3897501565060814  0.6411627799548213  0.0000000000000000
  0.8909223232011356  0.1407748053093519  0.0000000000000000
  0.8979484758653834  0.1438616855172930  0.5000000000000000
  0.8899682224721783  0.6399731416535352  0.0000000000000000
  0.9972412237506352  0.0015835908409296  0.1255078406881019
  0.0037484083081435  0.9995414223133353  0.6251349494050438
  0.0032965014866204  0.5001639437385620  0.1247592923890744
  0.9930587040140878  0.4938813807881838  0.6238355818588893
  0.5006602627374349  0.0029019160732167  0.1252603044396544
  0.4998652535687873  0.9973480964656772  0.6251344952351947
  0.4965331291534723  0.5002031050729807  0.1240480006100870
  0.4971270611678384  0.4984111687389736  0.6258143437589615
  0.0037484083081435  0.9995414223133353  0.3748650505949551
  0.9972412237506352  0.0015835908409296  0.8744921593118977
  0.9930587040140878  0.4938813807881838  0.3761644181411116
  0.0032965014866204  0.5001639437385620  0.8752407076109251
  0.4998652535687873  0.9973480964656772  0.3748655047648034
  0.5006602627374349  0.0029019160732167  0.8747396955603461
  0.4965331291534723  0.5002031050729807  0.8759519993899139
  0.2496944220564601  0.2499896126243833  0.3748690448042008
  0.2500291307426115  0.2491345143209495  0.8751878036759365
  0.2526931991031394  0.7502391893372089  0.3752999371536557
  0.2474673296779736  0.7489770829888251  0.8748691365872308
  0.7502652842334536  0.2464462061487669  0.8746272147211283
  0.7493819760817692  0.7520621535516162  0.8759212512330047
  0.2500291307426115  0.2491345143209495  0.1248121963240635
  0.2496944220564601  0.2499896126243833  0.6251309551957983
  0.2474673296779736  0.7489770829888251  0.1251308634127682
  0.2526931991031394  0.7502391893372089  0.6247000628463431
  0.7502652842334536  0.2464462061487669  0.1253727852788713
  0.7471464409590298  0.2706512099693266  0.6221804934765862
  0.7493819760817692  0.7520621535516162  0.1240787487669951
  0.7456757898305186  0.7428553225675125  0.6280967721726018
  0.7471464409590298  0.2706512099693266  0.3778195065234120
  0.4085178469529214  0.6502212462473542  0.5000000000000000
  0.4971270611678384  0.4984111687389736  0.3741856562410387
  0.3714502406189788  0.3822609287458376  0.5000000000000000
  0.8888669949334168  0.6333889687134009  0.5000000000000000
  0.7456757898305186  0.7428553225675125  0.3719032278273984
  0.6595536486544485  0.4861931885459159  0.5000000000000000
 
  0.00000000E+00  0.00000000E+00  0.00000000E+00
  0.00000000E+00  0.00000000E+00  0.00000000E+00
  0.00000000E+00  0.00000000E+00  0.00000000E+00
  0.00000000E+00  0.00000000E+00  0.00000000E+00
  0.00000000E+00  0.00000000E+00  0.00000000E+00
  0.00000000E+00  0.00000000E+00  0.00000000E+00
  0.00000000E+00  0.00000000E+00  0.00000000E+00
  0.00000000E+00  0.00000000E+00  0.00000000E+00
  0.00000000E+00  0.00000000E+00  0.00000000E+00
  0.00000000E+00  0.00000000E+00  0.00000000E+00
  0.00000000E+00  0.00000000E+00  0.00000000E+00
  0.00000000E+00  0.00000000E+00  0.00000000E+00
  0.00000000E+00  0.00000000E+00  0.00000000E+00
  0.00000000E+00  0.00000000E+00  0.00000000E+00
  0.00000000E+00  0.00000000E+00  0.00000000E+00
  0.00000000E+00  0.00000000E+00  0.00000000E+00
  0.00000000E+00  0.00000000E+00  0.00000000E+00
  0.00000000E+00  0.00000000E+00  0.00000000E+00
  0.00000000E+00  0.00000000E+00  0.00000000E+00
  0.00000000E+00  0.00000000E+00  0.00000000E+00
  0.00000000E+00  0.00000000E+00  0.00000000E+00
  0.00000000E+00  0.00000000E+00  0.00000000E+00
  0.00000000E+00  0.00000000E+00  0.00000000E+00
  0.00000000E+00  0.00000000E+00  0.00000000E+00
  0.00000000E+00  0.00000000E+00  0.00000000E+00
  0.00000000E+00  0.00000000E+00  0.00000000E+00
  0.00000000E+00  0.00000000E+00  0.00000000E+00
  0.00000000E+00  0.00000000E+00  0.00000000E+00
  0.00000000E+00  0.00000000E+00  0.00000000E+00
  0.00000000E+00  0.00000000E+00  0.00000000E+00
  0.00000000E+00  0.00000000E+00  0.00000000E+00
  0.00000000E+00  0.00000000E+00  0.00000000E+00
  0.00000000E+00  0.00000000E+00  0.00000000E+00
  0.00000000E+00  0.00000000E+00  0.00000000E+00
  0.00000000E+00  0.00000000E+00  0.00000000E+00
  0.00000000E+00  0.00000000E+00  0.00000000E+00
  0.00000000E+00  0.00000000E+00  0.00000000E+00
  0.00000000E+00  0.00000000E+00  0.00000000E+00
  0.00000000E+00  0.00000000E+00  0.00000000E+00
  0.00000000E+00  0.00000000E+00  0.00000000E+00
  0.00000000E+00  0.00000000E+00  0.00000000E+00
  0.00000000E+00  0.00000000E+00  0.00000000E+00
  0.00000000E+00  0.00000000E+00  0.00000000E+00
  0.00000000E+00  0.00000000E+00  0.00000000E+00
  0.00000000E+00  0.00000000E+00  0.00000000E+00
  0.00000000E+00  0.00000000E+00  0.00000000E+00
  0.00000000E+00  0.00000000E+00  0.00000000E+00
  0.00000000E+00  0.00000000E+00  0.00000000E+00
  0.00000000E+00  0.00000000E+00  0.00000000E+00
  0.00000000E+00  0.00000000E+00  0.00000000E+00
  0.00000000E+00  0.00000000E+00  0.00000000E+00
  0.00000000E+00  0.00000000E+00  0.00000000E+00
  0.00000000E+00  0.00000000E+00  0.00000000E+00
  0.00000000E+00  0.00000000E+00  0.00000000E+00
  0.00000000E+00  0.00000000E+00  0.00000000E+00
  0.00000000E+00  0.00000000E+00  0.00000000E+00
  0.00000000E+00  0.00000000E+00  0.00000000E+00
  0.00000000E+00  0.00000000E+00  0.00000000E+00
  0.00000000E+00  0.00000000E+00  0.00000000E+00
  0.00000000E+00  0.00000000E+00  0.00000000E+00
  0.00000000E+00  0.00000000E+00  0.00000000E+00
  0.00000000E+00  0.00000000E+00  0.00000000E+00
  0.00000000E+00  0.00000000E+00  0.00000000E+00
  0.00000000E+00  0.00000000E+00  0.00000000E+00
  0.00000000E+00  0.00000000E+00  0.00000000E+00
  0.00000000E+00  0.00000000E+00  0.00000000E+00
  0.00000000E+00  0.00000000E+00  0.00000000E+00
  0.00000000E+00  0.00000000E+00  0.00000000E+00
  0.00000000E+00  0.00000000E+00  0.00000000E+00
  0.00000000E+00  0.00000000E+00  0.00000000E+00
  0.00000000E+00  0.00000000E+00  0.00000000E+00
  0.00000000E+00  0.00000000E+00  0.00000000E+00
  0.00000000E+00  0.00000000E+00  0.00000000E+00
  0.00000000E+00  0.00000000E+00  0.00000000E+00
  0.00000000E+00  0.00000000E+00  0.00000000E+00
  0.00000000E+00  0.00000000E+00  0.00000000E+00
  0.00000000E+00  0.00000000E+00  0.00000000E+00
  0.00000000E+00  0.00000000E+00  0.00000000E+00
  0.00000000E+00  0.00000000E+00  0.00000000E+00
  0.00000000E+00  0.00000000E+00  0.00000000E+00
  0.00000000E+00  0.00000000E+00  0.00000000E+00
  0.00000000E+00  0.00000000E+00  0.00000000E+00
  0.00000000E+00  0.00000000E+00  0.00000000E+00
  0.00000000E+00  0.00000000E+00  0.00000000E+00
  0.00000000E+00  0.00000000E+00  0.00000000E+00
  0.00000000E+00  0.00000000E+00  0.00000000E+00
  0.00000000E+00  0.00000000E+00  0.00000000E+00
  0.00000000E+00  0.00000000E+00  0.00000000E+00
  0.00000000E+00  0.00000000E+00  0.00000000E+00
  0.00000000E+00  0.00000000E+00  0.00000000E+00
  0.00000000E+00  0.00000000E+00  0.00000000E+00
  0.00000000E+00  0.00000000E+00  0.00000000E+00
  0.00000000E+00  0.00000000E+00  0.00000000E+00
  0.00000000E+00  0.00000000E+00  0.00000000E+00
  0.00000000E+00  0.00000000E+00  0.00000000E+00
  0.00000000E+00  0.00000000E+00  0.00000000E+00
  0.00000000E+00  0.00000000E+00  0.00000000E+00
  0.00000000E+00  0.00000000E+00  0.00000000E+00
  0.00000000E+00  0.00000000E+00  0.00000000E+00
  0.00000000E+00  0.00000000E+00  0.00000000E+00
  0.00000000E+00  0.00000000E+00  0.00000000E+00
  0.00000000E+00  0.00000000E+00  0.00000000E+00
  0.00000000E+00  0.00000000E+00  0.00000000E+00
  0.00000000E+00  0.00000000E+00  0.00000000E+00
  0.00000000E+00  0.00000000E+00  0.00000000E+00
  0.00000000E+00  0.00000000E+00  0.00000000E+00
  0.00000000E+00  0.00000000E+00  0.00000000E+00
  0.00000000E+00  0.00000000E+00  0.00000000E+00
  0.00000000E+00  0.00000000E+00  0.00000000E+00
  0.00000000E+00  0.00000000E+00  0.00000000E+00
  0.00000000E+00  0.00000000E+00  0.00000000E+00
  0.00000000E+00  0.00000000E+00  0.00000000E+00
  0.00000000E+00  0.00000000E+00  0.00000000E+00
  0.00000000E+00  0.00000000E+00  0.00000000E+00
  0.00000000E+00  0.00000000E+00  0.00000000E+00
  0.00000000E+00  0.00000000E+00  0.00000000E+00
  0.00000000E+00  0.00000000E+00  0.00000000E+00
  0.00000000E+00  0.00000000E+00  0.00000000E+00
  0.00000000E+00  0.00000000E+00  0.00000000E+00
  0.00000000E+00  0.00000000E+00  0.00000000E+00
  0.00000000E+00  0.00000000E+00  0.00000000E+00
  0.00000000E+00  0.00000000E+00  0.00000000E+00
  0.00000000E+00  0.00000000E+00  0.00000000E+00
  0.00000000E+00  0.00000000E+00  0.00000000E+00
  0.00000000E+00  0.00000000E+00  0.00000000E+00
  0.00000000E+00  0.00000000E+00  0.00000000E+00
  0.00000000E+00  0.00000000E+00  0.00000000E+00
  0.00000000E+00  0.00000000E+00  0.00000000E+00
  0.00000000E+00  0.00000000E+00  0.00000000E+00
  0.00000000E+00  0.00000000E+00  0.00000000E+00
  0.00000000E+00  0.00000000E+00  0.00000000E+00
  0.00000000E+00  0.00000000E+00  0.00000000E+00
  0.00000000E+00  0.00000000E+00  0.00000000E+00
  0.00000000E+00  0.00000000E+00  0.00000000E+00
  0.00000000E+00  0.00000000E+00  0.00000000E+00
  0.00000000E+00  0.00000000E+00  0.00000000E+00
  0.00000000E+00  0.00000000E+00  0.00000000E+00
  0.00000000E+00  0.00000000E+00  0.00000000E+00
  0.00000000E+00  0.00000000E+00  0.00000000E+00
  0.00000000E+00  0.00000000E+00  0.00000000E+00
  0.00000000E+00  0.00000000E+00  0.00000000E+00
  0.00000000E+00  0.00000000E+00  0.00000000E+00
  0.00000000E+00  0.00000000E+00  0.00000000E+00
  0.00000000E+00  0.00000000E+00  0.00000000E+00
  0.00000000E+00  0.00000000E+00  0.00000000E+00
  0.00000000E+00  0.00000000E+00  0.00000000E+00
  0.00000000E+00  0.00000000E+00  0.00000000E+00
  0.00000000E+00  0.00000000E+00  0.00000000E+00
  0.00000000E+00  0.00000000E+00  0.00000000E+00
  0.00000000E+00  0.00000000E+00  0.00000000E+00
  0.00000000E+00  0.00000000E+00  0.00000000E+00
  0.00000000E+00  0.00000000E+00  0.00000000E+00
  0.00000000E+00  0.00000000E+00  0.00000000E+00
  0.00000000E+00  0.00000000E+00  0.00000000E+00
  0.00000000E+00  0.00000000E+00  0.00000000E+00
  0.00000000E+00  0.00000000E+00  0.00000000E+00
  0.00000000E+00  0.00000000E+00  0.00000000E+00
  0.00000000E+00  0.00000000E+00  0.00000000E+00
