SrTiFeO                                 
   1.00000000000000     
    11.1989999999999998    0.0000000000000000    0.0000000000000000
     0.0000000000000000   11.1989999999999998    0.0000000000000000
     0.0000000000000000    0.0000000000000000   15.9830000000000005
   Sr   Ti   Fe   O 
    32    29     3    94
Direct
  0.0010408306795545  0.2500804385504862  0.1248883782610898
  0.9955894541961690  0.2506233210912326  0.6264772198179260
  0.9995270074783170  0.7500482612981709  0.1248159428886942
  0.9950886449451573  0.7516975137950859  0.6251246605325771
  0.5005041216521829  0.2490881735568286  0.1233739565852943
  0.5016864776114943  0.2362757136522414  0.6304900393357615
  0.5008588087300823  0.7507481936048745  0.1248506062822907
  0.5025427265624579  0.7515811102270057  0.6226178425997101
  0.9951267002168769  0.2521073380189820  0.3741451844872859
  0.0013022881911188  0.2493125064790166  0.8734063911001532
  0.9940985980033008  0.7508062706696172  0.3757554323741430
  0.9999486614771567  0.7500897890777734  0.8742836138431799
  0.5019205011552229  0.2466291576957445  0.3723730862051579
  0.5000261903281705  0.2494249827305654  0.8752743403719045
  0.5041649687011622  0.7542694288247698  0.3730480772800624
  0.5015818322354729  0.7501352387141071  0.8745763184529173
  0.2495845973902644  0.0002417403084401  0.1246970548752235
  0.2493258348996079  0.9936369588931038  0.6283302487661323
  0.2496040422228163  0.4989541617199357  0.1239995246457358
  0.2364616768534479  0.5045328130846238  0.6294543037786180
  0.7511191154587336  0.0000771519221469  0.1250596366438418
  0.7503743548096823  0.9952434968204881  0.6253031135905138
  0.7498550057463625  0.5009236987909077  0.1243799215560883
  0.7564030162997637  0.5053364667716880  0.6256244141772150
  0.2510516785369785  0.9926740998086122  0.3738191800583853
  0.2505134677181856  0.0009469177639128  0.8742635159879754
  0.2436307423386011  0.5045712010309942  0.3710648178767116
  0.2502920427395056  0.5002858097832832  0.8753633324101311
  0.7481273625635974  0.9959396348856329  0.3759199070652732
  0.7514461820261955  0.9998882243334501  0.8736452850710930
  0.7540731341051283  0.5070827721029881  0.3751325676930424
  0.7501427438946597  0.5003039251701947  0.8750956421511340
  0.0006789007800745  0.0009849284110127  0.9993717549918837
  0.9930567555439976  0.9970689835277025  0.4993408495019265
  0.0002083059712875  0.5001640823901869  0.9999611725873698
  0.9973797973740653  0.5021684546248233  0.4997640354886139
  0.4999461548992625  0.9998043289650975  0.9997933006523346
  0.5016837518120729  0.9976408617537318  0.4998049431638802
  0.5004374149421966  0.5003080295485152  0.0015941337887139
  0.2503884856292747  0.2500519834138694  0.9998637324430263
  0.2417997559783476  0.2365558059536273  0.4994227398029878
  0.2503114866738390  0.7499021908561363  0.9998955556985533
  0.2466894228942101  0.7471790679866867  0.5015463900511850
  0.7501118538107853  0.2503434145343424  0.9998317650489322
  0.7464760860686650  0.2506975628953163  0.5013833123121983
  0.7498649171408087  0.7498592930789493  0.9996401153771700
  0.2512133394728762  0.2511313242177033  0.2500168868027431
  0.2532312776101692  0.2532617316477027  0.7487671085987643
  0.2504416795406373  0.7488875980885149  0.2495286020449821
  0.2517551587472875  0.7477711453425878  0.7499014614812187
  0.7491912492728106  0.2512862307734820  0.2500503372852759
  0.7484041576671414  0.2522281148288634  0.7496867631187328
  0.7495987538189267  0.7505845229406164  0.2500519897303997
  0.7480671980436819  0.7485846871048899  0.7487052710637997
  0.0000723525056255  0.0008769009706519  0.2510860315909617
  0.0003571452156150  0.9999644944032405  0.7500750255515807
  0.9991072129373834  0.4999488162246360  0.2493357995483019
  0.9990015848962833  0.4999685030309854  0.7515154398054369
  0.4994677846811929  0.0007052784667971  0.2493033400296502
  0.5002643827225582  0.9983733219516151  0.7508714893567670
  0.4994766152319818  0.4997414681657855  0.2480828213080253
  0.5003910803382206  0.5001600494074464  0.7605058400309707
  0.5119016254210079  0.5062646557548581  0.4893883851776138
  0.7495172645184502  0.7502117577042436  0.5002080414028858
  0.1112000856513753  0.1424579689196590  0.2552032181995744
  0.1150461265219807  0.1412456284781682  0.7446916810436013
  0.1096533445199272  0.6403412006935759  0.2533310948393758
  0.1114838657769346  0.6381346638659459  0.7486436499645100
  0.6089126573141602  0.1412484827124293  0.2492452697406405
  0.6124584136752119  0.1373590426625439  0.7522258383028647
  0.6069709215798559  0.6401072360828630  0.2493061044985767
  0.3916598815157689  0.3581445855859009  0.2444051401379810
  0.3917380028378874  0.3645428770528784  0.7426915730054563
  0.3901810933613333  0.8592153215926815  0.2502308129953121
  0.3887853566242858  0.8612138687451839  0.7493950849670937
  0.8907039871349514  0.3588739340379081  0.2494786366473432
  0.8891321020366895  0.3611932025461508  0.7508562248950552
  0.8910363082064515  0.8617422801764013  0.2471403254696275
  0.8905385454513692  0.8632549607852333  0.7555606322766665
  0.3579625486777049  0.1092902715977859  0.2514228140551021
  0.3622392991240379  0.1125228075073124  0.7475617435815318
  0.3579923716814377  0.6082420875834544  0.2459381121771483
  0.3627625797476670  0.6104388154992045  0.7420710820289425
  0.8592448671409952  0.1109552813465046  0.2535007459649263
  0.8630403788135100  0.1128912174108019  0.7504882338724987
  0.8602621519693329  0.6087480328355008  0.2470219206428505
  0.8624695941869446  0.6103364090947441  0.7528972270535488
  0.1411101582347755  0.3907511055912674  0.2494415217177558
  0.1390032521934711  0.3889447443187658  0.7516034992747893
  0.1411621770611418  0.8893206908096412  0.2525101939943316
  0.1401154539845135  0.8894347660752306  0.7528373618054239
  0.6414101701362793  0.3922300838594193  0.2494895494130354
  0.6386310821577051  0.8915565686522637  0.2482558998658932
  0.6376732938724405  0.8892275839487581  0.7528020816113753
  0.3590600633107153  0.3906976950830143  0.0014728501154997
  0.3585852216293178  0.8907518684739979  0.9998788336854818
  0.3617708580125075  0.8835623041518302  0.5012360368405594
  0.8593068668871356  0.3912851592921192  0.0002920444961069
  0.8567841311099613  0.3902295477661551  0.5003549039196178
  0.8605631937283051  0.8916343095384676  0.9989558300982831
  0.8622420626287193  0.8972284680230256  0.4981848432316329
  0.1421524466118146  0.1100279674928847  0.9985272936198766
  0.1432506108710941  0.1059198131256691  0.4991537148714814
  0.1412288468144051  0.6092769363682917  0.0000111956515435
  0.1374277497261287  0.6106517006844845  0.4989956390273270
  0.6406986557871881  0.1093863073473867  0.9993213197181895
  0.6414078254821225  0.1095303172854218  0.4999094474540829
  0.6408553052421599  0.6087399118424651  0.0007335330567635
  0.1098004567627500  0.3589884859260112  0.9990252874733022
  0.1203481986020533  0.3635999047127494  0.4988559014394242
  0.1094320782717584  0.8595572801378965  0.9989342771812770
  0.1113678536039947  0.8578133680337527  0.4967990012239683
  0.6093224450964393  0.3589168705943523  0.0010314318982849
  0.6084403628594057  0.8601014328413402  0.9999070669849250
  0.6053294134809196  0.8640969797039620  0.4981426406174808
  0.3908596307491394  0.1413938093460287  0.9997307633121075
  0.3921571580704621  0.1465176505804006  0.4995555999655271
  0.3909554936345288  0.6412912994961233  0.0015556778506909
  0.3793848083775673  0.6032436972652232  0.5207802857265749
  0.8906844214873507  0.1415779876955538  0.9992648174431296
  0.8922738400836778  0.1447312710665670  0.4982938588430338
  0.8915202250950987  0.6407238954651840  0.9998553511022568
  0.0033545123627938  0.0048154213070657  0.1254843943183290
  0.0013726591897854  0.9983990241584351  0.6247374491424795
  0.0023266811384601  0.4997116529460625  0.1247660223983123
  0.0000024823370810  0.4971180992587351  0.6256896231386301
  0.4976974887218905  0.0015817706453594  0.1246981593293448
  0.5003471806100080  0.0002632824615047  0.6254485027337110
  0.5015284542021794  0.5001489211410753  0.1244226691927375
  0.0017649681113989  1.0000581737770819  0.3746068358994512
  0.0037205757403081  0.0063266728567268  0.8752471442041060
  0.9979219864124895  0.4968135236477635  0.3740970475289803
  0.0014184286544794  0.5000359039218013  0.8756178318346525
  0.4978758134054111  0.0010666804091883  0.3742344887562469
  0.4967235802678641  0.0006645864166484  0.8752528582909826
  0.4999395871883924  0.4999301309366999  0.8780754113731957
  0.2638476184816187  0.2651145318041316  0.3782234718211495
  0.2550207941165882  0.2524266241909435  0.8732568316679487
  0.2616606500636515  0.7421287437640461  0.3771378614348940
  0.2530705577459418  0.7451845053430530  0.8745419789172418
  0.7432428626427261  0.2566836021098854  0.3766138460578279
  0.7474762098520307  0.2544455609363624  0.8745901861712072
  0.7497456384251269  0.7483106701966398  0.3681724264755643
  0.7456020401077081  0.7468429647749319  0.8761623844837909
  0.2473366322658261  0.2473378165205356  0.1250710613153181
  0.2603101354530918  0.2634998353255986  0.6198517348564653
  0.2473098389184033  0.7514004204402623  0.1252926873862685
  0.2441510930481119  0.7547953786087072  0.6250884344230746
  0.7508549559951442  0.2486475847896148  0.1252684960105907
  0.7533164391475302  0.2460030896992187  0.6248539278967664
  0.7494411950937137  0.7506352794335787  0.1232985253886302
  0.6372871232768532  0.3895542328297216  0.7411584215234276
  0.6092185587565212  0.6355369942143098  0.7417105961675857
  0.4895742491548277  0.4950295991213844  0.3729264149578053
  0.5903310444282541  0.3569204275977950  0.5118890001039088
  0.7575364204258785  0.7565590004896540  0.6317281871384594
  0.8944592140144704  0.6365322104244947  0.4997390315213994
  0.6349162731083990  0.6067990239509183  0.5120913436461203
 
  0.00000000E+00  0.00000000E+00  0.00000000E+00
  0.00000000E+00  0.00000000E+00  0.00000000E+00
  0.00000000E+00  0.00000000E+00  0.00000000E+00
  0.00000000E+00  0.00000000E+00  0.00000000E+00
  0.00000000E+00  0.00000000E+00  0.00000000E+00
  0.00000000E+00  0.00000000E+00  0.00000000E+00
  0.00000000E+00  0.00000000E+00  0.00000000E+00
  0.00000000E+00  0.00000000E+00  0.00000000E+00
  0.00000000E+00  0.00000000E+00  0.00000000E+00
  0.00000000E+00  0.00000000E+00  0.00000000E+00
  0.00000000E+00  0.00000000E+00  0.00000000E+00
  0.00000000E+00  0.00000000E+00  0.00000000E+00
  0.00000000E+00  0.00000000E+00  0.00000000E+00
  0.00000000E+00  0.00000000E+00  0.00000000E+00
  0.00000000E+00  0.00000000E+00  0.00000000E+00
  0.00000000E+00  0.00000000E+00  0.00000000E+00
  0.00000000E+00  0.00000000E+00  0.00000000E+00
  0.00000000E+00  0.00000000E+00  0.00000000E+00
  0.00000000E+00  0.00000000E+00  0.00000000E+00
  0.00000000E+00  0.00000000E+00  0.00000000E+00
  0.00000000E+00  0.00000000E+00  0.00000000E+00
  0.00000000E+00  0.00000000E+00  0.00000000E+00
  0.00000000E+00  0.00000000E+00  0.00000000E+00
  0.00000000E+00  0.00000000E+00  0.00000000E+00
  0.00000000E+00  0.00000000E+00  0.00000000E+00
  0.00000000E+00  0.00000000E+00  0.00000000E+00
  0.00000000E+00  0.00000000E+00  0.00000000E+00
  0.00000000E+00  0.00000000E+00  0.00000000E+00
  0.00000000E+00  0.00000000E+00  0.00000000E+00
  0.00000000E+00  0.00000000E+00  0.00000000E+00
  0.00000000E+00  0.00000000E+00  0.00000000E+00
  0.00000000E+00  0.00000000E+00  0.00000000E+00
  0.00000000E+00  0.00000000E+00  0.00000000E+00
  0.00000000E+00  0.00000000E+00  0.00000000E+00
  0.00000000E+00  0.00000000E+00  0.00000000E+00
  0.00000000E+00  0.00000000E+00  0.00000000E+00
  0.00000000E+00  0.00000000E+00  0.00000000E+00
  0.00000000E+00  0.00000000E+00  0.00000000E+00
  0.00000000E+00  0.00000000E+00  0.00000000E+00
  0.00000000E+00  0.00000000E+00  0.00000000E+00
  0.00000000E+00  0.00000000E+00  0.00000000E+00
  0.00000000E+00  0.00000000E+00  0.00000000E+00
  0.00000000E+00  0.00000000E+00  0.00000000E+00
  0.00000000E+00  0.00000000E+00  0.00000000E+00
  0.00000000E+00  0.00000000E+00  0.00000000E+00
  0.00000000E+00  0.00000000E+00  0.00000000E+00
  0.00000000E+00  0.00000000E+00  0.00000000E+00
  0.00000000E+00  0.00000000E+00  0.00000000E+00
  0.00000000E+00  0.00000000E+00  0.00000000E+00
  0.00000000E+00  0.00000000E+00  0.00000000E+00
  0.00000000E+00  0.00000000E+00  0.00000000E+00
  0.00000000E+00  0.00000000E+00  0.00000000E+00
  0.00000000E+00  0.00000000E+00  0.00000000E+00
  0.00000000E+00  0.00000000E+00  0.00000000E+00
  0.00000000E+00  0.00000000E+00  0.00000000E+00
  0.00000000E+00  0.00000000E+00  0.00000000E+00
  0.00000000E+00  0.00000000E+00  0.00000000E+00
  0.00000000E+00  0.00000000E+00  0.00000000E+00
  0.00000000E+00  0.00000000E+00  0.00000000E+00
  0.00000000E+00  0.00000000E+00  0.00000000E+00
  0.00000000E+00  0.00000000E+00  0.00000000E+00
  0.00000000E+00  0.00000000E+00  0.00000000E+00
  0.00000000E+00  0.00000000E+00  0.00000000E+00
  0.00000000E+00  0.00000000E+00  0.00000000E+00
  0.00000000E+00  0.00000000E+00  0.00000000E+00
  0.00000000E+00  0.00000000E+00  0.00000000E+00
  0.00000000E+00  0.00000000E+00  0.00000000E+00
  0.00000000E+00  0.00000000E+00  0.00000000E+00
  0.00000000E+00  0.00000000E+00  0.00000000E+00
  0.00000000E+00  0.00000000E+00  0.00000000E+00
  0.00000000E+00  0.00000000E+00  0.00000000E+00
  0.00000000E+00  0.00000000E+00  0.00000000E+00
  0.00000000E+00  0.00000000E+00  0.00000000E+00
  0.00000000E+00  0.00000000E+00  0.00000000E+00
  0.00000000E+00  0.00000000E+00  0.00000000E+00
  0.00000000E+00  0.00000000E+00  0.00000000E+00
  0.00000000E+00  0.00000000E+00  0.00000000E+00
  0.00000000E+00  0.00000000E+00  0.00000000E+00
  0.00000000E+00  0.00000000E+00  0.00000000E+00
  0.00000000E+00  0.00000000E+00  0.00000000E+00
  0.00000000E+00  0.00000000E+00  0.00000000E+00
  0.00000000E+00  0.00000000E+00  0.00000000E+00
  0.00000000E+00  0.00000000E+00  0.00000000E+00
  0.00000000E+00  0.00000000E+00  0.00000000E+00
  0.00000000E+00  0.00000000E+00  0.00000000E+00
  0.00000000E+00  0.00000000E+00  0.00000000E+00
  0.00000000E+00  0.00000000E+00  0.00000000E+00
  0.00000000E+00  0.00000000E+00  0.00000000E+00
  0.00000000E+00  0.00000000E+00  0.00000000E+00
  0.00000000E+00  0.00000000E+00  0.00000000E+00
  0.00000000E+00  0.00000000E+00  0.00000000E+00
  0.00000000E+00  0.00000000E+00  0.00000000E+00
  0.00000000E+00  0.00000000E+00  0.00000000E+00
  0.00000000E+00  0.00000000E+00  0.00000000E+00
  0.00000000E+00  0.00000000E+00  0.00000000E+00
  0.00000000E+00  0.00000000E+00  0.00000000E+00
  0.00000000E+00  0.00000000E+00  0.00000000E+00
  0.00000000E+00  0.00000000E+00  0.00000000E+00
  0.00000000E+00  0.00000000E+00  0.00000000E+00
  0.00000000E+00  0.00000000E+00  0.00000000E+00
  0.00000000E+00  0.00000000E+00  0.00000000E+00
  0.00000000E+00  0.00000000E+00  0.00000000E+00
  0.00000000E+00  0.00000000E+00  0.00000000E+00
  0.00000000E+00  0.00000000E+00  0.00000000E+00
  0.00000000E+00  0.00000000E+00  0.00000000E+00
  0.00000000E+00  0.00000000E+00  0.00000000E+00
  0.00000000E+00  0.00000000E+00  0.00000000E+00
  0.00000000E+00  0.00000000E+00  0.00000000E+00
  0.00000000E+00  0.00000000E+00  0.00000000E+00
  0.00000000E+00  0.00000000E+00  0.00000000E+00
  0.00000000E+00  0.00000000E+00  0.00000000E+00
  0.00000000E+00  0.00000000E+00  0.00000000E+00
  0.00000000E+00  0.00000000E+00  0.00000000E+00
  0.00000000E+00  0.00000000E+00  0.00000000E+00
  0.00000000E+00  0.00000000E+00  0.00000000E+00
  0.00000000E+00  0.00000000E+00  0.00000000E+00
  0.00000000E+00  0.00000000E+00  0.00000000E+00
  0.00000000E+00  0.00000000E+00  0.00000000E+00
  0.00000000E+00  0.00000000E+00  0.00000000E+00
  0.00000000E+00  0.00000000E+00  0.00000000E+00
  0.00000000E+00  0.00000000E+00  0.00000000E+00
  0.00000000E+00  0.00000000E+00  0.00000000E+00
  0.00000000E+00  0.00000000E+00  0.00000000E+00
  0.00000000E+00  0.00000000E+00  0.00000000E+00
  0.00000000E+00  0.00000000E+00  0.00000000E+00
  0.00000000E+00  0.00000000E+00  0.00000000E+00
  0.00000000E+00  0.00000000E+00  0.00000000E+00
  0.00000000E+00  0.00000000E+00  0.00000000E+00
  0.00000000E+00  0.00000000E+00  0.00000000E+00
  0.00000000E+00  0.00000000E+00  0.00000000E+00
  0.00000000E+00  0.00000000E+00  0.00000000E+00
  0.00000000E+00  0.00000000E+00  0.00000000E+00
  0.00000000E+00  0.00000000E+00  0.00000000E+00
  0.00000000E+00  0.00000000E+00  0.00000000E+00
  0.00000000E+00  0.00000000E+00  0.00000000E+00
  0.00000000E+00  0.00000000E+00  0.00000000E+00
  0.00000000E+00  0.00000000E+00  0.00000000E+00
  0.00000000E+00  0.00000000E+00  0.00000000E+00
  0.00000000E+00  0.00000000E+00  0.00000000E+00
  0.00000000E+00  0.00000000E+00  0.00000000E+00
  0.00000000E+00  0.00000000E+00  0.00000000E+00
  0.00000000E+00  0.00000000E+00  0.00000000E+00
  0.00000000E+00  0.00000000E+00  0.00000000E+00
  0.00000000E+00  0.00000000E+00  0.00000000E+00
  0.00000000E+00  0.00000000E+00  0.00000000E+00
  0.00000000E+00  0.00000000E+00  0.00000000E+00
  0.00000000E+00  0.00000000E+00  0.00000000E+00
  0.00000000E+00  0.00000000E+00  0.00000000E+00
  0.00000000E+00  0.00000000E+00  0.00000000E+00
  0.00000000E+00  0.00000000E+00  0.00000000E+00
  0.00000000E+00  0.00000000E+00  0.00000000E+00
  0.00000000E+00  0.00000000E+00  0.00000000E+00
  0.00000000E+00  0.00000000E+00  0.00000000E+00
  0.00000000E+00  0.00000000E+00  0.00000000E+00
  0.00000000E+00  0.00000000E+00  0.00000000E+00
  0.00000000E+00  0.00000000E+00  0.00000000E+00
  0.00000000E+00  0.00000000E+00  0.00000000E+00
  0.00000000E+00  0.00000000E+00  0.00000000E+00
