SrTiFeO                                 
   1.00000000000000     
    11.1989999999999998    0.0000000000000000    0.0000000000000000
     0.0000000000000000   11.1989999999999998    0.0000000000000000
     0.0000000000000000    0.0000000000000000   15.9830000000000005
   Sr   Ti   Fe   O 
    32    29     3    94
Direct
  0.0009735325599999  0.2491959919695891  0.1250833583497446
  0.9976874706182305  0.2521836237179134  0.6257822600085404
  0.9981834937808395  0.7507752276127554  0.1253360809662334
  0.9990246308584970  0.7478399310719422  0.6247328714114864
  0.5006494518369542  0.2509418741967235  0.1233831711701095
  0.5044570760245061  0.2530753960643664  0.6296326352271725
  0.5000200495650688  0.7489266501112498  0.1237125500915979
  0.4968646737362575  0.7461821322814636  0.6291359414864913
  0.9978043384707734  0.2521660543339325  0.3752498301242715
  0.0008937426959230  0.2492296267014246  0.8740371814707832
  0.9993428173145228  0.7475749947001136  0.3763153548320154
  0.9983110434917389  0.7508563371471048  0.8736698756343375
  0.5048979826947939  0.2491116033817161  0.3717860618307686
  0.5009354369173779  0.2527477587748592  0.8747553651603167
  0.4966344011380354  0.7502003034043869  0.3721940906973113
  0.4997433728892411  0.7472243184135132  0.8744907004582283
  0.2506649271540258  0.0000946072118093  0.1243971886625499
  0.2500479538133387  0.9948901372237077  0.6290687362166936
  0.2514488737538880  0.4999095563043066  0.1237732318995056
  0.2482407283568662  0.5056680595301076  0.6299469582026245
  0.7490932329781056  0.9989719337970994  0.1247869123182611
  0.7496442627909268  0.0014888671643429  0.6276882667526383
  0.7482678489958718  0.5007527154621774  0.1241685729158968
  0.7503353093436906  0.4956776148008497  0.6292371392093868
  0.2498817366816121  0.9948043650869602  0.3717384979762411
  0.2503588404838816  0.0002760583456388  0.8747679170812058
  0.2445322506403086  0.5057889239206971  0.3716707479697262
  0.2534384396947467  0.4997631006068725  0.8745543164890922
  0.7499154111069820  0.0016500673649164  0.3730998010504970
  0.7495159848937759  0.9988411650075378  0.8744086586153557
  0.7543559138912749  0.4953605370618019  0.3725541861588088
  0.7461498660840157  0.5010542886921141  0.8741494240283118
  0.9997407722182911  0.0000409969107049  0.9999242618369842
  0.9971288234640976  0.9977625137332411  0.5000916677206064
  0.9998621195255480  0.5001005493138801  0.9996239275881923
  0.9985113885616056  0.5016222063313125  0.5003738788425065
  0.4999411870923054  0.9998665052025498  0.9996318082869387
  0.5016291154469239  0.9975474443027142  0.5004638480391287
  0.4999631999425159  0.5000168518379975  0.9988274355023290
  0.2496875988994218  0.2496497030251185  0.9997174026990987
  0.2456155127722922  0.2379139464204734  0.5000371549409705
  0.2490967370915103  0.7499091538584443  0.9998115581971683
  0.2507059752411197  0.7506480514668931  0.5001158652909119
  0.7507706231339202  0.2500943021535912  0.9998028664642974
  0.7494709213915540  0.2492425071244183  0.5001318535461419
  0.7502110779337323  0.7502860644738998  0.9997612795627762
  0.2516858844536045  0.2511786674917596  0.2500688962360059
  0.2530031712814272  0.2525686751845227  0.7498390100270164
  0.2489640268658192  0.7500359132332387  0.2489025016789671
  0.2501515403221201  0.7488737543916382  0.7510521218948206
  0.7506109755638578  0.2495402809756511  0.2489942672207961
  0.7494995547136926  0.2507980416190194  0.7510087324186490
  0.7481179913844616  0.7483115715531033  0.2522375740599377
  0.7466833152427020  0.7471044440202323  0.7477360744081896
  0.9998473803092276  0.9999240258057898  0.2507776850298956
  0.9998588318257901  0.0000489959810170  0.7491881870448742
  0.9998438356306997  0.4998150266140743  0.2490314494241161
  0.9998383502769127  0.4999111208800068  0.7507377577496116
  0.4998994973191507  0.9999036952501437  0.2498306560672651
  0.4999463423505972  0.9999845806521582  0.7500678878530228
  0.4998040481147324  0.4997962212829833  0.2506848489766612
  0.4997454503149110  0.4998073973151368  0.7489280704304606
  0.4997897320710717  0.5000778522300066  0.4997905418058479
  0.7548299052818526  0.7610777462516670  0.5000546137949853
  0.1116334987971106  0.1415907771444179  0.2554438023613026
  0.1118798080803092  0.1406956467716752  0.7447662267834230
  0.1088339991633327  0.6404802359925615  0.2513816562046229
  0.1091278130505462  0.6401328133226664  0.7486182584747965
  0.6105422480384809  0.1395609651249003  0.2491287374441543
  0.6112954862062761  0.1382100906812213  0.7505376528645679
  0.6080179954303108  0.6399972468441143  0.2470484635477747
  0.3918612944020121  0.3592510588318036  0.2473139023734957
  0.3888193094449236  0.3595962568589272  0.7532008615253879
  0.3891004773129796  0.8603538554884288  0.2498002150693386
  0.3883696942212504  0.8618231810955843  0.7498880096621358
  0.8910429951752561  0.3593017308602156  0.2510233900427972
  0.8906380741477913  0.3598738364145694  0.7491200821324403
  0.8886351210559934  0.8590447115970118  0.2558161494027397
  0.8882461985147431  0.8600207749043830  0.7447478547772330
  0.3596719439454392  0.1100974790133999  0.2515267634583456
  0.3602575837834432  0.1106445443270149  0.7486845520707697
  0.3582077269209630  0.6097662323428328  0.2501670650906660
  0.3580776258367311  0.6129927725075150  0.7504622635053799
  0.8604528078155956  0.1093262477494011  0.2492279244800520
  0.8611945954874372  0.1099103281260578  0.7504279545418622
  0.8589404546962587  0.6085343360409515  0.2501086540872819
  0.8603652358363305  0.6093348268203421  0.7499152906637215
  0.1414384165255858  0.3910436437928538  0.2499313554625520
  0.1398990385446478  0.3904116385310824  0.7500951307053357
  0.1394880359327814  0.8905232748653420  0.2485347030259545
  0.1386821333352013  0.8900462968711214  0.7512175810837238
  0.6415267575698519  0.3898058136302106  0.2506016734111194
  0.6394917360011746  0.8897810854037410  0.2517567599584744
  0.6389460383219288  0.8893564962963424  0.7485702212269638
  0.3586787473299408  0.3891948507230067  0.0006474732069041
  0.3587761124717505  0.8907924010610779  0.0002782730053249
  0.3550642652671197  0.8965177570242879  0.4996807379978281
  0.8592931662097949  0.3913258168886653  0.9999254549874772
  0.8681383471642854  0.3835033040108665  0.4996855715065734
  0.8593740702684596  0.8918997839086279  0.0004691705318152
  0.8572084138633858  0.8944844241826195  0.4994271784051199
  0.1406965208572153  0.1083977669692513  0.0005363293682324
  0.1458282970239234  0.1070829238517439  0.4994794773235740
  0.1407216628385909  0.6087502791058010  0.9999746492228716
  0.1337596716450328  0.6157544082805232  0.4997481816649441
  0.6409204615002323  0.1091852533239029  0.0003536943716967
  0.6444277968690975  0.1056929401933895  0.4996976467593460
  0.6410170405442078  0.6107059812331518  0.0008073288872316
  0.1090526497923087  0.3587176697513675  0.0004103933150414
  0.1264434052755100  0.3682844093700135  0.4995087599513582
  0.1081702210329330  0.8590002816334530  0.0004754291274034
  0.1066839442389975  0.8600779389982290  0.4997280775207061
  0.6103444630301958  0.3591079902642668  0.0005597860639022
  0.6091210940651913  0.8595620326697962  0.0000386322205254
  0.6011244064754588  0.8511139986743402  0.5000717244934797
  0.3906594456873165  0.1406191213156611  0.0000074072433795
  0.3988864210235393  0.1542546266235487  0.5002240303553942
  0.3896329008134242  0.6408199715581242  0.0006448615585786
  0.3851106063018851  0.6383444995199073  0.4986079491692057
  0.8918018402973840  0.1412877054372579  0.0004878199355633
  0.8952650738068835  0.1411738325418617  0.4997418322115011
  0.8910403427027477  0.6411857410627257  0.0004158699396799
  0.9998509927902635  0.0003080516285679  0.1263117323057005
  0.0012296779720615  0.0006422353764295  0.6237516086497470
  0.0002696885458307  0.4999885337607280  0.1251891365650728
  0.0005870574960770  0.4991715892447589  0.6249203114454536
  0.4995184722658675  0.9998177971027863  0.1252688063674920
  0.4995186785676968  0.0011619131049646  0.6245319136583083
  0.4998593014178161  0.4994587543346003  0.1250277966008509
  0.0014531306375682  0.0008824863960874  0.3756015493366430
  0.9998755379254385  0.0005415518589698  0.8745270348011753
  0.0006168119967150  0.4991804953261522  0.3747710243735662
  0.0003676676168459  0.5000773024372875  0.8749760693544085
  0.4993832709328715  0.0011377070636888  0.3753047789525978
  0.4995619321509412  0.9999393009768129  0.8749023468748377
  0.4999268765382933  0.4998016829982647  0.8774937693442494
  0.2633427602690228  0.2642041807515083  0.3784847930305728
  0.2477007385173656  0.2476459524361912  0.8749642485761522
  0.2479936071296475  0.7528347659541686  0.3743159572419784
  0.2485056035324561  0.7506387906868632  0.8755904868408338
  0.7522111372699898  0.2469740136136937  0.3742909006099135
  0.7514788728862455  0.2490901254597447  0.8755764239606523
  0.7374811573554249  0.7362136695253642  0.3777100754504960
  0.7522321592013905  0.7523325217467650  0.8749783862952408
  0.2485658336531429  0.2477688329004952  0.1259027334409192
  0.2619705292865011  0.2636010799999023  0.6212111403645818
  0.2486836012469237  0.7496079490087130  0.1250478107431524
  0.2484131695271398  0.7525371245314424  0.6248923313427079
  0.7512976306391644  0.2502514074212671  0.1250573201305076
  0.7518508678584477  0.2475600439931455  0.6249028918100490
  0.7516583907129260  0.7524103059395333  0.1260265510046608
  0.6416468875143818  0.3867437748587737  0.7501442625855798
  0.6110323068790924  0.6397635861801971  0.7533481831882799
  0.4997688035900120  0.5001124278084009  0.3757569453156261
  0.6173152547141976  0.3641873424277027  0.4984781635169416
  0.7388001462414405  0.7371707612945052  0.6219342100435397
  0.8775667591034549  0.6312639421186020  0.4995069646288670
  0.4997691727323095  0.4999494629533975  0.6220508763601971
 
  0.00000000E+00  0.00000000E+00  0.00000000E+00
  0.00000000E+00  0.00000000E+00  0.00000000E+00
  0.00000000E+00  0.00000000E+00  0.00000000E+00
  0.00000000E+00  0.00000000E+00  0.00000000E+00
  0.00000000E+00  0.00000000E+00  0.00000000E+00
  0.00000000E+00  0.00000000E+00  0.00000000E+00
  0.00000000E+00  0.00000000E+00  0.00000000E+00
  0.00000000E+00  0.00000000E+00  0.00000000E+00
  0.00000000E+00  0.00000000E+00  0.00000000E+00
  0.00000000E+00  0.00000000E+00  0.00000000E+00
  0.00000000E+00  0.00000000E+00  0.00000000E+00
  0.00000000E+00  0.00000000E+00  0.00000000E+00
  0.00000000E+00  0.00000000E+00  0.00000000E+00
  0.00000000E+00  0.00000000E+00  0.00000000E+00
  0.00000000E+00  0.00000000E+00  0.00000000E+00
  0.00000000E+00  0.00000000E+00  0.00000000E+00
  0.00000000E+00  0.00000000E+00  0.00000000E+00
  0.00000000E+00  0.00000000E+00  0.00000000E+00
  0.00000000E+00  0.00000000E+00  0.00000000E+00
  0.00000000E+00  0.00000000E+00  0.00000000E+00
  0.00000000E+00  0.00000000E+00  0.00000000E+00
  0.00000000E+00  0.00000000E+00  0.00000000E+00
  0.00000000E+00  0.00000000E+00  0.00000000E+00
  0.00000000E+00  0.00000000E+00  0.00000000E+00
  0.00000000E+00  0.00000000E+00  0.00000000E+00
  0.00000000E+00  0.00000000E+00  0.00000000E+00
  0.00000000E+00  0.00000000E+00  0.00000000E+00
  0.00000000E+00  0.00000000E+00  0.00000000E+00
  0.00000000E+00  0.00000000E+00  0.00000000E+00
  0.00000000E+00  0.00000000E+00  0.00000000E+00
  0.00000000E+00  0.00000000E+00  0.00000000E+00
  0.00000000E+00  0.00000000E+00  0.00000000E+00
  0.00000000E+00  0.00000000E+00  0.00000000E+00
  0.00000000E+00  0.00000000E+00  0.00000000E+00
  0.00000000E+00  0.00000000E+00  0.00000000E+00
  0.00000000E+00  0.00000000E+00  0.00000000E+00
  0.00000000E+00  0.00000000E+00  0.00000000E+00
  0.00000000E+00  0.00000000E+00  0.00000000E+00
  0.00000000E+00  0.00000000E+00  0.00000000E+00
  0.00000000E+00  0.00000000E+00  0.00000000E+00
  0.00000000E+00  0.00000000E+00  0.00000000E+00
  0.00000000E+00  0.00000000E+00  0.00000000E+00
  0.00000000E+00  0.00000000E+00  0.00000000E+00
  0.00000000E+00  0.00000000E+00  0.00000000E+00
  0.00000000E+00  0.00000000E+00  0.00000000E+00
  0.00000000E+00  0.00000000E+00  0.00000000E+00
  0.00000000E+00  0.00000000E+00  0.00000000E+00
  0.00000000E+00  0.00000000E+00  0.00000000E+00
  0.00000000E+00  0.00000000E+00  0.00000000E+00
  0.00000000E+00  0.00000000E+00  0.00000000E+00
  0.00000000E+00  0.00000000E+00  0.00000000E+00
  0.00000000E+00  0.00000000E+00  0.00000000E+00
  0.00000000E+00  0.00000000E+00  0.00000000E+00
  0.00000000E+00  0.00000000E+00  0.00000000E+00
  0.00000000E+00  0.00000000E+00  0.00000000E+00
  0.00000000E+00  0.00000000E+00  0.00000000E+00
  0.00000000E+00  0.00000000E+00  0.00000000E+00
  0.00000000E+00  0.00000000E+00  0.00000000E+00
  0.00000000E+00  0.00000000E+00  0.00000000E+00
  0.00000000E+00  0.00000000E+00  0.00000000E+00
  0.00000000E+00  0.00000000E+00  0.00000000E+00
  0.00000000E+00  0.00000000E+00  0.00000000E+00
  0.00000000E+00  0.00000000E+00  0.00000000E+00
  0.00000000E+00  0.00000000E+00  0.00000000E+00
  0.00000000E+00  0.00000000E+00  0.00000000E+00
  0.00000000E+00  0.00000000E+00  0.00000000E+00
  0.00000000E+00  0.00000000E+00  0.00000000E+00
  0.00000000E+00  0.00000000E+00  0.00000000E+00
  0.00000000E+00  0.00000000E+00  0.00000000E+00
  0.00000000E+00  0.00000000E+00  0.00000000E+00
  0.00000000E+00  0.00000000E+00  0.00000000E+00
  0.00000000E+00  0.00000000E+00  0.00000000E+00
  0.00000000E+00  0.00000000E+00  0.00000000E+00
  0.00000000E+00  0.00000000E+00  0.00000000E+00
  0.00000000E+00  0.00000000E+00  0.00000000E+00
  0.00000000E+00  0.00000000E+00  0.00000000E+00
  0.00000000E+00  0.00000000E+00  0.00000000E+00
  0.00000000E+00  0.00000000E+00  0.00000000E+00
  0.00000000E+00  0.00000000E+00  0.00000000E+00
  0.00000000E+00  0.00000000E+00  0.00000000E+00
  0.00000000E+00  0.00000000E+00  0.00000000E+00
  0.00000000E+00  0.00000000E+00  0.00000000E+00
  0.00000000E+00  0.00000000E+00  0.00000000E+00
  0.00000000E+00  0.00000000E+00  0.00000000E+00
  0.00000000E+00  0.00000000E+00  0.00000000E+00
  0.00000000E+00  0.00000000E+00  0.00000000E+00
  0.00000000E+00  0.00000000E+00  0.00000000E+00
  0.00000000E+00  0.00000000E+00  0.00000000E+00
  0.00000000E+00  0.00000000E+00  0.00000000E+00
  0.00000000E+00  0.00000000E+00  0.00000000E+00
  0.00000000E+00  0.00000000E+00  0.00000000E+00
  0.00000000E+00  0.00000000E+00  0.00000000E+00
  0.00000000E+00  0.00000000E+00  0.00000000E+00
  0.00000000E+00  0.00000000E+00  0.00000000E+00
  0.00000000E+00  0.00000000E+00  0.00000000E+00
  0.00000000E+00  0.00000000E+00  0.00000000E+00
  0.00000000E+00  0.00000000E+00  0.00000000E+00
  0.00000000E+00  0.00000000E+00  0.00000000E+00
  0.00000000E+00  0.00000000E+00  0.00000000E+00
  0.00000000E+00  0.00000000E+00  0.00000000E+00
  0.00000000E+00  0.00000000E+00  0.00000000E+00
  0.00000000E+00  0.00000000E+00  0.00000000E+00
  0.00000000E+00  0.00000000E+00  0.00000000E+00
  0.00000000E+00  0.00000000E+00  0.00000000E+00
  0.00000000E+00  0.00000000E+00  0.00000000E+00
  0.00000000E+00  0.00000000E+00  0.00000000E+00
  0.00000000E+00  0.00000000E+00  0.00000000E+00
  0.00000000E+00  0.00000000E+00  0.00000000E+00
  0.00000000E+00  0.00000000E+00  0.00000000E+00
  0.00000000E+00  0.00000000E+00  0.00000000E+00
  0.00000000E+00  0.00000000E+00  0.00000000E+00
  0.00000000E+00  0.00000000E+00  0.00000000E+00
  0.00000000E+00  0.00000000E+00  0.00000000E+00
  0.00000000E+00  0.00000000E+00  0.00000000E+00
  0.00000000E+00  0.00000000E+00  0.00000000E+00
  0.00000000E+00  0.00000000E+00  0.00000000E+00
  0.00000000E+00  0.00000000E+00  0.00000000E+00
  0.00000000E+00  0.00000000E+00  0.00000000E+00
  0.00000000E+00  0.00000000E+00  0.00000000E+00
  0.00000000E+00  0.00000000E+00  0.00000000E+00
  0.00000000E+00  0.00000000E+00  0.00000000E+00
  0.00000000E+00  0.00000000E+00  0.00000000E+00
  0.00000000E+00  0.00000000E+00  0.00000000E+00
  0.00000000E+00  0.00000000E+00  0.00000000E+00
  0.00000000E+00  0.00000000E+00  0.00000000E+00
  0.00000000E+00  0.00000000E+00  0.00000000E+00
  0.00000000E+00  0.00000000E+00  0.00000000E+00
  0.00000000E+00  0.00000000E+00  0.00000000E+00
  0.00000000E+00  0.00000000E+00  0.00000000E+00
  0.00000000E+00  0.00000000E+00  0.00000000E+00
  0.00000000E+00  0.00000000E+00  0.00000000E+00
  0.00000000E+00  0.00000000E+00  0.00000000E+00
  0.00000000E+00  0.00000000E+00  0.00000000E+00
  0.00000000E+00  0.00000000E+00  0.00000000E+00
  0.00000000E+00  0.00000000E+00  0.00000000E+00
  0.00000000E+00  0.00000000E+00  0.00000000E+00
  0.00000000E+00  0.00000000E+00  0.00000000E+00
  0.00000000E+00  0.00000000E+00  0.00000000E+00
  0.00000000E+00  0.00000000E+00  0.00000000E+00
  0.00000000E+00  0.00000000E+00  0.00000000E+00
  0.00000000E+00  0.00000000E+00  0.00000000E+00
  0.00000000E+00  0.00000000E+00  0.00000000E+00
  0.00000000E+00  0.00000000E+00  0.00000000E+00
  0.00000000E+00  0.00000000E+00  0.00000000E+00
  0.00000000E+00  0.00000000E+00  0.00000000E+00
  0.00000000E+00  0.00000000E+00  0.00000000E+00
  0.00000000E+00  0.00000000E+00  0.00000000E+00
  0.00000000E+00  0.00000000E+00  0.00000000E+00
  0.00000000E+00  0.00000000E+00  0.00000000E+00
  0.00000000E+00  0.00000000E+00  0.00000000E+00
  0.00000000E+00  0.00000000E+00  0.00000000E+00
  0.00000000E+00  0.00000000E+00  0.00000000E+00
  0.00000000E+00  0.00000000E+00  0.00000000E+00
  0.00000000E+00  0.00000000E+00  0.00000000E+00
  0.00000000E+00  0.00000000E+00  0.00000000E+00
  0.00000000E+00  0.00000000E+00  0.00000000E+00
  0.00000000E+00  0.00000000E+00  0.00000000E+00
  0.00000000E+00  0.00000000E+00  0.00000000E+00
