SrTiFeO                                 
   1.00000000000000     
    11.1989999999999998    0.0000000000000000    0.0000000000000000
     0.0000000000000000   11.1989999999999998    0.0000000000000000
     0.0000000000000000    0.0000000000000000   15.9830000000000005
   Sr   Ti   Fe   O 
    32    30     2    94
Direct
  0.0006245343487906  0.2495430084663689  0.1248474831324683
  0.0016378671575721  0.2493436901741792  0.6261409232810750
 -0.0004858287607911  0.7502718870289261  0.1265625448224162
  0.0077646583716394  0.7490784192472508  0.6246421226486013
  0.4990372372369563  0.2510955203397913  0.1248078630196255
  0.5009789341088076  0.2479115293835336  0.6266416981374009
  0.4982959862222180  0.7508836750909649  0.1230249370175145
  0.4868845770698201  0.7487261705726609  0.6284950234999684
  0.0001667629426776  0.2481785547324473  0.3754558190674344
  0.0010343448009770  0.2503091414240883  0.8744741373338641
  1.0015090820123056  0.7488186800605422  0.3755613514684292
  0.0044198494659899  0.7506961266496566  0.8765619243544015
  0.5011211789583847  0.2426957380135605  0.3741721243046882
  0.4997662939947621  0.2569595357397799  0.8713888193059525
  0.4973805699191703  0.7517639066581543  0.3711757081442382
  0.4958541096459186  0.7453521581668419  0.8741665662158529
  0.2494439020205119  0.0003830569648239  0.1249851736525087
  0.2497856330455891  0.0005593580921883  0.6264583390752895
  0.2506658546596646  0.5000818908019123  0.1241998340987572
  0.2451646969656520  0.4989524173608141  0.6288792637189405
  0.7499869408505623  0.0000956142064567  0.1256403820552270
  0.7512929800788147  0.0099008486319840  0.6274249003541907
  0.7482298524483530  0.4985375408305736  0.1247021734963050
  0.7529641402235047  0.4883106734469400  0.6298050995521528
  0.2494275137716184  0.9986071878088608  0.3748350306061283
  0.2500006167443178  0.0006185465505709  0.8736764014661091
  0.2416501646735137  0.5001105296905178  0.3742749334898548
  0.2556098255063314  0.5004973544376784  0.8730108361262606
  0.7521220385546541  1.0015958694035640  0.3748371683609980
  0.7495959073514066  0.0051002086733869  0.8762597376356104
  0.7546831864162945  0.4930063369118857  0.3702905704662783
  0.7471578227387817  0.4963390192890063  0.8760952312422500
  0.9992678430655922  0.9994342718898493 -0.0000697542549750
  0.9982741948718751  0.9988427573429176  0.5016581919011667
  0.9998021611409507  0.5002149639502549  0.9997938442222353
  0.9960371298680620  0.5002201499080617  0.5017735342343841
  0.5001858663641253  1.0000254396931105  0.9995152762386593
  0.5017020006712873  0.9953278334419171  0.5016048321303257
  0.5000069297105429  0.5000688048850626  0.9984534696759618
  0.2509273558070643  0.2506122631205482  0.9992730585809685
  0.2460375785857152  0.2438888738193213  0.4997733683926129
  0.2497399768453631  0.7500466385208349  0.0003217372639095
  0.2494147618346670  0.7508152958189939  0.4994039388370709
  0.7501636368102993  0.2498118360544046  0.0004342963610123
  0.7503410807338476  0.2488361949804255  0.4994437431289512
  0.7503580035265547  0.7508914001224321  0.0055580056193407
  0.2504839292490186  0.2500790961073058  0.2510052640831391
  0.2526961059595053  0.2519446624317057  0.7500979336762120
  0.2491122652763136  0.7496037989979765  0.2499496996325470
  0.2500402007799029  0.7485368725383234  0.7506436975205297
  0.7499529790432147  0.2486613586149437  0.2495339265053894
  0.7494947162171051  0.2515073494160326  0.7512825915797638
  0.7480561124876944  0.7477308150649316  0.2521149552928778
  0.7509397315262741  0.7510492521155040  0.7604809248538412
 -0.0005796812979606  0.9988950612022014  0.2506667640518301
  0.0010166289657258  1.0013139058295415  0.7492415412611239
  0.9989369893429189  0.5000350227853770  0.2492154480616372
  0.0002654181160645  0.5003259852601258  0.7505122614268900
  0.5003165169076429  0.9988374748175564  0.2497489405722506
  0.5005923216983811  0.9998579230957740  0.7500713354932959
  0.5004671128089212  0.5010763468109325  0.2491656721815678
  0.4877723550048684  0.4916785450230395  0.4970341440182249
  0.5037878822129929  0.5037111466421562  0.7455620855425665
  0.7550309091753231  0.7591036902581956  0.4933282047760441
  0.1099286419960814  0.1395278154481365  0.2502621137427906
  0.1107712375270643  0.1393820930778623  0.7550370847173589
  0.1084457413439123  0.6402143956288907  0.2509420972311630
  0.1088360069181045  0.6402279588091263  0.7509207445528947
  0.6095758089172170  0.1393659581262708  0.2494270230695494
  0.6115772686884400  0.1381153503537488  0.7507653378344470
  0.6076663495755296  0.6406145606495570  0.2397451946500470
  0.3910047702136390  0.3606705792133669  0.2565246867347044
  0.3862638720343098  0.3595906735089897  0.7428808168554034
  0.3893913486661905  0.8596118481455980  0.2496559188873709
  0.3883061239280767  0.8628535847662515  0.7508954001039368
  0.8901273780214042  0.3594554728265383  0.2520962163564647
  0.8910688887266678  0.3608111079889309  0.7486399183599532
  0.8894524144045413  0.8577015365891223  0.2549212551875601
  0.8853542470085556  0.8598317113300294  0.7351569247460019
  0.3607290713049314  0.1096639521938893  0.2517726205158307
  0.3613726896745850  0.1106775403528982  0.7515726032999912
  0.3583687734526448  0.6089920144847657  0.2533699984969303
  0.3556540744546723  0.6162836376134574  0.7468877211170978
  0.8592980153193536  0.1083179125644538  0.2496072863603578
  0.8619567302808483  0.1101942108599990  0.7506182857172508
  0.8587408925269561  0.6077133200475616  0.2457380603716887
  0.8609726698164850  0.6148027847583801  0.7404874340181747
  0.1394079693396462  0.3903673733456475  0.2514996867266007
  0.1393781982509230  0.3906275991630095  0.7536244516006039
  0.1394886679767390  0.8900195702250810  0.2496894951114227
  0.1370664533503932  0.8890941589657998  0.7504622019713170
  0.6405264039540108  0.3892332563479629  0.2502796024186453
  0.6403954404455985  0.8902018706913183  0.2510675600643067
  0.6426704735021910  0.8891428518263146  0.7420026109045709
  0.3587171674906568  0.3905546388682715  1.0000912249797775
  0.3587556501823413  0.8911298846795527  1.0002251965666222
  0.3579777815617119  0.8915327291931829  0.4999959973491819
  0.8591140673533616  0.3910956900589898  1.0004525863777753
  0.8604092758007684  0.3871990424605208  0.4994175750247630
  0.8578234300630696  0.8917919036437602 -0.0002605612548838
  0.8627692583506511  0.8955695461340810  0.5125555563573180
  0.1403634511041543  0.1091611607642863  0.9993221962116341
  0.1423673737057332  0.1081808695557665  0.4966106879431823
  0.1404122200344975  0.6089149353809010  0.9987583859538226
  0.1353404752675809  0.6125108236631993  0.5001229862546109
  0.6415079057941881  0.1085319858046703  1.0012364283938715
  0.6408696361004683  0.1079373772182740  0.4994915580111684
  0.6418627949706416  0.6102685384846832  0.0040801573599131
  0.1090234994029017  0.3592572074917326  0.9990673911517355
  0.1089934709929722  0.3602199339135256  0.4973353344458927
  0.1086239008089221  0.8587855023921118  0.0013221780567405
  0.1091799276899626  0.8597948913540878  0.4989980536844062
  0.6103818589471816  0.3586431289389210  0.0010752286461043
  0.6087157317500724  0.8580996354036495 -0.0003334716198062
  0.6056893660416161  0.8500763517458240  0.5096475278546055
  0.3916147796968790  0.1405235397091832  0.9990325236606030
  0.3915385457662789  0.1418441362649320  0.4993999558511819
  0.3898118686289630  0.6416350325453469  0.0019206400493794
  0.3913867311091505  0.6424277449817158  0.4956746309541843
  0.8916519723193846  0.1406245385262616  1.0003481534323087
  0.8914890781438614  0.1416820330901782  0.4998576865977535
  0.8911898384974569  0.6419545336551217  0.0015463090497424
  0.9982166386592852  0.9979680510570775  0.1255726848866081
  0.0105148232779899  0.0101907398683510  0.6253742623984109
  0.0018191266115786  0.4980409052383979  0.1249276677328461
  0.0075239937847131  0.4943051947452509  0.6257008342625315
  0.4993386799726597 -0.0008484486343623  0.1251084182456210
  0.4964568936024858  0.0053889829267481  0.6253970843933999
  0.4946369174540328  0.4945476824907451  0.1267962457747266
  0.9970763496012561  0.9989207954024253  0.3756682809474579
  0.9952603751854689  0.9932150153606546  0.8747586026513227
  0.9949965096488360  0.5070419315749868  0.3760494466108459
  0.9931765182695460  0.5033347593362361  0.8745293008193260
  0.5032285083000315  0.9962837107702103  0.3760835846570368
  0.5044730521935522  0.9963907469821170  0.8745025409464592
  0.5023219244475206  0.5041290613277954  0.8797868841129063
  0.2495263685826253  0.2500516207207028  0.3752696049094733
  0.2536122858477047  0.2519400436043339  0.8755760198094537
  0.2464682503527357  0.7519641293957852  0.3745378850815320
  0.2495391012444993  0.7509175865209414  0.8760829006916881
  0.7508812147160978  0.2458271310797603  0.3742376122748599
  0.7524263862014745  0.2482563460903794  0.8764935623609477
  0.7372289181321635  0.7305746401587812  0.3715402930833023
  0.7520928900160594  0.7498596024873946  0.8762180124313412
  0.2521354833035877  0.2509092989500404  0.1259291974250734
  0.2436863997000582  0.2468382897327391  0.6242038454999824
  0.2489445883508706  0.7486761180208472  0.1257180689314377
  0.2477516178783628  0.7518197411849545  0.6236318879996217
  0.7520068268435148  0.2498830732269067  0.1255427214956861
  0.7489286497826794  0.2487006689507147  0.6239001523161136
  0.7536605912234138  0.7561770531289793  0.1252336592229796
  0.6463472071518791  0.3849470676294694  0.7514840669794901
  0.6210022427814470  0.6487743672112103  0.7384835507557789
  0.5187665820791383  0.5164596701781786  0.3771711906137175
  0.6124278150904477  0.3637005071915291  0.4948785999992271
  0.3561247665803665  0.3918034979627188  0.5015606545261799
  0.8727791995696753  0.6316994729343154  0.5147212848700053
  0.5278323775124916  0.5217476839573219  0.6086998672024336
 
  0.00000000E+00  0.00000000E+00  0.00000000E+00
  0.00000000E+00  0.00000000E+00  0.00000000E+00
  0.00000000E+00  0.00000000E+00  0.00000000E+00
  0.00000000E+00  0.00000000E+00  0.00000000E+00
  0.00000000E+00  0.00000000E+00  0.00000000E+00
  0.00000000E+00  0.00000000E+00  0.00000000E+00
  0.00000000E+00  0.00000000E+00  0.00000000E+00
  0.00000000E+00  0.00000000E+00  0.00000000E+00
  0.00000000E+00  0.00000000E+00  0.00000000E+00
  0.00000000E+00  0.00000000E+00  0.00000000E+00
  0.00000000E+00  0.00000000E+00  0.00000000E+00
  0.00000000E+00  0.00000000E+00  0.00000000E+00
  0.00000000E+00  0.00000000E+00  0.00000000E+00
  0.00000000E+00  0.00000000E+00  0.00000000E+00
  0.00000000E+00  0.00000000E+00  0.00000000E+00
  0.00000000E+00  0.00000000E+00  0.00000000E+00
  0.00000000E+00  0.00000000E+00  0.00000000E+00
  0.00000000E+00  0.00000000E+00  0.00000000E+00
  0.00000000E+00  0.00000000E+00  0.00000000E+00
  0.00000000E+00  0.00000000E+00  0.00000000E+00
  0.00000000E+00  0.00000000E+00  0.00000000E+00
  0.00000000E+00  0.00000000E+00  0.00000000E+00
  0.00000000E+00  0.00000000E+00  0.00000000E+00
  0.00000000E+00  0.00000000E+00  0.00000000E+00
  0.00000000E+00  0.00000000E+00  0.00000000E+00
  0.00000000E+00  0.00000000E+00  0.00000000E+00
  0.00000000E+00  0.00000000E+00  0.00000000E+00
  0.00000000E+00  0.00000000E+00  0.00000000E+00
  0.00000000E+00  0.00000000E+00  0.00000000E+00
  0.00000000E+00  0.00000000E+00  0.00000000E+00
  0.00000000E+00  0.00000000E+00  0.00000000E+00
  0.00000000E+00  0.00000000E+00  0.00000000E+00
  0.00000000E+00  0.00000000E+00  0.00000000E+00
  0.00000000E+00  0.00000000E+00  0.00000000E+00
  0.00000000E+00  0.00000000E+00  0.00000000E+00
  0.00000000E+00  0.00000000E+00  0.00000000E+00
  0.00000000E+00  0.00000000E+00  0.00000000E+00
  0.00000000E+00  0.00000000E+00  0.00000000E+00
  0.00000000E+00  0.00000000E+00  0.00000000E+00
  0.00000000E+00  0.00000000E+00  0.00000000E+00
  0.00000000E+00  0.00000000E+00  0.00000000E+00
  0.00000000E+00  0.00000000E+00  0.00000000E+00
  0.00000000E+00  0.00000000E+00  0.00000000E+00
  0.00000000E+00  0.00000000E+00  0.00000000E+00
  0.00000000E+00  0.00000000E+00  0.00000000E+00
  0.00000000E+00  0.00000000E+00  0.00000000E+00
  0.00000000E+00  0.00000000E+00  0.00000000E+00
  0.00000000E+00  0.00000000E+00  0.00000000E+00
  0.00000000E+00  0.00000000E+00  0.00000000E+00
  0.00000000E+00  0.00000000E+00  0.00000000E+00
  0.00000000E+00  0.00000000E+00  0.00000000E+00
  0.00000000E+00  0.00000000E+00  0.00000000E+00
  0.00000000E+00  0.00000000E+00  0.00000000E+00
  0.00000000E+00  0.00000000E+00  0.00000000E+00
  0.00000000E+00  0.00000000E+00  0.00000000E+00
  0.00000000E+00  0.00000000E+00  0.00000000E+00
  0.00000000E+00  0.00000000E+00  0.00000000E+00
  0.00000000E+00  0.00000000E+00  0.00000000E+00
  0.00000000E+00  0.00000000E+00  0.00000000E+00
  0.00000000E+00  0.00000000E+00  0.00000000E+00
  0.00000000E+00  0.00000000E+00  0.00000000E+00
  0.00000000E+00  0.00000000E+00  0.00000000E+00
  0.00000000E+00  0.00000000E+00  0.00000000E+00
  0.00000000E+00  0.00000000E+00  0.00000000E+00
  0.00000000E+00  0.00000000E+00  0.00000000E+00
  0.00000000E+00  0.00000000E+00  0.00000000E+00
  0.00000000E+00  0.00000000E+00  0.00000000E+00
  0.00000000E+00  0.00000000E+00  0.00000000E+00
  0.00000000E+00  0.00000000E+00  0.00000000E+00
  0.00000000E+00  0.00000000E+00  0.00000000E+00
  0.00000000E+00  0.00000000E+00  0.00000000E+00
  0.00000000E+00  0.00000000E+00  0.00000000E+00
  0.00000000E+00  0.00000000E+00  0.00000000E+00
  0.00000000E+00  0.00000000E+00  0.00000000E+00
  0.00000000E+00  0.00000000E+00  0.00000000E+00
  0.00000000E+00  0.00000000E+00  0.00000000E+00
  0.00000000E+00  0.00000000E+00  0.00000000E+00
  0.00000000E+00  0.00000000E+00  0.00000000E+00
  0.00000000E+00  0.00000000E+00  0.00000000E+00
  0.00000000E+00  0.00000000E+00  0.00000000E+00
  0.00000000E+00  0.00000000E+00  0.00000000E+00
  0.00000000E+00  0.00000000E+00  0.00000000E+00
  0.00000000E+00  0.00000000E+00  0.00000000E+00
  0.00000000E+00  0.00000000E+00  0.00000000E+00
  0.00000000E+00  0.00000000E+00  0.00000000E+00
  0.00000000E+00  0.00000000E+00  0.00000000E+00
  0.00000000E+00  0.00000000E+00  0.00000000E+00
  0.00000000E+00  0.00000000E+00  0.00000000E+00
  0.00000000E+00  0.00000000E+00  0.00000000E+00
  0.00000000E+00  0.00000000E+00  0.00000000E+00
  0.00000000E+00  0.00000000E+00  0.00000000E+00
  0.00000000E+00  0.00000000E+00  0.00000000E+00
  0.00000000E+00  0.00000000E+00  0.00000000E+00
  0.00000000E+00  0.00000000E+00  0.00000000E+00
  0.00000000E+00  0.00000000E+00  0.00000000E+00
  0.00000000E+00  0.00000000E+00  0.00000000E+00
  0.00000000E+00  0.00000000E+00  0.00000000E+00
  0.00000000E+00  0.00000000E+00  0.00000000E+00
  0.00000000E+00  0.00000000E+00  0.00000000E+00
  0.00000000E+00  0.00000000E+00  0.00000000E+00
  0.00000000E+00  0.00000000E+00  0.00000000E+00
  0.00000000E+00  0.00000000E+00  0.00000000E+00
  0.00000000E+00  0.00000000E+00  0.00000000E+00
  0.00000000E+00  0.00000000E+00  0.00000000E+00
  0.00000000E+00  0.00000000E+00  0.00000000E+00
  0.00000000E+00  0.00000000E+00  0.00000000E+00
  0.00000000E+00  0.00000000E+00  0.00000000E+00
  0.00000000E+00  0.00000000E+00  0.00000000E+00
  0.00000000E+00  0.00000000E+00  0.00000000E+00
  0.00000000E+00  0.00000000E+00  0.00000000E+00
  0.00000000E+00  0.00000000E+00  0.00000000E+00
  0.00000000E+00  0.00000000E+00  0.00000000E+00
  0.00000000E+00  0.00000000E+00  0.00000000E+00
  0.00000000E+00  0.00000000E+00  0.00000000E+00
  0.00000000E+00  0.00000000E+00  0.00000000E+00
  0.00000000E+00  0.00000000E+00  0.00000000E+00
  0.00000000E+00  0.00000000E+00  0.00000000E+00
  0.00000000E+00  0.00000000E+00  0.00000000E+00
  0.00000000E+00  0.00000000E+00  0.00000000E+00
  0.00000000E+00  0.00000000E+00  0.00000000E+00
  0.00000000E+00  0.00000000E+00  0.00000000E+00
  0.00000000E+00  0.00000000E+00  0.00000000E+00
  0.00000000E+00  0.00000000E+00  0.00000000E+00
  0.00000000E+00  0.00000000E+00  0.00000000E+00
  0.00000000E+00  0.00000000E+00  0.00000000E+00
  0.00000000E+00  0.00000000E+00  0.00000000E+00
  0.00000000E+00  0.00000000E+00  0.00000000E+00
  0.00000000E+00  0.00000000E+00  0.00000000E+00
  0.00000000E+00  0.00000000E+00  0.00000000E+00
  0.00000000E+00  0.00000000E+00  0.00000000E+00
  0.00000000E+00  0.00000000E+00  0.00000000E+00
  0.00000000E+00  0.00000000E+00  0.00000000E+00
  0.00000000E+00  0.00000000E+00  0.00000000E+00
  0.00000000E+00  0.00000000E+00  0.00000000E+00
  0.00000000E+00  0.00000000E+00  0.00000000E+00
  0.00000000E+00  0.00000000E+00  0.00000000E+00
  0.00000000E+00  0.00000000E+00  0.00000000E+00
  0.00000000E+00  0.00000000E+00  0.00000000E+00
  0.00000000E+00  0.00000000E+00  0.00000000E+00
  0.00000000E+00  0.00000000E+00  0.00000000E+00
  0.00000000E+00  0.00000000E+00  0.00000000E+00
  0.00000000E+00  0.00000000E+00  0.00000000E+00
  0.00000000E+00  0.00000000E+00  0.00000000E+00
  0.00000000E+00  0.00000000E+00  0.00000000E+00
  0.00000000E+00  0.00000000E+00  0.00000000E+00
  0.00000000E+00  0.00000000E+00  0.00000000E+00
  0.00000000E+00  0.00000000E+00  0.00000000E+00
  0.00000000E+00  0.00000000E+00  0.00000000E+00
  0.00000000E+00  0.00000000E+00  0.00000000E+00
  0.00000000E+00  0.00000000E+00  0.00000000E+00
  0.00000000E+00  0.00000000E+00  0.00000000E+00
  0.00000000E+00  0.00000000E+00  0.00000000E+00
  0.00000000E+00  0.00000000E+00  0.00000000E+00
  0.00000000E+00  0.00000000E+00  0.00000000E+00
  0.00000000E+00  0.00000000E+00  0.00000000E+00
  0.00000000E+00  0.00000000E+00  0.00000000E+00
  0.00000000E+00  0.00000000E+00  0.00000000E+00
  0.00000000E+00  0.00000000E+00  0.00000000E+00
