SrTiFeO                                 
   1.00000000000000     
    11.1989999999999998    0.0000000000000000    0.0000000000000000
     0.0000000000000000   11.1989999999999998    0.0000000000000000
     0.0000000000000000    0.0000000000000000   15.9830000000000005
   Sr   Ti   Fe   O 
    32    29     3    94
Direct
  0.0004527709460710  0.2500958953611035  0.1249260078913134
  0.0019631925641372  0.2500268980352479  0.6251282331301113
  0.9997541978847254  0.7500652416234361  0.1265954193073380
  0.0081576952846354  0.7487096303130260  0.6238290397250941
  0.4994439803837426  0.2514931932770280  0.1252242388354144
  0.5003958172704197  0.2520019875278613  0.6241142763292792
  0.4980943205268927  0.7502424580343842  0.1238956122300512
  0.4869217527020877  0.7476260126271885  0.6283791446910271
  0.0008354902795147  0.2485551017960381  0.3761746407936088
  0.0002473751620207  0.2508495648629596  0.8743571665978424
  0.0024082470882320  0.7490026767072029  0.3759018025107133
  0.0044254814301245  0.7505587025784985  0.8763703647803817
  0.5009906082046802  0.2482212565811543  0.3762872148040664
  0.4994961593760758  0.2546232776814201  0.8722493605556664
  0.4974594621733763  0.7499614193205005  0.3726333444554799
  0.4963250863990730  0.7472673337827972  0.8752792310898231
  0.2498736036851517  0.0004654288944584  0.1251396184475750
  0.2498497173727232  0.0014490763547572  0.6250566158226445
  0.2512478589190453  0.4996066677811747  0.1247048350277639
  0.2506574423458097  0.4983894818468135  0.6260723638291268
  0.7498083935456343  0.0000488959165036  0.1255859339989600
  0.7512766138040328  0.0103380173078700  0.6264310113001803
  0.7479375396484164  0.4989912007346803  0.1250602020444737
  0.7495297568873527  0.4877715209489805  0.6280502262136920
  0.2498373077862038  0.9994319843550128  0.3758025845151222
  0.2499508972505520  0.0007148898115051  0.8740309560372845
  0.2467832556414424  0.4996898117750622  0.3758822937326748
  0.2544029052822446  0.5005722940252136  0.8731368744205110
  0.7518501328513998  0.0023178879970209  0.3751851092982401
  0.7497295285310761  0.0046406307315886  0.8763157098976425
  0.7526457531414246  0.4936076257465115  0.3716585415476981
  0.7477369838453084  0.4965157587942579  0.8757575448157446
  0.9993183305922321  0.9994265730261530  0.9999413348087407
  0.9994612740240590  0.9997968586968242  0.5015700375801756
  0.9998557361927763  0.5003713951638893  0.9999316126138433
  0.9966108074489868  0.5003457176722699  0.5016946823468539
  0.5003562588709880  0.0000068074343549  0.9996778275289262
  0.5015564716097940  0.9956364689572876  0.5014581529440270
  0.5000000739432530  0.5000467900899523  0.9988781282313018
  0.2506612595465716  0.2505685375438604  0.9992098304460473
  0.2485299251363127  0.2472770408192154  0.4995347965625613
  0.2497848343793105  0.7499843897607862  0.0003447678352573
  0.2513486159008876  0.7495414369508602  0.4994325687620776
  0.7501679186967567  0.2500010752416069  0.0003861916582531
  0.7495332293765006  0.2504323716195923  0.4994557214619370
  0.7504850520253995  0.7507164297484327  0.0054833090960640
  0.2503220018654342  0.2498837123633245  0.2510357277932710
  0.2520918390347546  0.2517029842676328  0.7500956312587302
  0.2494867658028432  0.7495324058187981  0.2499867210034177
  0.2503384970303532  0.7488463015856435  0.7505594098531149
  0.7499687552411665  0.2487625555124028  0.2497662656372341
  0.7487974889408791  0.2511423972848966  0.7509182193623795
  0.7482603180529066  0.7478531874846894  0.2523134228387683
  0.7505793325959993  0.7507168699038940  0.7600268614030787
  0.9995613480301784  0.9990356825221578  0.2506397231522495
  0.0010344529083800  0.0010714304780181  0.7491681022358192
  0.9993034891112438  0.5001930958035271  0.2498352941270215
  0.0004335001310087  0.5004251614309603  0.7497139583639605
  0.5004963245149209  0.9991730169700532  0.2501202478817877
  0.5000833642613535  0.0003146391980939  0.7494591430625649
  0.5006484066635392  0.5009610132127015  0.2513574628887318
  0.5022944671703482  0.5019200817975932  0.7465726675066316
  0.4876750671198544  0.4913973587919187  0.4992522760168468
  0.7556711522792157  0.7599285555760862  0.4934386663116436
  0.1090069237478299  0.1398806849429982  0.2490954550911192
  0.1110574707369760  0.1396972436913736  0.7551385559529542
  0.1083045628959933  0.6409026570869342  0.2501934163077286
  0.1105074645897123  0.6396489773787123  0.7511091999968235
  0.6088414867179519  0.1402150534083509  0.2500267979574894
  0.6113969560566125  0.1385559389543716  0.7503085935337220
  0.6074563002554403  0.6403294934280032  0.2405922469727083
  0.3910231143531446  0.3600082998363073  0.2550814127892074
  0.3884446974426146  0.3619746471905761  0.7449753111849678
  0.3901691904511748  0.8590092176900364  0.2495872702386974
  0.3887610517394112  0.8621196332055673  0.7511477257216473
  0.8905616243232436  0.3589584222992236  0.2517265821666418
  0.8883618712034926  0.3624262003373719  0.7489188447471000
  0.8898496193150736  0.8572637658264544  0.2545117649182956
  0.8854936946340092  0.8595538664824856  0.7361741335578584
  0.3599598799338893  0.1088992584597553  0.2513143999682535
  0.3614069735991057  0.1110326936881928  0.7523087202428180
  0.3582737049275350  0.6088670218945517  0.2517198971177199
  0.3613451243383483  0.6140216828201841  0.7480373649663606
  0.8585493822631350  0.1079297166696922  0.2492655534162232
  0.8612705693287698  0.1112033353467280  0.7512109934798228
  0.8586051197773451  0.6075239975575130  0.2460574135874828
  0.8601359192448873  0.6153506365764526  0.7390814147569489
  0.1399613841235613  0.3908999481213180  0.2516184742260244
  0.1390458287154171  0.3899733986403726  0.7531168519951181
  0.1400170129597978  0.8904182742693335  0.2496732689339311
  0.1382634142269571  0.8886900740021362  0.7507963066367226
  0.6409696475815579  0.3895590680695962  0.2494999949319503
  0.6412588109511832  0.8906663701035682  0.2501070408760636
  0.6423704069284092  0.8873654753222817  0.7403796292138242
  0.3593699997830145  0.3907397068080941  0.9984905319143615
  0.3593427785910213  0.8906812102017496  0.9994774327244559
  0.3582869049191002  0.8913180120473213  0.5002040691188987
  0.8590939954128730  0.3909697282413389  0.0002362657899287
  0.8623044485472262  0.3865319286080449  0.4997074208089645
  0.8579657309341403  0.8915383766429333  0.9998360503133646
  0.8636760322318897  0.8955469267137707  0.5128875764300438
  0.1402337909696461  0.1092113156217825  0.9989671563052637
  0.1412974019379307  0.1100348892952119  0.4976519795240271
  0.1406007934459892  0.6090486877852126  0.9988275536854651
  0.1347439957973219  0.6134223961480716  0.5003286281103094
  0.6414182647587776  0.1088867145702110  0.0007069967951539
  0.6401885819653261  0.1090438974090345  0.4998667453484888
  0.6417033502074259  0.6100384278958457  0.0016113228592788
  0.1089871933309950  0.3594167253652165  0.9985083697279165
  0.1093510808265951  0.3609637499915768  0.4976612574252250
  0.1091421139088263  0.8589422784119960  0.0007027089245370
  0.1103166697995261  0.8607826816483797  0.4994735384281954
  0.6099350545263275  0.3592250039245067  0.9993556506012430
  0.6092117180498023  0.8582244363494625  0.9999582634474592
  0.6062364575017178  0.8503424567313144  0.5103323614387090
  0.3913307793637082  0.1401489129497832  0.9986510051892417
  0.3909273728822754  0.1399595761070606  0.4988324488338020
  0.3903638079667688  0.6410494890932980  0.0006798027770537
  0.3911017528294884  0.6428134176668719  0.4980428265730614
  0.8912713907939036  0.1406732038163511  0.9994911796715888
  0.8907709908603002  0.1413693989205919  0.5003990727360920
  0.8912033238717154  0.6419699462313079  0.0010080240918840
  0.9981047617622145  0.9977877327545969  0.1251185719287435
  0.0099993866171917  0.0099707748784704  0.6263088382168696
  0.0017687865682742  0.4981091684120132  0.1247111919256151
  0.0076384945276077  0.4945717439568671  0.6258185262936251
  0.4994173066661302  0.9996301726866675  0.1248799839918663
  0.4956439745567118  0.0053479892077953  0.6255607891657017
  0.4959535881897700  0.4950947170498440  0.1248283400208323
  0.9971557255504561  0.9992994153597055  0.3754758905044806
  0.9954202084833855  0.9929518083245403  0.8744774656908101
  0.9949539030781052  0.5072826930526961  0.3760488075450308
  0.9932843880012979  0.5038137711731182  0.8740697857018581
  0.5039437413741376  0.9950322419674249  0.3760414723014139
  0.5056786511463861  0.9961922542276730  0.8741842718136200
  0.5023834650631455  0.5048877491296244  0.8751232204963979
  0.2481643256825101  0.2483097735285740  0.3743967982649380
  0.2533138876636620  0.2519976222538767  0.8752880990997778
  0.2474426432849641  0.7509721974032292  0.3744774975361837
  0.2500727499826687  0.7499238990442817  0.8755842529202965
  0.7503674217812631  0.2467103361008401  0.3743007006926409
  0.7512074582195482  0.2494821447070931  0.8757341275600521
  0.7368522655380835  0.7311783265761361  0.3717071536754138
  0.7528639035024571  0.7512825349177501  0.8754390315987346
  0.2519783056326936  0.2514314205991721  0.1251659514944984
  0.2459206323655543  0.2474579999583768  0.6251288528702650
  0.2496372906902903  0.7491583388390554  0.1251193085494216
  0.2486337143820595  0.7509046541804895  0.6248885231775857
  0.7511090230539127  0.2498321264519475  0.1250407273930787
  0.7488567364487476  0.2496020147506438  0.6250789515019092
  0.7529001784320518  0.7539580323867284  0.1249446331898366
  0.6404947493812181  0.3876040590307945  0.7517090478695937
  0.6182165680806483  0.6449834569550528  0.7410201428270290
  0.5141000839487391  0.5123043193677715  0.3764377570725994
  0.6168071052073190  0.3669926590097565  0.4975054411944540
  0.3557959592619609  0.3879595825492562  0.4991280215121079
  0.8722333443872454  0.6314830386344281  0.5147013483362545
  0.5144346013995583  0.5107965162181188  0.6184113197363701
 
  0.00000000E+00  0.00000000E+00  0.00000000E+00
  0.00000000E+00  0.00000000E+00  0.00000000E+00
  0.00000000E+00  0.00000000E+00  0.00000000E+00
  0.00000000E+00  0.00000000E+00  0.00000000E+00
  0.00000000E+00  0.00000000E+00  0.00000000E+00
  0.00000000E+00  0.00000000E+00  0.00000000E+00
  0.00000000E+00  0.00000000E+00  0.00000000E+00
  0.00000000E+00  0.00000000E+00  0.00000000E+00
  0.00000000E+00  0.00000000E+00  0.00000000E+00
  0.00000000E+00  0.00000000E+00  0.00000000E+00
  0.00000000E+00  0.00000000E+00  0.00000000E+00
  0.00000000E+00  0.00000000E+00  0.00000000E+00
  0.00000000E+00  0.00000000E+00  0.00000000E+00
  0.00000000E+00  0.00000000E+00  0.00000000E+00
  0.00000000E+00  0.00000000E+00  0.00000000E+00
  0.00000000E+00  0.00000000E+00  0.00000000E+00
  0.00000000E+00  0.00000000E+00  0.00000000E+00
  0.00000000E+00  0.00000000E+00  0.00000000E+00
  0.00000000E+00  0.00000000E+00  0.00000000E+00
  0.00000000E+00  0.00000000E+00  0.00000000E+00
  0.00000000E+00  0.00000000E+00  0.00000000E+00
  0.00000000E+00  0.00000000E+00  0.00000000E+00
  0.00000000E+00  0.00000000E+00  0.00000000E+00
  0.00000000E+00  0.00000000E+00  0.00000000E+00
  0.00000000E+00  0.00000000E+00  0.00000000E+00
  0.00000000E+00  0.00000000E+00  0.00000000E+00
  0.00000000E+00  0.00000000E+00  0.00000000E+00
  0.00000000E+00  0.00000000E+00  0.00000000E+00
  0.00000000E+00  0.00000000E+00  0.00000000E+00
  0.00000000E+00  0.00000000E+00  0.00000000E+00
  0.00000000E+00  0.00000000E+00  0.00000000E+00
  0.00000000E+00  0.00000000E+00  0.00000000E+00
  0.00000000E+00  0.00000000E+00  0.00000000E+00
  0.00000000E+00  0.00000000E+00  0.00000000E+00
  0.00000000E+00  0.00000000E+00  0.00000000E+00
  0.00000000E+00  0.00000000E+00  0.00000000E+00
  0.00000000E+00  0.00000000E+00  0.00000000E+00
  0.00000000E+00  0.00000000E+00  0.00000000E+00
  0.00000000E+00  0.00000000E+00  0.00000000E+00
  0.00000000E+00  0.00000000E+00  0.00000000E+00
  0.00000000E+00  0.00000000E+00  0.00000000E+00
  0.00000000E+00  0.00000000E+00  0.00000000E+00
  0.00000000E+00  0.00000000E+00  0.00000000E+00
  0.00000000E+00  0.00000000E+00  0.00000000E+00
  0.00000000E+00  0.00000000E+00  0.00000000E+00
  0.00000000E+00  0.00000000E+00  0.00000000E+00
  0.00000000E+00  0.00000000E+00  0.00000000E+00
  0.00000000E+00  0.00000000E+00  0.00000000E+00
  0.00000000E+00  0.00000000E+00  0.00000000E+00
  0.00000000E+00  0.00000000E+00  0.00000000E+00
  0.00000000E+00  0.00000000E+00  0.00000000E+00
  0.00000000E+00  0.00000000E+00  0.00000000E+00
  0.00000000E+00  0.00000000E+00  0.00000000E+00
  0.00000000E+00  0.00000000E+00  0.00000000E+00
  0.00000000E+00  0.00000000E+00  0.00000000E+00
  0.00000000E+00  0.00000000E+00  0.00000000E+00
  0.00000000E+00  0.00000000E+00  0.00000000E+00
  0.00000000E+00  0.00000000E+00  0.00000000E+00
  0.00000000E+00  0.00000000E+00  0.00000000E+00
  0.00000000E+00  0.00000000E+00  0.00000000E+00
  0.00000000E+00  0.00000000E+00  0.00000000E+00
  0.00000000E+00  0.00000000E+00  0.00000000E+00
  0.00000000E+00  0.00000000E+00  0.00000000E+00
  0.00000000E+00  0.00000000E+00  0.00000000E+00
  0.00000000E+00  0.00000000E+00  0.00000000E+00
  0.00000000E+00  0.00000000E+00  0.00000000E+00
  0.00000000E+00  0.00000000E+00  0.00000000E+00
  0.00000000E+00  0.00000000E+00  0.00000000E+00
  0.00000000E+00  0.00000000E+00  0.00000000E+00
  0.00000000E+00  0.00000000E+00  0.00000000E+00
  0.00000000E+00  0.00000000E+00  0.00000000E+00
  0.00000000E+00  0.00000000E+00  0.00000000E+00
  0.00000000E+00  0.00000000E+00  0.00000000E+00
  0.00000000E+00  0.00000000E+00  0.00000000E+00
  0.00000000E+00  0.00000000E+00  0.00000000E+00
  0.00000000E+00  0.00000000E+00  0.00000000E+00
  0.00000000E+00  0.00000000E+00  0.00000000E+00
  0.00000000E+00  0.00000000E+00  0.00000000E+00
  0.00000000E+00  0.00000000E+00  0.00000000E+00
  0.00000000E+00  0.00000000E+00  0.00000000E+00
  0.00000000E+00  0.00000000E+00  0.00000000E+00
  0.00000000E+00  0.00000000E+00  0.00000000E+00
  0.00000000E+00  0.00000000E+00  0.00000000E+00
  0.00000000E+00  0.00000000E+00  0.00000000E+00
  0.00000000E+00  0.00000000E+00  0.00000000E+00
  0.00000000E+00  0.00000000E+00  0.00000000E+00
  0.00000000E+00  0.00000000E+00  0.00000000E+00
  0.00000000E+00  0.00000000E+00  0.00000000E+00
  0.00000000E+00  0.00000000E+00  0.00000000E+00
  0.00000000E+00  0.00000000E+00  0.00000000E+00
  0.00000000E+00  0.00000000E+00  0.00000000E+00
  0.00000000E+00  0.00000000E+00  0.00000000E+00
  0.00000000E+00  0.00000000E+00  0.00000000E+00
  0.00000000E+00  0.00000000E+00  0.00000000E+00
  0.00000000E+00  0.00000000E+00  0.00000000E+00
  0.00000000E+00  0.00000000E+00  0.00000000E+00
  0.00000000E+00  0.00000000E+00  0.00000000E+00
  0.00000000E+00  0.00000000E+00  0.00000000E+00
  0.00000000E+00  0.00000000E+00  0.00000000E+00
  0.00000000E+00  0.00000000E+00  0.00000000E+00
  0.00000000E+00  0.00000000E+00  0.00000000E+00
  0.00000000E+00  0.00000000E+00  0.00000000E+00
  0.00000000E+00  0.00000000E+00  0.00000000E+00
  0.00000000E+00  0.00000000E+00  0.00000000E+00
  0.00000000E+00  0.00000000E+00  0.00000000E+00
  0.00000000E+00  0.00000000E+00  0.00000000E+00
  0.00000000E+00  0.00000000E+00  0.00000000E+00
  0.00000000E+00  0.00000000E+00  0.00000000E+00
  0.00000000E+00  0.00000000E+00  0.00000000E+00
  0.00000000E+00  0.00000000E+00  0.00000000E+00
  0.00000000E+00  0.00000000E+00  0.00000000E+00
  0.00000000E+00  0.00000000E+00  0.00000000E+00
  0.00000000E+00  0.00000000E+00  0.00000000E+00
  0.00000000E+00  0.00000000E+00  0.00000000E+00
  0.00000000E+00  0.00000000E+00  0.00000000E+00
  0.00000000E+00  0.00000000E+00  0.00000000E+00
  0.00000000E+00  0.00000000E+00  0.00000000E+00
  0.00000000E+00  0.00000000E+00  0.00000000E+00
  0.00000000E+00  0.00000000E+00  0.00000000E+00
  0.00000000E+00  0.00000000E+00  0.00000000E+00
  0.00000000E+00  0.00000000E+00  0.00000000E+00
  0.00000000E+00  0.00000000E+00  0.00000000E+00
  0.00000000E+00  0.00000000E+00  0.00000000E+00
  0.00000000E+00  0.00000000E+00  0.00000000E+00
  0.00000000E+00  0.00000000E+00  0.00000000E+00
  0.00000000E+00  0.00000000E+00  0.00000000E+00
  0.00000000E+00  0.00000000E+00  0.00000000E+00
  0.00000000E+00  0.00000000E+00  0.00000000E+00
  0.00000000E+00  0.00000000E+00  0.00000000E+00
  0.00000000E+00  0.00000000E+00  0.00000000E+00
  0.00000000E+00  0.00000000E+00  0.00000000E+00
  0.00000000E+00  0.00000000E+00  0.00000000E+00
  0.00000000E+00  0.00000000E+00  0.00000000E+00
  0.00000000E+00  0.00000000E+00  0.00000000E+00
  0.00000000E+00  0.00000000E+00  0.00000000E+00
  0.00000000E+00  0.00000000E+00  0.00000000E+00
  0.00000000E+00  0.00000000E+00  0.00000000E+00
  0.00000000E+00  0.00000000E+00  0.00000000E+00
  0.00000000E+00  0.00000000E+00  0.00000000E+00
  0.00000000E+00  0.00000000E+00  0.00000000E+00
  0.00000000E+00  0.00000000E+00  0.00000000E+00
  0.00000000E+00  0.00000000E+00  0.00000000E+00
  0.00000000E+00  0.00000000E+00  0.00000000E+00
  0.00000000E+00  0.00000000E+00  0.00000000E+00
  0.00000000E+00  0.00000000E+00  0.00000000E+00
  0.00000000E+00  0.00000000E+00  0.00000000E+00
  0.00000000E+00  0.00000000E+00  0.00000000E+00
  0.00000000E+00  0.00000000E+00  0.00000000E+00
  0.00000000E+00  0.00000000E+00  0.00000000E+00
  0.00000000E+00  0.00000000E+00  0.00000000E+00
  0.00000000E+00  0.00000000E+00  0.00000000E+00
  0.00000000E+00  0.00000000E+00  0.00000000E+00
  0.00000000E+00  0.00000000E+00  0.00000000E+00
  0.00000000E+00  0.00000000E+00  0.00000000E+00
  0.00000000E+00  0.00000000E+00  0.00000000E+00
  0.00000000E+00  0.00000000E+00  0.00000000E+00
  0.00000000E+00  0.00000000E+00  0.00000000E+00
  0.00000000E+00  0.00000000E+00  0.00000000E+00
