SrTiFeO                                 
   1.00000000000000     
    11.1989999999999998    0.0000000000000000    0.0000000000000000
     0.0000000000000000   11.1989999999999998    0.0000000000000000
     0.0000000000000000    0.0000000000000000   15.9830000000000005
   Sr   Ti   Fe   O 
    32    29     3    94
Direct
  0.0004991759986546  0.2499080432262501  0.1253199455601064
  0.0016643111015513  0.2490624911106001  0.6237909685432484
  0.0001822458357936  0.7499537044705725  0.1262945055142997
  0.0078592797533490  0.7510826423130761  0.6232477835387538
  0.4996765106686076  0.2493781401764311  0.1250373259201991
  0.4986134653197987  0.2438511616932171  0.6231121964681836
  0.4988543565194746  0.7512315464256684  0.1257587004762506
  0.4935004204413457  0.7541703221092269  0.6229566926076182
  0.0002972147334893  0.2501497366008706  0.3774912718314102
  0.9999683319330531  0.2502744240235908  0.8737709962717659
  0.9972309884978569  0.7491506047975067  0.3780645381987074
  0.0043279058593014  0.7504637673906366  0.8741019936554986
  0.5010107953147818  0.2497352527608648  0.3763905724613216
  0.4996524958217015  0.2497977741064411  0.8732466990024168
  0.5018066005754883  0.7506641534822085  0.3773197569024681
  0.4956379964422903  0.7514087865414724  0.8772963049570180
  0.2494739163285129  0.0003732291243966  0.1250971480012529
  0.2486503076046736  0.0014454210791277  0.6236195894753643
  0.2496523844039888  0.4995297863974397  0.1252222143068133
  0.2434727155828980  0.4985458513718543  0.6242886408867397
  0.7504497525194449  0.0006338863681263  0.1262485470898346
  0.7523056475678558  0.0087344524078006  0.6248060637996097
  0.7499148742062425  0.4993766093943484  0.1260003223935844
  0.7553636057203834  0.4935892520144574  0.6234245225102895
  0.2500335965680222  0.9999551355836107  0.3769082376806359
  0.2496394391408789  0.0003068007759544  0.8732315914302829
  0.2498204923524651  0.4999591188579817  0.3774126261684319
  0.2500994320802826  0.5004071168455785  0.8742045526156019
  0.7507606698072706  0.9968559253784833  0.3787636346501555
  0.7497111841982740  0.0041498410558333  0.8752318054477788
  0.7504770715695122  0.5022262089567343  0.3770420868303239
  0.7511877580092441  0.4960916565807570  0.8759235579739426
  0.9991063731867622  0.9993499657282335  0.9994743871538639
  0.9985115596787345  0.9988224915638366  0.5008182463665858
  0.9997548835964445  0.5006942627584009  0.9999480268035505
  0.9981516324148345  0.5019854295612484  0.5005343224866885
  0.5003983375798777  0.9998471437233601  0.9999863658877829
  0.5013163025105928  0.9985589017418236  0.5004626125358332
  0.5001951868834642  0.5001317286175306  0.0015882845403877
  0.2502857707857194  0.2504662454918615  0.9990660827765041
  0.2516521438071208  0.2514688827929732  0.5003146888639488
  0.2500610944670166  0.7496287441813611  0.0003609697859824
  0.2512352632221220  0.7488478171289826  0.4998967011582467
  0.7495770123721729  0.2503503101445743  0.0003419587488171
  0.7484707288869822  0.2514437139897026  0.5000633284891922
  0.7497507388519746  0.7497195499461710  0.0048662141389328
  0.2508227981566382  0.2505965071712156  0.2509148203370801
  0.2522943237411248  0.2518605921475178  0.7495834431877091
  0.2500367735779144  0.7496500213167318  0.2506919333508092
  0.2522669286221658  0.7484198755430238  0.7488121404739579
  0.7498088811539504  0.2502077209738073  0.2506778531537467
  0.7485253027195186  0.2520912407641343  0.7492286872098850
  0.7493512226161984  0.7492224801034999  0.2525596697612030
  0.7479329486967512  0.7479411380393786  0.7569395972617361
  0.9994095757089627  0.9994205202810644  0.2515874890121185
  0.0004118224822053  0.0009148595519280  0.7496621022969017
  0.9995136919212040  0.5003791083790519  0.2503074362162126
  0.0006418406317111  0.4997616612730199  0.7493625130357013
  0.5006588830630803  0.9996292060722326  0.2505000822488295
  0.4998246650007563  0.9997549345579999  0.7490472567370259
  0.5004880357582139  0.5007456532039236  0.2492538443913712
  0.5013720851769096  0.5013000928088177  0.7582010414560612
  0.5018831094509911  0.5018129271364191  0.4925898201497263
  0.7478080163810754  0.7496880060309662  0.5050726705545903
  0.1092353575052927  0.1409853812641678  0.2531711957845474
  0.1121155263999052  0.1378780525675491  0.7561633907322538
  0.1083277345536583  0.6417942832659063  0.2504682264531763
  0.1137941984862399  0.6367564108975368  0.7498165130423553
  0.6081795629040313  0.1417700925944562  0.2492763748220260
  0.6130643630465704  0.1362650817073956  0.7499169599665643
  0.6069472571044332  0.6412499523312618  0.2447143031728070
  0.3923062747616611  0.3585959550173737  0.2488429149870373
  0.3894669535494077  0.3654047156284481  0.7394189297563444
  0.3916340231616046  0.8582600583044494  0.2502661528183890
  0.3878265189208804  0.8625781777791880  0.7516220951218671
  0.8918965429579512  0.3580895023060834  0.2501571354390735
  0.8872387581852307  0.3631301915586491  0.7509296143250898
  0.8913119343869131  0.8582150828753052  0.2493119344430453
  0.8825029471037533  0.8592180191365296  0.7375719463241236
  0.3588508758618660  0.1085752426535516  0.2508455323935845
  0.3627514131469316  0.1123197140649251  0.7530216451072456
  0.3577894118289519  0.6077523949626127  0.2487369526252612
  0.3671798111552630  0.6121209897693045  0.7383261846878467
  0.8582221688555782  0.1087324799370282  0.2512664313167571
  0.8618499430868736  0.1118907836916456  0.7525748279112723
  0.8588776761981516  0.6073919938112461  0.2469192272432093
  0.8621196607266738  0.6159991906106017  0.7401992283014461
  0.1413277466423294  0.3916460900864435  0.2504632957456343
  0.1382339937984868  0.3881272268343287  0.7533196604947150
  0.1413880109972848  0.8913583115103194  0.2506748537131142
  0.1367522686285141  0.8863699889808601  0.7523455319434643
  0.6421451445046450  0.3918527615237167  0.2490658782415313
  0.6414590084633823  0.8921109342515025  0.2484986064932020
  0.6391199956317963  0.8833028954585120  0.7378109214588013
  0.3593798553278034  0.3914828799914102  0.9998176774208000
  0.3592785009436001  0.8904642082236555  0.9979853426203068
  0.3615502460073166  0.8882517641927981  0.4995039766346362
  0.8588353326993118  0.3911926659499955  0.9998207463109108
  0.8633526327361650  0.3864102115750444  0.4987501962813738
  0.8575844826028445  0.8906713213152806  0.9990011384159047
  0.8637498777593710  0.8884615933814596  0.5117112762308432
  0.1396974860321890  0.1097588989449608  0.9957233356130281
  0.1387532930084058  0.1130965928314931  0.4953691527236220
  0.1409095007238869  0.6091154122698549  0.9989654047506771
  0.1363209611315904  0.6132178531232459  0.5000889972043642
  0.6409848607420920  0.1090282977541548  0.9998032823847162
  0.6380007921701640  0.1128806435300291  0.5003310073928176
  0.6420627228511542  0.6084794481488339  0.0006729921447708
  0.1091127463518558  0.3598724650409537  0.9975338988201758
  0.1142599180676462  0.3631604294489654  0.4982881881321632
  0.1094944780339248  0.8588723670599608  0.9987295311158726
  0.1123050089834862  0.8625176487942375  0.4980833994669557
  0.6086465309458133  0.3589005921572403  0.9997331911150870
  0.6087831237666167  0.8579303058592349  0.9998925539535994
  0.6109233009234829  0.8654154781769917  0.5082252382064200
  0.3911025716986175  0.1400597869726198  0.9980649585591835
  0.3881709865704215  0.1387539118263718  0.4979978689510473
  0.3912914947270160  0.6412126928298736  0.0015019760329910
  0.3840953739231065  0.6353324827904787  0.5066526894537756
  0.8899915299660515  0.1407346697295873  0.9974924536888697
  0.8881648089244712  0.1381785783266077  0.4985991718836158
  0.8909694951391709  0.6421028579428886  0.9988768041889778
  0.0004000957702428  0.0013855838495024  0.1242922708920079
  0.0084371580972561  0.0080960600920576  0.6261442288038661
  0.0014336944538425  0.4995117272713936  0.1240599253091548
  0.0060921227603842  0.4923778687969066  0.6259209942294378
  0.4986407735930163  0.0000027458617681  0.1242259088228893
  0.4926091157784410  0.0062348501339839  0.6256435417268801
  0.4994155039968096  0.4979864641473128  0.1241741653650401
  0.9943109708621937  0.9952985879114018  0.3752694720810134
  0.9939867335517282  0.9920287794212795  0.8741889316936012
  0.9968677007598734  0.5038586974347624  0.3750553577317312
  0.9949936292305599  0.5042989137113500  0.8739576773131176
  0.5030898218280537  0.9975270800396115  0.3750465197099853
  0.5066318683350249  0.9956091270422657  0.8738198282380418
  0.5025199844666509  0.5056070776023474  0.8758482521002143
  0.2559211190102955  0.2570712892839739  0.3751145192293440
  0.2569852175036652  0.2552840525177631  0.8744871521261347
  0.2529345054456010  0.7475231537040233  0.3750712206114641
  0.2540001208157600  0.7439799009522041  0.8741231689545864
  0.7459749838475053  0.2525310102425672  0.3752451195126001
  0.7459663632532515  0.2542084006392050  0.8743475900189658
  0.7443884031944031  0.7405923105568355  0.3702788891786268
  0.7447689462193757  0.7467993887682961  0.8727183752913392
  0.2485640180730278  0.2485403808939387  0.1242114300540446
  0.2432570504437361  0.2431081113619476  0.6260141913379246
  0.2490614471344131  0.7511123523157671  0.1246726951917908
  0.2453347800425374  0.7563945073130444  0.6249959158404621
  0.7510265105523616  0.2492411475287777  0.1246286612917845
  0.7560297636386730  0.2457606539764418  0.6253635782774420
  0.7511752726335791  0.7508011586619302  0.1236302087583969
  0.6350478591616205  0.3883554918939534  0.7415382330138147
  0.6171800749937145  0.6365528404465175  0.7304268959369480
  0.5044292700690218  0.5038397012262960  0.3733211225376064
  0.6123239750738516  0.3626714776629654  0.5083202489343793
  0.3664944401878135  0.3888161075543705  0.5121753199187866
  0.8876282387724864  0.6346867772120502  0.5100897208413825
  0.6270785955577568  0.6098336322561433  0.5253057708209847
 
  0.00000000E+00  0.00000000E+00  0.00000000E+00
  0.00000000E+00  0.00000000E+00  0.00000000E+00
  0.00000000E+00  0.00000000E+00  0.00000000E+00
  0.00000000E+00  0.00000000E+00  0.00000000E+00
  0.00000000E+00  0.00000000E+00  0.00000000E+00
  0.00000000E+00  0.00000000E+00  0.00000000E+00
  0.00000000E+00  0.00000000E+00  0.00000000E+00
  0.00000000E+00  0.00000000E+00  0.00000000E+00
  0.00000000E+00  0.00000000E+00  0.00000000E+00
  0.00000000E+00  0.00000000E+00  0.00000000E+00
  0.00000000E+00  0.00000000E+00  0.00000000E+00
  0.00000000E+00  0.00000000E+00  0.00000000E+00
  0.00000000E+00  0.00000000E+00  0.00000000E+00
  0.00000000E+00  0.00000000E+00  0.00000000E+00
  0.00000000E+00  0.00000000E+00  0.00000000E+00
  0.00000000E+00  0.00000000E+00  0.00000000E+00
  0.00000000E+00  0.00000000E+00  0.00000000E+00
  0.00000000E+00  0.00000000E+00  0.00000000E+00
  0.00000000E+00  0.00000000E+00  0.00000000E+00
  0.00000000E+00  0.00000000E+00  0.00000000E+00
  0.00000000E+00  0.00000000E+00  0.00000000E+00
  0.00000000E+00  0.00000000E+00  0.00000000E+00
  0.00000000E+00  0.00000000E+00  0.00000000E+00
  0.00000000E+00  0.00000000E+00  0.00000000E+00
  0.00000000E+00  0.00000000E+00  0.00000000E+00
  0.00000000E+00  0.00000000E+00  0.00000000E+00
  0.00000000E+00  0.00000000E+00  0.00000000E+00
  0.00000000E+00  0.00000000E+00  0.00000000E+00
  0.00000000E+00  0.00000000E+00  0.00000000E+00
  0.00000000E+00  0.00000000E+00  0.00000000E+00
  0.00000000E+00  0.00000000E+00  0.00000000E+00
  0.00000000E+00  0.00000000E+00  0.00000000E+00
  0.00000000E+00  0.00000000E+00  0.00000000E+00
  0.00000000E+00  0.00000000E+00  0.00000000E+00
  0.00000000E+00  0.00000000E+00  0.00000000E+00
  0.00000000E+00  0.00000000E+00  0.00000000E+00
  0.00000000E+00  0.00000000E+00  0.00000000E+00
  0.00000000E+00  0.00000000E+00  0.00000000E+00
  0.00000000E+00  0.00000000E+00  0.00000000E+00
  0.00000000E+00  0.00000000E+00  0.00000000E+00
  0.00000000E+00  0.00000000E+00  0.00000000E+00
  0.00000000E+00  0.00000000E+00  0.00000000E+00
  0.00000000E+00  0.00000000E+00  0.00000000E+00
  0.00000000E+00  0.00000000E+00  0.00000000E+00
  0.00000000E+00  0.00000000E+00  0.00000000E+00
  0.00000000E+00  0.00000000E+00  0.00000000E+00
  0.00000000E+00  0.00000000E+00  0.00000000E+00
  0.00000000E+00  0.00000000E+00  0.00000000E+00
  0.00000000E+00  0.00000000E+00  0.00000000E+00
  0.00000000E+00  0.00000000E+00  0.00000000E+00
  0.00000000E+00  0.00000000E+00  0.00000000E+00
  0.00000000E+00  0.00000000E+00  0.00000000E+00
  0.00000000E+00  0.00000000E+00  0.00000000E+00
  0.00000000E+00  0.00000000E+00  0.00000000E+00
  0.00000000E+00  0.00000000E+00  0.00000000E+00
  0.00000000E+00  0.00000000E+00  0.00000000E+00
  0.00000000E+00  0.00000000E+00  0.00000000E+00
  0.00000000E+00  0.00000000E+00  0.00000000E+00
  0.00000000E+00  0.00000000E+00  0.00000000E+00
  0.00000000E+00  0.00000000E+00  0.00000000E+00
  0.00000000E+00  0.00000000E+00  0.00000000E+00
  0.00000000E+00  0.00000000E+00  0.00000000E+00
  0.00000000E+00  0.00000000E+00  0.00000000E+00
  0.00000000E+00  0.00000000E+00  0.00000000E+00
  0.00000000E+00  0.00000000E+00  0.00000000E+00
  0.00000000E+00  0.00000000E+00  0.00000000E+00
  0.00000000E+00  0.00000000E+00  0.00000000E+00
  0.00000000E+00  0.00000000E+00  0.00000000E+00
  0.00000000E+00  0.00000000E+00  0.00000000E+00
  0.00000000E+00  0.00000000E+00  0.00000000E+00
  0.00000000E+00  0.00000000E+00  0.00000000E+00
  0.00000000E+00  0.00000000E+00  0.00000000E+00
  0.00000000E+00  0.00000000E+00  0.00000000E+00
  0.00000000E+00  0.00000000E+00  0.00000000E+00
  0.00000000E+00  0.00000000E+00  0.00000000E+00
  0.00000000E+00  0.00000000E+00  0.00000000E+00
  0.00000000E+00  0.00000000E+00  0.00000000E+00
  0.00000000E+00  0.00000000E+00  0.00000000E+00
  0.00000000E+00  0.00000000E+00  0.00000000E+00
  0.00000000E+00  0.00000000E+00  0.00000000E+00
  0.00000000E+00  0.00000000E+00  0.00000000E+00
  0.00000000E+00  0.00000000E+00  0.00000000E+00
  0.00000000E+00  0.00000000E+00  0.00000000E+00
  0.00000000E+00  0.00000000E+00  0.00000000E+00
  0.00000000E+00  0.00000000E+00  0.00000000E+00
  0.00000000E+00  0.00000000E+00  0.00000000E+00
  0.00000000E+00  0.00000000E+00  0.00000000E+00
  0.00000000E+00  0.00000000E+00  0.00000000E+00
  0.00000000E+00  0.00000000E+00  0.00000000E+00
  0.00000000E+00  0.00000000E+00  0.00000000E+00
  0.00000000E+00  0.00000000E+00  0.00000000E+00
  0.00000000E+00  0.00000000E+00  0.00000000E+00
  0.00000000E+00  0.00000000E+00  0.00000000E+00
  0.00000000E+00  0.00000000E+00  0.00000000E+00
  0.00000000E+00  0.00000000E+00  0.00000000E+00
  0.00000000E+00  0.00000000E+00  0.00000000E+00
  0.00000000E+00  0.00000000E+00  0.00000000E+00
  0.00000000E+00  0.00000000E+00  0.00000000E+00
  0.00000000E+00  0.00000000E+00  0.00000000E+00
  0.00000000E+00  0.00000000E+00  0.00000000E+00
  0.00000000E+00  0.00000000E+00  0.00000000E+00
  0.00000000E+00  0.00000000E+00  0.00000000E+00
  0.00000000E+00  0.00000000E+00  0.00000000E+00
  0.00000000E+00  0.00000000E+00  0.00000000E+00
  0.00000000E+00  0.00000000E+00  0.00000000E+00
  0.00000000E+00  0.00000000E+00  0.00000000E+00
  0.00000000E+00  0.00000000E+00  0.00000000E+00
  0.00000000E+00  0.00000000E+00  0.00000000E+00
  0.00000000E+00  0.00000000E+00  0.00000000E+00
  0.00000000E+00  0.00000000E+00  0.00000000E+00
  0.00000000E+00  0.00000000E+00  0.00000000E+00
  0.00000000E+00  0.00000000E+00  0.00000000E+00
  0.00000000E+00  0.00000000E+00  0.00000000E+00
  0.00000000E+00  0.00000000E+00  0.00000000E+00
  0.00000000E+00  0.00000000E+00  0.00000000E+00
  0.00000000E+00  0.00000000E+00  0.00000000E+00
  0.00000000E+00  0.00000000E+00  0.00000000E+00
  0.00000000E+00  0.00000000E+00  0.00000000E+00
  0.00000000E+00  0.00000000E+00  0.00000000E+00
  0.00000000E+00  0.00000000E+00  0.00000000E+00
  0.00000000E+00  0.00000000E+00  0.00000000E+00
  0.00000000E+00  0.00000000E+00  0.00000000E+00
  0.00000000E+00  0.00000000E+00  0.00000000E+00
  0.00000000E+00  0.00000000E+00  0.00000000E+00
  0.00000000E+00  0.00000000E+00  0.00000000E+00
  0.00000000E+00  0.00000000E+00  0.00000000E+00
  0.00000000E+00  0.00000000E+00  0.00000000E+00
  0.00000000E+00  0.00000000E+00  0.00000000E+00
  0.00000000E+00  0.00000000E+00  0.00000000E+00
  0.00000000E+00  0.00000000E+00  0.00000000E+00
  0.00000000E+00  0.00000000E+00  0.00000000E+00
  0.00000000E+00  0.00000000E+00  0.00000000E+00
  0.00000000E+00  0.00000000E+00  0.00000000E+00
  0.00000000E+00  0.00000000E+00  0.00000000E+00
  0.00000000E+00  0.00000000E+00  0.00000000E+00
  0.00000000E+00  0.00000000E+00  0.00000000E+00
  0.00000000E+00  0.00000000E+00  0.00000000E+00
  0.00000000E+00  0.00000000E+00  0.00000000E+00
  0.00000000E+00  0.00000000E+00  0.00000000E+00
  0.00000000E+00  0.00000000E+00  0.00000000E+00
  0.00000000E+00  0.00000000E+00  0.00000000E+00
  0.00000000E+00  0.00000000E+00  0.00000000E+00
  0.00000000E+00  0.00000000E+00  0.00000000E+00
  0.00000000E+00  0.00000000E+00  0.00000000E+00
  0.00000000E+00  0.00000000E+00  0.00000000E+00
  0.00000000E+00  0.00000000E+00  0.00000000E+00
  0.00000000E+00  0.00000000E+00  0.00000000E+00
  0.00000000E+00  0.00000000E+00  0.00000000E+00
  0.00000000E+00  0.00000000E+00  0.00000000E+00
  0.00000000E+00  0.00000000E+00  0.00000000E+00
  0.00000000E+00  0.00000000E+00  0.00000000E+00
  0.00000000E+00  0.00000000E+00  0.00000000E+00
  0.00000000E+00  0.00000000E+00  0.00000000E+00
  0.00000000E+00  0.00000000E+00  0.00000000E+00
  0.00000000E+00  0.00000000E+00  0.00000000E+00
  0.00000000E+00  0.00000000E+00  0.00000000E+00
  0.00000000E+00  0.00000000E+00  0.00000000E+00
  0.00000000E+00  0.00000000E+00  0.00000000E+00
