Sr   Ti   Fe   O                        
   1.00000000000000     
    11.1989999999999998    0.0000000000000000    0.0000000000000000
     0.0000000000000000   11.1989999999999998    0.0000000000000000
     0.0000000000000000    0.0000000000000000   15.9830000000000005
   Sr   Ti   Fe   O 
    32    29     3    94
Direct
  0.0003808427818267  0.2495669916322451  0.1251315914087393
  0.0020159269630055  0.2485111127943355  0.6243603048725734
  0.9998743840581527  0.7503400253700145  0.1263770426428415
  0.0078859307600001  0.7502324172439672  0.6234784196219205
  0.4994368623998723  0.2505133237654473  0.1252342591403882
  0.5003008923180667  0.2452219145180873  0.6225715779179695
  0.4981839078250647  0.7511648559086355  0.1246087591926287
  0.4886946668316037  0.7516000910431716  0.6263406275533204
  0.0007766660730455  0.2491058738864567  0.3773412515541126
  0.0001160080491627  0.2503358030563338  0.8737142834150343
  0.9999987902701367  0.7493529413901018  0.3773328684405324
  0.0046306530115218  0.7506669870238426  0.8752853557035698
  0.5008059094113846  0.2462814683901624  0.3750103435411736
  0.4994242443203211  0.2514106950833750  0.8729783870298593
  0.4972472930619906  0.7503641174414385  0.3734163216927739
  0.4965944806523364  0.7499303839434154  0.8770490388432837
  0.2496860668472945  0.0009878083779667  0.1247384868962002
  0.2489833880792184  0.0015255043842359  0.6238478660322743
  0.2501773893047050  0.4998133818552414  0.1256333528075026
  0.2434133178264298  0.4988748880469046  0.6256300465078238
  0.7497613390031284  0.0001031151331020  0.1260162013768339
  0.7532709623654602  0.0090109188348171  0.6259099584307686
  0.7487517669772723  0.4992014099700501  0.1251855847919239
  0.7598130695147043  0.4875897656837139  0.6268976635334979
  0.2490700177505228  0.9998513170731255  0.3761755757795924
  0.2497770729106077  0.0008072194056872  0.8730001013050458
  0.2481221823341287  0.5009160630357256  0.3784739330742046
  0.2517087557363440  0.5005277274987154  0.8746769508758815
  0.7524098659878010  0.9994024648758829  0.3762231125065385
  0.7506747226968498  0.0050236683397978  0.8762336031499900
  0.7531940783342718  0.4947886160576727  0.3717714846709692
  0.7494948385592421  0.4963895428231263  0.8754243571561504
  0.9993415463817733  0.9996946583057560  0.9996839442050806
  0.9989751959064784  0.9997737157267468  0.5008467906482963
  0.9996637857520496  0.5004218408533039  1.0001340168845010
  0.9962470350562825  0.5010329225624177  0.5008899253482114
  0.5003502284077690  0.9999925848946604  0.9998124640924499
  0.5023810096945563  0.9953648781301572  0.5008022844495972
  0.4997367422754238  0.4997995205415210  0.0014447247568899
  0.2506026484427507  0.2509222056770417  0.9992242073403779
  0.2508737573101925  0.2494586406879420  0.5003240022859554
  0.2500122112490727  0.7497440454842934  0.0003293960220302
  0.2501903860660925  0.7499952894574334  0.4990439668823108
  0.7499019058246258  0.2503411654048758  0.0003420566847220
  0.7481860207042372  0.2491916164801466  0.4989420557842324
  0.7506208304763486  0.7507138048777316  0.0055808630159428
  0.2504588786340938  0.2506129960458252  0.2511852585745577
  0.2528851789851608  0.2522967289187552  0.7493975652738329
  0.2487848305563399  0.7500980870926780  0.2501161379752527
  0.2518213068063278  0.7485218775628646  0.7495746777134981
  0.7501563564690420  0.2486920352996341  0.2498190495892767
  0.7482288057795188  0.2515032028903666  0.7499779585467499
  0.7484195271216963  0.7479259456673463  0.2527299345082784
  0.7490307113486760  0.7497908112578187  0.7610358668822411
  0.9996026985210015  0.9991651313321689  0.2506300988781568
  0.0007679605270562  0.0008113107986385  0.7493200136350193
  0.9996780497954059  0.5001542521896498  0.2499288351149909
  0.0009726971968205  0.5002310679363471  0.7500233454366302
  0.5003327172969521  0.9990585800864524  0.2501177752720642
  0.5003123200823777 -0.0000550561771941  0.7492922175617904
  0.5006548510930305  0.5009784993815656  0.2507635800416901
  0.5024800878715346  0.5023771095395551  0.7575070160894366
  0.4950393902056875  0.4949444112763204  0.4951861806776829
  0.7520494988733010  0.7547730566184271  0.4969709950546261
  0.1096810914971292  0.1411564371664512  0.2516330437939813
  0.1127920125100990  0.1381828210161107  0.7568181556505367
  0.1076812539876097  0.6414678054264482  0.2494783141867376
  0.1130220125507770  0.6374503643818350  0.7502927671157074
  0.6088241317975245  0.1402169800790059  0.2486092547426450
  0.6128262766333219  0.1370260911000989  0.7504477782010022
  0.6072460150626104  0.6408311094698024  0.2411949752641372
  0.3920345022717153  0.3599869250721431  0.2517637121450889
  0.3895052627045951  0.3657387958617380  0.7379176783020951
  0.3905222072165920  0.8587184567202953  0.2496091506543627
  0.3871424408007855  0.8636246947359654  0.7522079994935352
  0.8909836474680891  0.3588157264089059  0.2513938981954628
  0.8872925344921573  0.3635348402321870  0.7502123515034638
  0.8904365987513719  0.8575402994501359  0.2524229806156097
  0.8833563207976951  0.8608921301538766  0.7360330651610513
  0.3595953631646270  0.1091775965414535  0.2511475368000750
  0.3634434917865014  0.1130071982865631  0.7522164890241889
  0.3578759414320519  0.6087965214984452  0.2516931323989791
  0.3658231825393951  0.6125315625094058  0.7407627529463143
  0.8588890715069630  0.1078552660200557  0.2482340566795935
  0.8622845532292522  0.1129904193419555  0.7516994254087178
  0.8584039298885133  0.6071668603677237  0.2461485706769592
  0.8612722164620761  0.6172845196227592  0.7403118058813287
  0.1407469235910146  0.3917001138256954  0.2516282970403304
  0.1384351234818157  0.3890137889518199  0.7536818075817115
  0.1403000785739438  0.8915926233599949  0.2477526530987094
  0.1369396227096941  0.8864403765658994  0.7515856121272024
  0.6416249660462666  0.3899299874272605  0.2489577090410258
  0.6411104672637324  0.8908922278899024  0.2498701110416968
  0.6405461622036792  0.8849137532298305  0.7386777171701745
  0.3586667273840510  0.3913478678385500  1.0009248601251386
  0.3592483875804309  0.8907115794846443  0.9985708764486299
  0.3597514273783457  0.8895360450217726  0.4996211257842932
  0.8588445465688769  0.3914081483031295 -0.0003565227662132
  0.8621001706673710  0.3852325943380684  0.4979568493574846
  0.8582597188950277  0.8920615300249246  1.0012677486601504
  0.8646883527211453  0.8929926170434276  0.5108206791088031
  0.1403462581500259  0.1099465953308058  0.9965906107154942
  0.1404259757495536  0.1129733680364951  0.4957316794603950
  0.1407273301892030  0.6090094406112712  0.9989523695881841
  0.1295199606753885  0.6166366529545080  0.5000930911341172
  0.6411721465655578  0.1091628993411256  0.0002448020453691
  0.6417222137330325  0.1051772196841767  0.4999792150020750
  0.6417271709995997  0.6097467597736025 -0.0004644282885125
  0.1088935911247964  0.3595387474259084  0.9976314623986460
  0.1121316667907688  0.3638505021089762  0.4976089473199714
  0.1096531630723289  0.8589429455026246  0.9990166226721471
  0.1110866563080949  0.8636958147472616  0.4992685783797840
  0.6091767746974686  0.3592867143119464  0.9998843271117241
  0.6091092457986915  0.8582972358468889  1.0001164894782122
  0.6064557404583084  0.8527538471365960  0.5084916904652487
  0.3913756204297310  0.1403742121993280  0.9986011722217188
  0.3902836775093788  0.1388823079821911  0.4987883837774839
  0.3909956491818237  0.6410225854839601  0.0010451875449241
  0.3786860222210575  0.6373213966561633  0.4941729788070775
  0.8907248771343400  0.1412235782318167  0.9979696139782971
  0.8906082166017666  0.1397363564417282  0.4998368224970533
  0.8912729447279378  0.6420469950938912  1.0007978838007634
  1.0003951460733234  1.0006812364560631  0.1241994036788925
  0.0098481906706444  0.0099054357119109  0.6264029652245088
  0.0017196300474398  0.4977530642765655  0.1244191616509628
  0.0067502417084430  0.4930625465038653  0.6260511218995919
  0.4989230626369983  0.9993224746484594  0.1244851194008700
  0.4949268389022159  0.0055474683471767  0.6255154081948824
  0.4979366941477692  0.4972027002940872  0.1245633907016492
  0.9968159602870220  0.9982543639215637  0.3745619048102911
  0.9939491645588029  0.9923828189602913  0.8742849293548020
  0.9949861931442828  0.5066034011775037  0.3755380725608030
  0.9940678592080417  0.5046416466467210  0.8740892517007246
  0.5031531847195800  0.9964933936296146  0.3753122973828682
  0.5062913263416263  0.9962545065717735  0.8740515725109120
  0.4977572190647995  0.4999623340294009  0.8767225302802861
  0.2545586506719819  0.2551651823105787  0.3753349086489602
  0.2577371010437810  0.2555902861892727  0.8745755935852696
  0.2446071990982294  0.7536583350008067  0.3733365617543393
  0.2531441666103114  0.7452994288590670  0.8744044993006471
  0.7507331828265867  0.2452340620344606  0.3734789203603556
  0.7477633921238835  0.2526201914281484  0.8747729616629079
  0.7393340650250885  0.7338180097809365  0.3714680388017341
  0.7554823213508858  0.7552654626078226  0.8761244354932453
  0.2497300422679578  0.2500122506944441  0.1249309440284255
  0.2416360858966145  0.2432377014595205  0.6259285209453941
  0.2496761295348748  0.7496463878926934  0.1244178999300714
  0.2471872285461408  0.7528392580643737  0.6246616658531542
  0.7514730255612717  0.2500421636112103  0.1243545860357264
  0.7511963573655357  0.2471606835871552  0.6248874820737729
  0.7519498910413311  0.7527187304103047  0.1246687367601992
  0.6366802054624272  0.3888610762026924  0.7455683591691753
  0.6154084767822147  0.6420868252947954  0.7508034250217034
  0.5139847399868778  0.5103060330213390  0.3744061110537158
  0.6110423874608344  0.3539714358390134  0.4969900302560376
  0.3614635133007790  0.3883405771165129  0.5117080217374839
  0.8743454778387820  0.6306660831067596  0.5142014003205047
  0.5794393147314180  0.5704621123219468  0.5781566154578396
 
  0.00000000E+00  0.00000000E+00  0.00000000E+00
  0.00000000E+00  0.00000000E+00  0.00000000E+00
  0.00000000E+00  0.00000000E+00  0.00000000E+00
  0.00000000E+00  0.00000000E+00  0.00000000E+00
  0.00000000E+00  0.00000000E+00  0.00000000E+00
  0.00000000E+00  0.00000000E+00  0.00000000E+00
  0.00000000E+00  0.00000000E+00  0.00000000E+00
  0.00000000E+00  0.00000000E+00  0.00000000E+00
  0.00000000E+00  0.00000000E+00  0.00000000E+00
  0.00000000E+00  0.00000000E+00  0.00000000E+00
  0.00000000E+00  0.00000000E+00  0.00000000E+00
  0.00000000E+00  0.00000000E+00  0.00000000E+00
  0.00000000E+00  0.00000000E+00  0.00000000E+00
  0.00000000E+00  0.00000000E+00  0.00000000E+00
  0.00000000E+00  0.00000000E+00  0.00000000E+00
  0.00000000E+00  0.00000000E+00  0.00000000E+00
  0.00000000E+00  0.00000000E+00  0.00000000E+00
  0.00000000E+00  0.00000000E+00  0.00000000E+00
  0.00000000E+00  0.00000000E+00  0.00000000E+00
  0.00000000E+00  0.00000000E+00  0.00000000E+00
  0.00000000E+00  0.00000000E+00  0.00000000E+00
  0.00000000E+00  0.00000000E+00  0.00000000E+00
  0.00000000E+00  0.00000000E+00  0.00000000E+00
  0.00000000E+00  0.00000000E+00  0.00000000E+00
  0.00000000E+00  0.00000000E+00  0.00000000E+00
  0.00000000E+00  0.00000000E+00  0.00000000E+00
  0.00000000E+00  0.00000000E+00  0.00000000E+00
  0.00000000E+00  0.00000000E+00  0.00000000E+00
  0.00000000E+00  0.00000000E+00  0.00000000E+00
  0.00000000E+00  0.00000000E+00  0.00000000E+00
  0.00000000E+00  0.00000000E+00  0.00000000E+00
  0.00000000E+00  0.00000000E+00  0.00000000E+00
  0.00000000E+00  0.00000000E+00  0.00000000E+00
  0.00000000E+00  0.00000000E+00  0.00000000E+00
  0.00000000E+00  0.00000000E+00  0.00000000E+00
  0.00000000E+00  0.00000000E+00  0.00000000E+00
  0.00000000E+00  0.00000000E+00  0.00000000E+00
  0.00000000E+00  0.00000000E+00  0.00000000E+00
  0.00000000E+00  0.00000000E+00  0.00000000E+00
  0.00000000E+00  0.00000000E+00  0.00000000E+00
  0.00000000E+00  0.00000000E+00  0.00000000E+00
  0.00000000E+00  0.00000000E+00  0.00000000E+00
  0.00000000E+00  0.00000000E+00  0.00000000E+00
  0.00000000E+00  0.00000000E+00  0.00000000E+00
  0.00000000E+00  0.00000000E+00  0.00000000E+00
  0.00000000E+00  0.00000000E+00  0.00000000E+00
  0.00000000E+00  0.00000000E+00  0.00000000E+00
  0.00000000E+00  0.00000000E+00  0.00000000E+00
  0.00000000E+00  0.00000000E+00  0.00000000E+00
  0.00000000E+00  0.00000000E+00  0.00000000E+00
  0.00000000E+00  0.00000000E+00  0.00000000E+00
  0.00000000E+00  0.00000000E+00  0.00000000E+00
  0.00000000E+00  0.00000000E+00  0.00000000E+00
  0.00000000E+00  0.00000000E+00  0.00000000E+00
  0.00000000E+00  0.00000000E+00  0.00000000E+00
  0.00000000E+00  0.00000000E+00  0.00000000E+00
  0.00000000E+00  0.00000000E+00  0.00000000E+00
  0.00000000E+00  0.00000000E+00  0.00000000E+00
  0.00000000E+00  0.00000000E+00  0.00000000E+00
  0.00000000E+00  0.00000000E+00  0.00000000E+00
  0.00000000E+00  0.00000000E+00  0.00000000E+00
  0.00000000E+00  0.00000000E+00  0.00000000E+00
  0.00000000E+00  0.00000000E+00  0.00000000E+00
  0.00000000E+00  0.00000000E+00  0.00000000E+00
  0.00000000E+00  0.00000000E+00  0.00000000E+00
  0.00000000E+00  0.00000000E+00  0.00000000E+00
  0.00000000E+00  0.00000000E+00  0.00000000E+00
  0.00000000E+00  0.00000000E+00  0.00000000E+00
  0.00000000E+00  0.00000000E+00  0.00000000E+00
  0.00000000E+00  0.00000000E+00  0.00000000E+00
  0.00000000E+00  0.00000000E+00  0.00000000E+00
  0.00000000E+00  0.00000000E+00  0.00000000E+00
  0.00000000E+00  0.00000000E+00  0.00000000E+00
  0.00000000E+00  0.00000000E+00  0.00000000E+00
  0.00000000E+00  0.00000000E+00  0.00000000E+00
  0.00000000E+00  0.00000000E+00  0.00000000E+00
  0.00000000E+00  0.00000000E+00  0.00000000E+00
  0.00000000E+00  0.00000000E+00  0.00000000E+00
  0.00000000E+00  0.00000000E+00  0.00000000E+00
  0.00000000E+00  0.00000000E+00  0.00000000E+00
  0.00000000E+00  0.00000000E+00  0.00000000E+00
  0.00000000E+00  0.00000000E+00  0.00000000E+00
  0.00000000E+00  0.00000000E+00  0.00000000E+00
  0.00000000E+00  0.00000000E+00  0.00000000E+00
  0.00000000E+00  0.00000000E+00  0.00000000E+00
  0.00000000E+00  0.00000000E+00  0.00000000E+00
  0.00000000E+00  0.00000000E+00  0.00000000E+00
  0.00000000E+00  0.00000000E+00  0.00000000E+00
  0.00000000E+00  0.00000000E+00  0.00000000E+00
  0.00000000E+00  0.00000000E+00  0.00000000E+00
  0.00000000E+00  0.00000000E+00  0.00000000E+00
  0.00000000E+00  0.00000000E+00  0.00000000E+00
  0.00000000E+00  0.00000000E+00  0.00000000E+00
  0.00000000E+00  0.00000000E+00  0.00000000E+00
  0.00000000E+00  0.00000000E+00  0.00000000E+00
  0.00000000E+00  0.00000000E+00  0.00000000E+00
  0.00000000E+00  0.00000000E+00  0.00000000E+00
  0.00000000E+00  0.00000000E+00  0.00000000E+00
  0.00000000E+00  0.00000000E+00  0.00000000E+00
  0.00000000E+00  0.00000000E+00  0.00000000E+00
  0.00000000E+00  0.00000000E+00  0.00000000E+00
  0.00000000E+00  0.00000000E+00  0.00000000E+00
  0.00000000E+00  0.00000000E+00  0.00000000E+00
  0.00000000E+00  0.00000000E+00  0.00000000E+00
  0.00000000E+00  0.00000000E+00  0.00000000E+00
  0.00000000E+00  0.00000000E+00  0.00000000E+00
  0.00000000E+00  0.00000000E+00  0.00000000E+00
  0.00000000E+00  0.00000000E+00  0.00000000E+00
  0.00000000E+00  0.00000000E+00  0.00000000E+00
  0.00000000E+00  0.00000000E+00  0.00000000E+00
  0.00000000E+00  0.00000000E+00  0.00000000E+00
  0.00000000E+00  0.00000000E+00  0.00000000E+00
  0.00000000E+00  0.00000000E+00  0.00000000E+00
  0.00000000E+00  0.00000000E+00  0.00000000E+00
  0.00000000E+00  0.00000000E+00  0.00000000E+00
  0.00000000E+00  0.00000000E+00  0.00000000E+00
  0.00000000E+00  0.00000000E+00  0.00000000E+00
  0.00000000E+00  0.00000000E+00  0.00000000E+00
  0.00000000E+00  0.00000000E+00  0.00000000E+00
  0.00000000E+00  0.00000000E+00  0.00000000E+00
  0.00000000E+00  0.00000000E+00  0.00000000E+00
  0.00000000E+00  0.00000000E+00  0.00000000E+00
  0.00000000E+00  0.00000000E+00  0.00000000E+00
  0.00000000E+00  0.00000000E+00  0.00000000E+00
  0.00000000E+00  0.00000000E+00  0.00000000E+00
  0.00000000E+00  0.00000000E+00  0.00000000E+00
  0.00000000E+00  0.00000000E+00  0.00000000E+00
  0.00000000E+00  0.00000000E+00  0.00000000E+00
  0.00000000E+00  0.00000000E+00  0.00000000E+00
  0.00000000E+00  0.00000000E+00  0.00000000E+00
  0.00000000E+00  0.00000000E+00  0.00000000E+00
  0.00000000E+00  0.00000000E+00  0.00000000E+00
  0.00000000E+00  0.00000000E+00  0.00000000E+00
  0.00000000E+00  0.00000000E+00  0.00000000E+00
  0.00000000E+00  0.00000000E+00  0.00000000E+00
  0.00000000E+00  0.00000000E+00  0.00000000E+00
  0.00000000E+00  0.00000000E+00  0.00000000E+00
  0.00000000E+00  0.00000000E+00  0.00000000E+00
  0.00000000E+00  0.00000000E+00  0.00000000E+00
  0.00000000E+00  0.00000000E+00  0.00000000E+00
  0.00000000E+00  0.00000000E+00  0.00000000E+00
  0.00000000E+00  0.00000000E+00  0.00000000E+00
  0.00000000E+00  0.00000000E+00  0.00000000E+00
  0.00000000E+00  0.00000000E+00  0.00000000E+00
  0.00000000E+00  0.00000000E+00  0.00000000E+00
  0.00000000E+00  0.00000000E+00  0.00000000E+00
  0.00000000E+00  0.00000000E+00  0.00000000E+00
  0.00000000E+00  0.00000000E+00  0.00000000E+00
  0.00000000E+00  0.00000000E+00  0.00000000E+00
  0.00000000E+00  0.00000000E+00  0.00000000E+00
  0.00000000E+00  0.00000000E+00  0.00000000E+00
  0.00000000E+00  0.00000000E+00  0.00000000E+00
  0.00000000E+00  0.00000000E+00  0.00000000E+00
  0.00000000E+00  0.00000000E+00  0.00000000E+00
  0.00000000E+00  0.00000000E+00  0.00000000E+00
  0.00000000E+00  0.00000000E+00  0.00000000E+00
  0.00000000E+00  0.00000000E+00  0.00000000E+00
  0.00000000E+00  0.00000000E+00  0.00000000E+00
