SrTiFeO                                 
   1.00000000000000     
    11.1989999999999998    0.0000000000000000    0.0000000000000000
     0.0000000000000000   11.1989999999999998    0.0000000000000000
     0.0000000000000000    0.0000000000000000   15.9830000000000005
   Sr   Ti   O 
    32    32    94
Direct
  0.9994493114919959  0.2506988721373452  0.1248448974661588
  0.0036055342776970  0.2502512065722031  0.6260116541398029
  0.9997710332215838  0.7501638407649481  0.1250313519870986
  0.0010258396509072  0.7495270047580114  0.6254557231800769
  0.4996263327578332  0.2482635213868025  0.1236888929322091
  0.4969008391375284  0.2444628966006972  0.6287443174272385
  0.5003117873657530  0.7518056249794292  0.1237040727750925
  0.4988139094295813  0.7507535432957104  0.6257590521853422
  0.0027553024911271  0.2485732129309285  0.3737145306335700
  0.9996898050796996  0.2503120570020967  0.8751878533482785
  0.0011467318557514  0.7509309898537243  0.3744055998540555
  0.9998625098001389  0.7502796099741423  0.8749845395630922
  0.4964267059468850  0.2382018458316392  0.3725843732349030
  0.5007139677349883  0.2496566878917490  0.8751837190055721
  0.4990487698518182  0.7574940701070073  0.3742954499654151
  0.4997669935832831  0.7500104914641473  0.8750006866044117
  0.2497638396593115  0.0001607990836147  0.1250017661331521
  0.2498035356164000  0.9984009815955075  0.6253099265781588
  0.2483226721939309  0.5007211368568489  0.1237759517582743
  0.2498140077271889  0.4993726619179201  0.6249519883897731
  0.7502295633011876  0.0006456299649553  0.1252871878186947
  0.7488506484194998  0.9977540390482182  0.6258045926609662
  0.7518820364100259  0.4999335732806996  0.1233688976738114
  0.7526030046267909  0.5009463800883152  0.6280425857730676
  0.2486830180069059  0.9988651162016676  0.3751148634480361
  0.2500722028242125  0.0000687530123390  0.8751555566665549
  0.2428400464762661  0.4987321984935669  0.3743854128495376
  0.2499442725312208  0.5002323227281356  0.8745096077511285
  0.7496157088082752  0.9978899157497477  0.3748861287658746
  0.7499320171743086  0.0004659787347546  0.8749700532955429
  0.7612882959795230  0.5012234623528031  0.3710747420086018
  0.7511295624198886  0.5008074154076296  0.8756390328149553
  0.9995930912216732  0.0003698954792161  0.0003540630474485
  0.0018102953681387  0.9969291731274289  0.5007115130329600
  0.0002531861655663  0.5000148461898951  0.9996647057048781
  0.9999222604915018  0.5006812440405269  0.5004130569518127
  0.4997522063668802  0.0000276636871357  0.9997589730680726
  0.4990579171949417  0.9991444008754301  0.5005719929490907
  0.4996237793699786  0.5003868605344636  0.9972571135708618
  0.2501746368379082  0.2502099833266759  0.9999485510239214
  0.2503018068044405  0.2483723806396522  0.4992080988064580
  0.2502276911565089  0.7498805990172838  0.9999618502625388
  0.2512895157926544  0.7486875424791061  0.4996436049317497
  0.7500927318123670  0.2500988124669060  0.9999116114018414
  0.7497241421120703  0.7500809767287450  0.9999590897289474
  0.2498416431290109  0.2496433645942250  0.2500049920282665
  0.2504789517033946  0.2503160670759281  0.7504633552055601
  0.2500100104493406  0.7497877105091727  0.2503491393797516
  0.2500859685811374  0.7491665443029898  0.7499931737857033
  0.7488721076808972  0.2505535113180368  0.2506656652918696
  0.7494074717497794  0.2507390801588087  0.7500829184501061
  0.7499956274394157  0.7500646455401273  0.2500991069945345
  0.7495151353557651  0.7493630614229302  0.7501321369894670
  0.9998282949048563  0.0000472947277150  0.2496811480863375
  0.9999034411617320  0.9999769392827427  0.7497058909195654
  0.0007958160447063  0.4999869976778201  0.2490306428439346
  0.0004940156731040  0.4998309313263522  0.7501444253850441
  0.4999721215219195  0.9992092303577301  0.2489562034404044
  0.4999680677988262  0.9989720458551087  0.7505734340146935
  0.5000511484681429  0.5000522266100234  0.2454476578469149
  0.5006102199131809  0.4991262602359467  0.7491208395847028
  0.7564311953370882  0.2461620275480873  0.5002158235901542
  0.5012164052682472  0.5010892232649226  0.4995882096073757
  0.7510276819908096  0.7489330207738392  0.4992649238715166
  0.1092947230119296  0.1403105869479142  0.2477503807479946
  0.1097910840604585  0.1410660518595232  0.7487577245763732
  0.1105868189682253  0.6394962293642598  0.2498898783064140
  0.1093355015695424  0.6405536976453470  0.7502139295634674
  0.6097314646768720  0.1401322466473058  0.2490132390507540
  0.6094404993691441  0.1403714772430514  0.7505355847839872
  0.6088077314372462  0.6386224309638687  0.2575370720139913
  0.6089076330418518  0.6408259029983628  0.7505093551094779
  0.3910895915226286  0.3617767894311392  0.2578247096735146
  0.3913646610485849  0.3584895674378510  0.7520748942891352
  0.3898063412307388  0.8600180776083460  0.2493110526317009
  0.3906488119511229  0.8589584150594624  0.7501599275748974
  0.8889972169663283  0.3607067663669468  0.2517811890570317
  0.8907577183365919  0.3591428719433991  0.7486169248725778
  0.8895818408524846  0.8609391443471046  0.2484963568859127
  0.8897353980956952  0.8598013494937170  0.7486008800730618
  0.3606027159048566  0.1105674150714715  0.2510911508624696
  0.3595868223314634  0.1095657611162440  0.7485693372955128
  0.3612813599559886  0.6089632367148748  0.2577580516141446
  0.3589164207626601  0.6087909039548693  0.7486907344732953
  0.8588623966991979  0.1113618982973700  0.2531695576376192
  0.8589217352305432  0.1104710048941265  0.7464061933940729
  0.8609143206918762  0.6110002143372404  0.2484025599557722
  0.8597913628132045  0.6096795820266213  0.7503922130483381
  0.1400517432453845  0.3897637941961429  0.2495178078709608
  0.1413065423248785  0.3909002216776347  0.7495950953713659
  0.1393079661560125  0.8904981823248126  0.2479255740541505
  0.1399539073533167  0.8907937825825460  0.7510482382529774
  0.6380905249641335  0.3923267494946481  0.2544392208974111
  0.6418887051154110  0.3910740104128125  0.7552656934109483
  0.6396843651383073  0.8897558691977904  0.2499665872300492
  0.6407830933118900  0.8903075410761394  0.7499855905420258
  0.3592599090843957  0.3911818424731109  0.9996436176601932
  0.3590040924807760  0.8906932947425210  0.0006339902562776
  0.3592584938040519  0.8909247133143593  0.4998977141370231
  0.8592043437806743  0.3906239839957459  0.0000259633508581
  0.8591012216223728  0.8906125493490196  0.0008794604649789
  0.8581802286465444  0.8923256245464640  0.5013829734521746
  0.1406050987118854  0.1095010973934528  0.0010130573785310
  0.1402552901677296  0.1094830109197982  0.5017858329979088
  0.1405680653028008  0.6093206200602553  0.9998598733001637
  0.1412626105715580  0.6088637801960761  0.5001976560453427
  0.6405553896729661  0.1097570644221161  0.0007491035379696
  0.6357218971992858  0.1172728017922340  0.5001574963616681
  0.6405293766439140  0.6090585563506062  0.9998397526954027
  0.1096102255528035  0.3591754242414962  0.0006186736400506
  0.1117125819825530  0.3608684336996792  0.4996148364449048
  0.1091562964911129  0.8597464637903367  0.0009438497106194
  0.1083377345404512  0.8593686111131613  0.5009712148401194
  0.6090870334341602  0.3596924964322958  0.9997751339148809
  0.6091457713159426  0.8594300508567614  0.9997077844405559
  0.6100426188469971  0.8591969314505749  0.4998763897397513
  0.3906346115187596  0.1408711630009458  0.9998247854466505
  0.3884947108313350  0.1375732707102951  0.5003037512625816
  0.3910010982838236  0.6412204319725483  0.0001184549793399
  0.8904420434135966  0.1411040480460055  0.0012495523699677
  0.8925748669653754  0.1418282762004556  0.5010119717367338
  0.8904610397708423  0.6406132493666483  0.0006105785195651
  0.9975426227495939  0.0017061760054776  0.1251144340124275
  0.0008495081476314  0.9996614171062399  0.6250874482271236
  0.9999953959010817  0.4989989685307175  0.1249110923068733
  0.0004763286632197  0.5000293829650373  0.6247865415535632
  0.4993765844106883  0.0001125968027120  0.1248650961292335
  0.5011274335727820  0.9989071672022432  0.6250588188430125
  0.4982030674583320  0.5014814416343012  0.1248553615248660
  0.5045096026382921  0.4931164801355278  0.6268878185216987
  0.0010007639230697  0.9999132819311417  0.3752780022297061
  0.9978924348950322  0.0017764291691480  0.8749289828828912
  0.0004465879776469  0.5002640590535755  0.3749811392569135
  0.9998819471278848  0.4990225516883993  0.8749441269003120
  0.5010159562070275  0.9995023292877713  0.3749690082060937
  0.4993159913756413  0.0001247274827210  0.8750324036544131
  0.4981255608792697  0.5020497363935760  0.8754235013653521
  0.2440480802554233  0.2447327358440263  0.3745443098034122
  0.2491474910517966  0.2490204802893796  0.8750687342469017
  0.2453155341494867  0.7551977093392399  0.3745262512562251
  0.2500727464391055  0.7497964409184024  0.8753161397671885
  0.7522836163916665  0.2476674587496564  0.8752622271053533
  0.7507599347456916  0.7502877117786666  0.8750537485780927
  0.2543598117322541  0.2522452722768743  0.1257270372034471
  0.2536861214332747  0.2557025748374460  0.6239401125230448
  0.2520973741371333  0.7464328061027776  0.1256756223470709
  0.2499178214092194  0.7506060144391145  0.6251478894843053
  0.7488713162172148  0.2528721041485180  0.1262121405680069
  0.7397953298225494  0.2583679309431033  0.6234495930802569
  0.7460912354590670  0.7478985529910339  0.1255717000995615
  0.7467629544399210  0.7459036137394770  0.6239494237268925
  0.7426164188757869  0.2550359698208208  0.3773258125533274
  0.8552590092133086  0.3933805632836391  0.5003217804288682
  0.3894865348828744  0.6437963254626352  0.4961533953235575
  0.3715730855457060  0.3829226836713464  0.4882291669087102
  0.8930867513489036  0.6428004929293049  0.4997935540565492
  0.7548334083831711  0.7543832005564928  0.3747509616085966
  0.6451295786464973  0.6024326480772265  0.4911075294255872
 
  0.00000000E+00  0.00000000E+00  0.00000000E+00
  0.00000000E+00  0.00000000E+00  0.00000000E+00
  0.00000000E+00  0.00000000E+00  0.00000000E+00
  0.00000000E+00  0.00000000E+00  0.00000000E+00
  0.00000000E+00  0.00000000E+00  0.00000000E+00
  0.00000000E+00  0.00000000E+00  0.00000000E+00
  0.00000000E+00  0.00000000E+00  0.00000000E+00
  0.00000000E+00  0.00000000E+00  0.00000000E+00
  0.00000000E+00  0.00000000E+00  0.00000000E+00
  0.00000000E+00  0.00000000E+00  0.00000000E+00
  0.00000000E+00  0.00000000E+00  0.00000000E+00
  0.00000000E+00  0.00000000E+00  0.00000000E+00
  0.00000000E+00  0.00000000E+00  0.00000000E+00
  0.00000000E+00  0.00000000E+00  0.00000000E+00
  0.00000000E+00  0.00000000E+00  0.00000000E+00
  0.00000000E+00  0.00000000E+00  0.00000000E+00
  0.00000000E+00  0.00000000E+00  0.00000000E+00
  0.00000000E+00  0.00000000E+00  0.00000000E+00
  0.00000000E+00  0.00000000E+00  0.00000000E+00
  0.00000000E+00  0.00000000E+00  0.00000000E+00
  0.00000000E+00  0.00000000E+00  0.00000000E+00
  0.00000000E+00  0.00000000E+00  0.00000000E+00
  0.00000000E+00  0.00000000E+00  0.00000000E+00
  0.00000000E+00  0.00000000E+00  0.00000000E+00
  0.00000000E+00  0.00000000E+00  0.00000000E+00
  0.00000000E+00  0.00000000E+00  0.00000000E+00
  0.00000000E+00  0.00000000E+00  0.00000000E+00
  0.00000000E+00  0.00000000E+00  0.00000000E+00
  0.00000000E+00  0.00000000E+00  0.00000000E+00
  0.00000000E+00  0.00000000E+00  0.00000000E+00
  0.00000000E+00  0.00000000E+00  0.00000000E+00
  0.00000000E+00  0.00000000E+00  0.00000000E+00
  0.00000000E+00  0.00000000E+00  0.00000000E+00
  0.00000000E+00  0.00000000E+00  0.00000000E+00
  0.00000000E+00  0.00000000E+00  0.00000000E+00
  0.00000000E+00  0.00000000E+00  0.00000000E+00
  0.00000000E+00  0.00000000E+00  0.00000000E+00
  0.00000000E+00  0.00000000E+00  0.00000000E+00
  0.00000000E+00  0.00000000E+00  0.00000000E+00
  0.00000000E+00  0.00000000E+00  0.00000000E+00
  0.00000000E+00  0.00000000E+00  0.00000000E+00
  0.00000000E+00  0.00000000E+00  0.00000000E+00
  0.00000000E+00  0.00000000E+00  0.00000000E+00
  0.00000000E+00  0.00000000E+00  0.00000000E+00
  0.00000000E+00  0.00000000E+00  0.00000000E+00
  0.00000000E+00  0.00000000E+00  0.00000000E+00
  0.00000000E+00  0.00000000E+00  0.00000000E+00
  0.00000000E+00  0.00000000E+00  0.00000000E+00
  0.00000000E+00  0.00000000E+00  0.00000000E+00
  0.00000000E+00  0.00000000E+00  0.00000000E+00
  0.00000000E+00  0.00000000E+00  0.00000000E+00
  0.00000000E+00  0.00000000E+00  0.00000000E+00
  0.00000000E+00  0.00000000E+00  0.00000000E+00
  0.00000000E+00  0.00000000E+00  0.00000000E+00
  0.00000000E+00  0.00000000E+00  0.00000000E+00
  0.00000000E+00  0.00000000E+00  0.00000000E+00
  0.00000000E+00  0.00000000E+00  0.00000000E+00
  0.00000000E+00  0.00000000E+00  0.00000000E+00
  0.00000000E+00  0.00000000E+00  0.00000000E+00
  0.00000000E+00  0.00000000E+00  0.00000000E+00
  0.00000000E+00  0.00000000E+00  0.00000000E+00
  0.00000000E+00  0.00000000E+00  0.00000000E+00
  0.00000000E+00  0.00000000E+00  0.00000000E+00
  0.00000000E+00  0.00000000E+00  0.00000000E+00
  0.00000000E+00  0.00000000E+00  0.00000000E+00
  0.00000000E+00  0.00000000E+00  0.00000000E+00
  0.00000000E+00  0.00000000E+00  0.00000000E+00
  0.00000000E+00  0.00000000E+00  0.00000000E+00
  0.00000000E+00  0.00000000E+00  0.00000000E+00
  0.00000000E+00  0.00000000E+00  0.00000000E+00
  0.00000000E+00  0.00000000E+00  0.00000000E+00
  0.00000000E+00  0.00000000E+00  0.00000000E+00
  0.00000000E+00  0.00000000E+00  0.00000000E+00
  0.00000000E+00  0.00000000E+00  0.00000000E+00
  0.00000000E+00  0.00000000E+00  0.00000000E+00
  0.00000000E+00  0.00000000E+00  0.00000000E+00
  0.00000000E+00  0.00000000E+00  0.00000000E+00
  0.00000000E+00  0.00000000E+00  0.00000000E+00
  0.00000000E+00  0.00000000E+00  0.00000000E+00
  0.00000000E+00  0.00000000E+00  0.00000000E+00
  0.00000000E+00  0.00000000E+00  0.00000000E+00
  0.00000000E+00  0.00000000E+00  0.00000000E+00
  0.00000000E+00  0.00000000E+00  0.00000000E+00
  0.00000000E+00  0.00000000E+00  0.00000000E+00
  0.00000000E+00  0.00000000E+00  0.00000000E+00
  0.00000000E+00  0.00000000E+00  0.00000000E+00
  0.00000000E+00  0.00000000E+00  0.00000000E+00
  0.00000000E+00  0.00000000E+00  0.00000000E+00
  0.00000000E+00  0.00000000E+00  0.00000000E+00
  0.00000000E+00  0.00000000E+00  0.00000000E+00
  0.00000000E+00  0.00000000E+00  0.00000000E+00
  0.00000000E+00  0.00000000E+00  0.00000000E+00
  0.00000000E+00  0.00000000E+00  0.00000000E+00
  0.00000000E+00  0.00000000E+00  0.00000000E+00
  0.00000000E+00  0.00000000E+00  0.00000000E+00
  0.00000000E+00  0.00000000E+00  0.00000000E+00
  0.00000000E+00  0.00000000E+00  0.00000000E+00
  0.00000000E+00  0.00000000E+00  0.00000000E+00
  0.00000000E+00  0.00000000E+00  0.00000000E+00
  0.00000000E+00  0.00000000E+00  0.00000000E+00
  0.00000000E+00  0.00000000E+00  0.00000000E+00
  0.00000000E+00  0.00000000E+00  0.00000000E+00
  0.00000000E+00  0.00000000E+00  0.00000000E+00
  0.00000000E+00  0.00000000E+00  0.00000000E+00
  0.00000000E+00  0.00000000E+00  0.00000000E+00
  0.00000000E+00  0.00000000E+00  0.00000000E+00
  0.00000000E+00  0.00000000E+00  0.00000000E+00
  0.00000000E+00  0.00000000E+00  0.00000000E+00
  0.00000000E+00  0.00000000E+00  0.00000000E+00
  0.00000000E+00  0.00000000E+00  0.00000000E+00
  0.00000000E+00  0.00000000E+00  0.00000000E+00
  0.00000000E+00  0.00000000E+00  0.00000000E+00
  0.00000000E+00  0.00000000E+00  0.00000000E+00
  0.00000000E+00  0.00000000E+00  0.00000000E+00
  0.00000000E+00  0.00000000E+00  0.00000000E+00
  0.00000000E+00  0.00000000E+00  0.00000000E+00
  0.00000000E+00  0.00000000E+00  0.00000000E+00
  0.00000000E+00  0.00000000E+00  0.00000000E+00
  0.00000000E+00  0.00000000E+00  0.00000000E+00
  0.00000000E+00  0.00000000E+00  0.00000000E+00
  0.00000000E+00  0.00000000E+00  0.00000000E+00
  0.00000000E+00  0.00000000E+00  0.00000000E+00
  0.00000000E+00  0.00000000E+00  0.00000000E+00
  0.00000000E+00  0.00000000E+00  0.00000000E+00
  0.00000000E+00  0.00000000E+00  0.00000000E+00
  0.00000000E+00  0.00000000E+00  0.00000000E+00
  0.00000000E+00  0.00000000E+00  0.00000000E+00
  0.00000000E+00  0.00000000E+00  0.00000000E+00
  0.00000000E+00  0.00000000E+00  0.00000000E+00
  0.00000000E+00  0.00000000E+00  0.00000000E+00
  0.00000000E+00  0.00000000E+00  0.00000000E+00
  0.00000000E+00  0.00000000E+00  0.00000000E+00
  0.00000000E+00  0.00000000E+00  0.00000000E+00
  0.00000000E+00  0.00000000E+00  0.00000000E+00
  0.00000000E+00  0.00000000E+00  0.00000000E+00
  0.00000000E+00  0.00000000E+00  0.00000000E+00
  0.00000000E+00  0.00000000E+00  0.00000000E+00
  0.00000000E+00  0.00000000E+00  0.00000000E+00
  0.00000000E+00  0.00000000E+00  0.00000000E+00
  0.00000000E+00  0.00000000E+00  0.00000000E+00
  0.00000000E+00  0.00000000E+00  0.00000000E+00
  0.00000000E+00  0.00000000E+00  0.00000000E+00
  0.00000000E+00  0.00000000E+00  0.00000000E+00
  0.00000000E+00  0.00000000E+00  0.00000000E+00
  0.00000000E+00  0.00000000E+00  0.00000000E+00
  0.00000000E+00  0.00000000E+00  0.00000000E+00
  0.00000000E+00  0.00000000E+00  0.00000000E+00
  0.00000000E+00  0.00000000E+00  0.00000000E+00
  0.00000000E+00  0.00000000E+00  0.00000000E+00
  0.00000000E+00  0.00000000E+00  0.00000000E+00
  0.00000000E+00  0.00000000E+00  0.00000000E+00
  0.00000000E+00  0.00000000E+00  0.00000000E+00
  0.00000000E+00  0.00000000E+00  0.00000000E+00
  0.00000000E+00  0.00000000E+00  0.00000000E+00
  0.00000000E+00  0.00000000E+00  0.00000000E+00
  0.00000000E+00  0.00000000E+00  0.00000000E+00
  0.00000000E+00  0.00000000E+00  0.00000000E+00
  0.00000000E+00  0.00000000E+00  0.00000000E+00
