Sr   Ti   O                             
   1.00000000000000     
    11.1989999999999998    0.0000000000000000    0.0000000000000000
     0.0000000000000000   11.1989999999999998    0.0000000000000000
     0.0000000000000000    0.0000000000000000   15.9830000000000005
   Sr   Ti   O 
    32    32    94
Direct
  0.9994284905394232  0.2491123811199811  0.1241532288285454
  0.0057599985274599  0.2508765462509521  0.6263774242248445
  0.9988864850190849  0.7515640636969335  0.1254537965484617
  0.0033743185959753  0.7488408269407401  0.6278782962268042
  0.4990919583511715  0.2486424868958708  0.1235816824584612
  0.4946433089533895  0.2411663535190411  0.6323257256408381
  0.4994960144588680  0.7513002161418417  0.1227549700706807
  0.4978541590362801  0.7587324009907097  0.6306224644932902
  0.0046573504294264  0.2494159620384183  0.3723756495128183
  0.9999705882611546  0.2489072330928472  0.8749638430836516
  0.0041964802922130  0.7496583034670280  0.3720962160273378
  0.9990369142401563  0.7517238542607714  0.8752757957690036
  0.4968345037998880  0.2383874433091802  0.3711989763376407
  0.4994135108314146  0.2492432466008638  0.8771034029538819
  0.5000392941785730  0.7627365482254820  0.3684802540815831
  0.4984536981076985  0.7502708076163241  0.8763801512954772
  0.2484080650768330  0.9994486764977617  0.1249334060614500
  0.2504276557065646  0.9988144471332786  0.6272581728435958
  0.2481095270840206  0.5003772475861979  0.1231360810746344
  0.2413249303138503  0.5008680928128585  0.6331812638258688
  0.7506520359726367  0.0004685957749246  0.1248949091304306
  0.7481504612510965  0.0024975895386871  0.6280008776082360
  0.7509489854869137  0.5001903350926714  0.1228451333832895
  0.7571986517550822  0.4968787471384027  0.6270600030375429
  0.2496350920842584  0.9994074438401471  0.3727625567226664
  0.2479051485234565  0.9997316757862423  0.8754615931984455
  0.2412406638425189  0.4985405179465362  0.3710274652421139
  0.2482954711342479  0.4996074722718609  0.8768660858700928
  0.7493784462909830  0.0022378751713634  0.3718166268411196
  0.7507925164114004  0.0004185980201132  0.8749852352168253
  0.7669381186006153  0.4977123799280571  0.3674369304161051
  0.7496315031770896  0.5006613834585379  0.8763374536541325
  0.9988507075333133  0.9998522917639674  0.0002146041274470
  0.0079254190748974  0.9982571192661182  0.5005312710713892
  0.9994636394718771  0.5000414824046638  0.9997417179823930
  0.0034673915970577  0.5003974743787862  0.5002110986546229
  0.4997983165243923  0.0000375908323911  0.9998927987734085
  0.4989249393558258  0.9998384142183373  0.5003320797969638
  0.4993257191465605  0.4999909672039483  0.9992221410535914
  0.2495809736855866  0.2495828283295083  0.0001082365774924
  0.2506242830092284  0.2470507330909043  0.4992493414315523
  0.2492053843240523  0.7501794772773541  0.0002201129117230
  0.2506928727391234  0.7513123508040498  0.4995907287952327
  0.7499557196303297  0.2501960021466482  1.0000530011326700
  0.7494781759839791  0.7504855445249511  0.0000242180795542
  0.2494721976148989  0.2492722228165452  0.2498961760848495
  0.2497893600156975  0.2499856638036065  0.7508812840344375
  0.2499938924039238  0.7500323006178884  0.2499510129127815
  0.2496320910021617  0.7497157175145203  0.7512220987920269
  0.7489680549182743  0.2513036619747039  0.2499835968072296
  0.7487521384146872  0.2518253206205624  0.7503377798304995
  0.7488612724344352  0.7488975528844521  0.2498646745210358
  0.7481896031448096  0.7482056200284214  0.7502438591828731
  0.9991652685185046  0.0000058983846595  0.2503644769519505
  0.9993083487614486  0.0000291888269811  0.7482235412760878
  0.0012092172585814  0.5001328542014473  0.2475579547554092
  0.9986438111167125  0.4999748757777433  0.7514472859499832
  0.5001339447432585  0.0003571526633948  0.2478916424221098
  0.4999695968848596  0.9997317541463443  0.7519838120266504
  0.4991878370100849  0.4998630806142734  0.2453010442700780
  0.4985324053070453  0.4999566186273120  0.7545536036265539
  0.7631143287249363  0.2444790391565356  0.4996712117953693
  0.4838516789638100  0.5039281259854844  0.5096125790224160
  0.7591199971178978  0.7610078138053198  0.4997146940710993
  0.1105375007203851  0.1386789663379587  0.2461812365053885
  0.1107888594913570  0.1387862270484552  0.7482740779346697
  0.1121734467241734  0.6378663161863835  0.2489992059535442
  0.1101218560828922  0.6384297548989866  0.7495983128129742
  0.6111836910874537  0.1390846543494173  0.2493789210507312
  0.6102350010164949  0.1399067667238697  0.7500614317208240
  0.6096153847962265  0.6380128665024558  0.2541542139802066
  0.6070217325711682  0.6402398950656740  0.7509739373635843
  0.3902721768408059  0.3632246769206217  0.2591019745095845
  0.3906319648455653  0.3598403431250115  0.7541650422614818
  0.3881653443636056  0.8625798873406960  0.2483699929001055
  0.3887695641237648  0.8613634076278101  0.7517028920398504
  0.8886857525700956  0.3619680506196964  0.2526073603351250
  0.8891192877098617  0.3602291061184603  0.7468246641649977
  0.8859390245210469  0.8609366910710465  0.2547664234784442
  0.8856130934884534  0.8592148951958235  0.7450225609903299
  0.3625662526487865  0.1119715094394264  0.2501346044882797
  0.3613114793763002  0.1107118949955668  0.7481377988552252
  0.3628561317728243  0.6097710214090005  0.2572640467358365
  0.3590344946175992  0.6089496383434513  0.7542115688791083
  0.8593939886402668  0.1131030831413711  0.2536394428897143
  0.8583381205362395  0.1128750308474005  0.7452089231283002
  0.8631095416771563  0.6128542402048115  0.2470051509842145
  0.8595666140739614  0.6102419457926995  0.7496888674732710
  0.1388195664768245  0.3885978569350413  0.2493178902307357
  0.1382146291831190  0.3889119424229074  0.7518560013728797
  0.1374995192364966  0.8879372090780999  0.2482413358810388
  0.1377719184377434  0.8878245041307377  0.7489736363989481
  0.6374069432256558  0.3906914206965364  0.2550322142915055
  0.6393447566314733  0.3920768285960338  0.7505226149210759
  0.6383273638184400  0.8886720288821977  0.2522783303028086
  0.6389413313652985  0.8890356900892138  0.7481223642710803
  0.3594711274835281  0.3908551593766741  0.9989982851691852
  0.3593283599320094  0.8907179606362111  0.0003530954801418
  0.3580372179487590  0.8932349111453478  0.5000926272507449
  0.8587352954375381  0.3910488835655946  0.9999246574323737
  0.8578884132650755  0.8902828291707335  0.9994908865070582
  0.8567715139914901  0.8941186669478819  0.5005665767819427
  0.1395566968151846  0.1093403381199907  0.0021457398556880
  0.1421159789311384  0.1082968699789899  0.5031789422316340
  0.1398370905957722  0.6090729064501341  0.0000298571963317
  0.1470658052747674  0.6071040443791736  0.5009909828068603
  0.6406314243650139  0.1097949900147547  0.0001540364337663
  0.6355932148232236  0.1198503721811889  0.4997126852642842
  0.6405234131053946  0.6094712216842225  0.0005364343558141
  0.1092343604187883  0.3594307242978966  0.9997447605946359
  0.1175006263500744  0.3628989395087487  0.4989857224575052
  0.1088610815503955  0.8597549408549798  0.0012511082731987
  0.1077049956232344  0.8553642073984953  0.5017933949006931
  0.6091741291022275  0.3592746137588277  0.0002893936243826
  0.6087305373785478  0.8592810072666758  0.9993383588534759
  0.6086264473530918  0.8554015524054458  0.4996832906613040
  0.3906848144756918  0.1402606918085850  0.0004321699333105
  0.3900439725510247  0.1380038265021783  0.5010645406388551
  0.3906297961670355  0.6402590977748448  0.9993136255327101
  0.8897139103082516  0.1414965248993625  0.0001672421980700
  0.8913014819547437  0.1391955073331193  0.5012108620353689
  0.8900832577833495  0.6408831578936478  0.0008368064818791
  0.9935343101384160  0.9984091445326511  0.1253008311811212
  1.0000354807703662  0.9987832808344337  0.6245374696487781
  0.9998526800934238  0.4979864707129182  0.1245334403413241
  0.0022878177634504  0.5005736543485954  0.6249733563925597
  0.5014504308788984  0.9997252032533728  0.1247584812338445
  0.5013505869160025  0.9991521328966843  0.6250799919761817
  0.4991488415426349  0.4997888989087449  0.1239408389309708
  0.4882779945493584  0.4990881412801907  0.6265328803131814
  0.0032664902420705  0.0009030535705704  0.3756072160106024
  0.9969582005512820  0.9999995920786765  0.8742625114697318
  0.0031258749762852  0.5028346620552313  0.3746925251364803
  0.9976716734145856  0.4998717309131650  0.8748924984359763
  0.5004988466849030  0.0006393613041988  0.3750048208384040
  0.5005422920646818  0.0007964597058057  0.8750444556593329
  0.5019039232047783  0.5001374557237036  0.8762393756173327
  0.2441146633532869  0.2430254409704567  0.3739038365427173
  0.2487032488049754  0.2466720269147753  0.8757132725342746
  0.2472017260752700  0.7528365275930361  0.3746571693633910
  0.2477992562410921  0.7512282541637113  0.8757895926572465
  0.7508811385537575  0.2505856658533182  0.8740438166042870
  0.7499166506376055  0.7499889132004454  0.8740701189268191
  0.2550546618754439  0.2535926236110445  0.1254634323942256
  0.2547024597548543  0.2577643212167210  0.6248581638529537
  0.2527756760143072  0.7463509181849395  0.1252281078493953
  0.2561861373868146  0.7460201089702002  0.6252772101814228
  0.7495964445420276  0.2528026623004600  0.1260104057435139
  0.7365716383610117  0.2607167929524506  0.6208404737275430
  0.7472385693802321  0.7511350466561705  0.1257339994311194
  0.7379047061811251  0.7361775587508269  0.6204152766936502
  0.7423614951464470  0.2553998849703956  0.3784347360834223
  0.8703402736134714  0.3838187076727825  0.5000883001506246
  0.4077614035452138  0.6505470315705014  0.4909561359243721
  0.3789734582098431  0.3801298572116886  0.4836162900744239
  0.8884634521567373  0.6391513679301667  0.5003381432131294
  0.7435340065461286  0.7401177029649412  0.3788472307715107
  0.6420022641709104  0.4822646419726021  0.4880911216358993
 
  0.00000000E+00  0.00000000E+00  0.00000000E+00
  0.00000000E+00  0.00000000E+00  0.00000000E+00
  0.00000000E+00  0.00000000E+00  0.00000000E+00
  0.00000000E+00  0.00000000E+00  0.00000000E+00
  0.00000000E+00  0.00000000E+00  0.00000000E+00
  0.00000000E+00  0.00000000E+00  0.00000000E+00
  0.00000000E+00  0.00000000E+00  0.00000000E+00
  0.00000000E+00  0.00000000E+00  0.00000000E+00
  0.00000000E+00  0.00000000E+00  0.00000000E+00
  0.00000000E+00  0.00000000E+00  0.00000000E+00
  0.00000000E+00  0.00000000E+00  0.00000000E+00
  0.00000000E+00  0.00000000E+00  0.00000000E+00
  0.00000000E+00  0.00000000E+00  0.00000000E+00
  0.00000000E+00  0.00000000E+00  0.00000000E+00
  0.00000000E+00  0.00000000E+00  0.00000000E+00
  0.00000000E+00  0.00000000E+00  0.00000000E+00
  0.00000000E+00  0.00000000E+00  0.00000000E+00
  0.00000000E+00  0.00000000E+00  0.00000000E+00
  0.00000000E+00  0.00000000E+00  0.00000000E+00
  0.00000000E+00  0.00000000E+00  0.00000000E+00
  0.00000000E+00  0.00000000E+00  0.00000000E+00
  0.00000000E+00  0.00000000E+00  0.00000000E+00
  0.00000000E+00  0.00000000E+00  0.00000000E+00
  0.00000000E+00  0.00000000E+00  0.00000000E+00
  0.00000000E+00  0.00000000E+00  0.00000000E+00
  0.00000000E+00  0.00000000E+00  0.00000000E+00
  0.00000000E+00  0.00000000E+00  0.00000000E+00
  0.00000000E+00  0.00000000E+00  0.00000000E+00
  0.00000000E+00  0.00000000E+00  0.00000000E+00
  0.00000000E+00  0.00000000E+00  0.00000000E+00
  0.00000000E+00  0.00000000E+00  0.00000000E+00
  0.00000000E+00  0.00000000E+00  0.00000000E+00
  0.00000000E+00  0.00000000E+00  0.00000000E+00
  0.00000000E+00  0.00000000E+00  0.00000000E+00
  0.00000000E+00  0.00000000E+00  0.00000000E+00
  0.00000000E+00  0.00000000E+00  0.00000000E+00
  0.00000000E+00  0.00000000E+00  0.00000000E+00
  0.00000000E+00  0.00000000E+00  0.00000000E+00
  0.00000000E+00  0.00000000E+00  0.00000000E+00
  0.00000000E+00  0.00000000E+00  0.00000000E+00
  0.00000000E+00  0.00000000E+00  0.00000000E+00
  0.00000000E+00  0.00000000E+00  0.00000000E+00
  0.00000000E+00  0.00000000E+00  0.00000000E+00
  0.00000000E+00  0.00000000E+00  0.00000000E+00
  0.00000000E+00  0.00000000E+00  0.00000000E+00
  0.00000000E+00  0.00000000E+00  0.00000000E+00
  0.00000000E+00  0.00000000E+00  0.00000000E+00
  0.00000000E+00  0.00000000E+00  0.00000000E+00
  0.00000000E+00  0.00000000E+00  0.00000000E+00
  0.00000000E+00  0.00000000E+00  0.00000000E+00
  0.00000000E+00  0.00000000E+00  0.00000000E+00
  0.00000000E+00  0.00000000E+00  0.00000000E+00
  0.00000000E+00  0.00000000E+00  0.00000000E+00
  0.00000000E+00  0.00000000E+00  0.00000000E+00
  0.00000000E+00  0.00000000E+00  0.00000000E+00
  0.00000000E+00  0.00000000E+00  0.00000000E+00
  0.00000000E+00  0.00000000E+00  0.00000000E+00
  0.00000000E+00  0.00000000E+00  0.00000000E+00
  0.00000000E+00  0.00000000E+00  0.00000000E+00
  0.00000000E+00  0.00000000E+00  0.00000000E+00
  0.00000000E+00  0.00000000E+00  0.00000000E+00
  0.00000000E+00  0.00000000E+00  0.00000000E+00
  0.00000000E+00  0.00000000E+00  0.00000000E+00
  0.00000000E+00  0.00000000E+00  0.00000000E+00
  0.00000000E+00  0.00000000E+00  0.00000000E+00
  0.00000000E+00  0.00000000E+00  0.00000000E+00
  0.00000000E+00  0.00000000E+00  0.00000000E+00
  0.00000000E+00  0.00000000E+00  0.00000000E+00
  0.00000000E+00  0.00000000E+00  0.00000000E+00
  0.00000000E+00  0.00000000E+00  0.00000000E+00
  0.00000000E+00  0.00000000E+00  0.00000000E+00
  0.00000000E+00  0.00000000E+00  0.00000000E+00
  0.00000000E+00  0.00000000E+00  0.00000000E+00
  0.00000000E+00  0.00000000E+00  0.00000000E+00
  0.00000000E+00  0.00000000E+00  0.00000000E+00
  0.00000000E+00  0.00000000E+00  0.00000000E+00
  0.00000000E+00  0.00000000E+00  0.00000000E+00
  0.00000000E+00  0.00000000E+00  0.00000000E+00
  0.00000000E+00  0.00000000E+00  0.00000000E+00
  0.00000000E+00  0.00000000E+00  0.00000000E+00
  0.00000000E+00  0.00000000E+00  0.00000000E+00
  0.00000000E+00  0.00000000E+00  0.00000000E+00
  0.00000000E+00  0.00000000E+00  0.00000000E+00
  0.00000000E+00  0.00000000E+00  0.00000000E+00
  0.00000000E+00  0.00000000E+00  0.00000000E+00
  0.00000000E+00  0.00000000E+00  0.00000000E+00
  0.00000000E+00  0.00000000E+00  0.00000000E+00
  0.00000000E+00  0.00000000E+00  0.00000000E+00
  0.00000000E+00  0.00000000E+00  0.00000000E+00
  0.00000000E+00  0.00000000E+00  0.00000000E+00
  0.00000000E+00  0.00000000E+00  0.00000000E+00
  0.00000000E+00  0.00000000E+00  0.00000000E+00
  0.00000000E+00  0.00000000E+00  0.00000000E+00
  0.00000000E+00  0.00000000E+00  0.00000000E+00
  0.00000000E+00  0.00000000E+00  0.00000000E+00
  0.00000000E+00  0.00000000E+00  0.00000000E+00
  0.00000000E+00  0.00000000E+00  0.00000000E+00
  0.00000000E+00  0.00000000E+00  0.00000000E+00
  0.00000000E+00  0.00000000E+00  0.00000000E+00
  0.00000000E+00  0.00000000E+00  0.00000000E+00
  0.00000000E+00  0.00000000E+00  0.00000000E+00
  0.00000000E+00  0.00000000E+00  0.00000000E+00
  0.00000000E+00  0.00000000E+00  0.00000000E+00
  0.00000000E+00  0.00000000E+00  0.00000000E+00
  0.00000000E+00  0.00000000E+00  0.00000000E+00
  0.00000000E+00  0.00000000E+00  0.00000000E+00
  0.00000000E+00  0.00000000E+00  0.00000000E+00
  0.00000000E+00  0.00000000E+00  0.00000000E+00
  0.00000000E+00  0.00000000E+00  0.00000000E+00
  0.00000000E+00  0.00000000E+00  0.00000000E+00
  0.00000000E+00  0.00000000E+00  0.00000000E+00
  0.00000000E+00  0.00000000E+00  0.00000000E+00
  0.00000000E+00  0.00000000E+00  0.00000000E+00
  0.00000000E+00  0.00000000E+00  0.00000000E+00
  0.00000000E+00  0.00000000E+00  0.00000000E+00
  0.00000000E+00  0.00000000E+00  0.00000000E+00
  0.00000000E+00  0.00000000E+00  0.00000000E+00
  0.00000000E+00  0.00000000E+00  0.00000000E+00
  0.00000000E+00  0.00000000E+00  0.00000000E+00
  0.00000000E+00  0.00000000E+00  0.00000000E+00
  0.00000000E+00  0.00000000E+00  0.00000000E+00
  0.00000000E+00  0.00000000E+00  0.00000000E+00
  0.00000000E+00  0.00000000E+00  0.00000000E+00
  0.00000000E+00  0.00000000E+00  0.00000000E+00
  0.00000000E+00  0.00000000E+00  0.00000000E+00
  0.00000000E+00  0.00000000E+00  0.00000000E+00
  0.00000000E+00  0.00000000E+00  0.00000000E+00
  0.00000000E+00  0.00000000E+00  0.00000000E+00
  0.00000000E+00  0.00000000E+00  0.00000000E+00
  0.00000000E+00  0.00000000E+00  0.00000000E+00
  0.00000000E+00  0.00000000E+00  0.00000000E+00
  0.00000000E+00  0.00000000E+00  0.00000000E+00
  0.00000000E+00  0.00000000E+00  0.00000000E+00
  0.00000000E+00  0.00000000E+00  0.00000000E+00
  0.00000000E+00  0.00000000E+00  0.00000000E+00
  0.00000000E+00  0.00000000E+00  0.00000000E+00
  0.00000000E+00  0.00000000E+00  0.00000000E+00
  0.00000000E+00  0.00000000E+00  0.00000000E+00
  0.00000000E+00  0.00000000E+00  0.00000000E+00
  0.00000000E+00  0.00000000E+00  0.00000000E+00
  0.00000000E+00  0.00000000E+00  0.00000000E+00
  0.00000000E+00  0.00000000E+00  0.00000000E+00
  0.00000000E+00  0.00000000E+00  0.00000000E+00
  0.00000000E+00  0.00000000E+00  0.00000000E+00
  0.00000000E+00  0.00000000E+00  0.00000000E+00
  0.00000000E+00  0.00000000E+00  0.00000000E+00
  0.00000000E+00  0.00000000E+00  0.00000000E+00
  0.00000000E+00  0.00000000E+00  0.00000000E+00
  0.00000000E+00  0.00000000E+00  0.00000000E+00
  0.00000000E+00  0.00000000E+00  0.00000000E+00
  0.00000000E+00  0.00000000E+00  0.00000000E+00
  0.00000000E+00  0.00000000E+00  0.00000000E+00
  0.00000000E+00  0.00000000E+00  0.00000000E+00
  0.00000000E+00  0.00000000E+00  0.00000000E+00
  0.00000000E+00  0.00000000E+00  0.00000000E+00
  0.00000000E+00  0.00000000E+00  0.00000000E+00
  0.00000000E+00  0.00000000E+00  0.00000000E+00
  0.00000000E+00  0.00000000E+00  0.00000000E+00
