SrTiFeO                                 
   1.00000000000000     
    11.1989999999999998    0.0000000000000000    0.0000000000000000
     0.0000000000000000   11.1989999999999998    0.0000000000000000
     0.0000000000000000    0.0000000000000000   15.9830000000000005
   Sr   Ti   O 
    32    32    94
Direct
  0.9998385411726562  0.2497673612695320  0.1250012701468510
  0.0015878600659870  0.2497959064092327  0.6253061931759253
  0.9993536136367523  0.7502318422314440  0.1252872881214254
  0.0022502023933181  0.7488536787621630  0.6258127815251736
  0.4992721008677943  0.2483191275803550  0.1237737115304510
  0.5006339291973967  0.2498133529472324  0.6249553863321007
  0.5000610406289911  0.7518985808020902  0.1233745923516302
  0.4990447842474529  0.7526052008101985  0.6280454283530785
  0.0011309530550077  0.2486864427871386  0.3751182510485584
  0.9999258272115364  0.2500752728196413  0.8751555744341231
  0.0021020220720718  0.7496159489208617  0.3748872410200112
  0.9995306739794764  0.7499259218847828  0.8749740329263589
  0.5012675219899080  0.2428349799739229  0.3743860207070608
  0.4997675922612238  0.2499567660587901  0.8745121124556934
  0.4987755181576653  0.7612865469291834  0.3710686925288079
  0.4991863505168112  0.7511375432010321  0.8756398403786735
  0.2498325357124025  0.9997776217020824  0.1250286473784247
  0.2504714669775952  0.0010269436189715  0.6254530494175597
  0.2482002336224310  0.5003151443539269  0.1237035265626823
  0.2492453413532786  0.4987968601663609  0.6257567515293778
  0.7492988195052176  0.9994455080310205  0.1248437467570220
  0.7497459199545139  0.0035973064738455  0.6260116544591181
  0.7517359145936375  0.4996180323977389  0.1236934024783558
  0.7555335943010624  0.4969027496409306  0.6287462141885261
  0.2490725477492406  0.0011482823795203  0.3744020332050100
  0.2497294639618238  0.9998742762620003  0.8749865255039718
  0.2425089013451683  0.4990540170205617  0.3742940720698604
  0.2499947695220095  0.4997700640061203  0.8750000499273028
  0.7514297836316369  0.0027514377117486  0.3737098681160262
  0.7496892895649396  0.9996906363202646  0.8751881216602262
  0.7617984231621845  0.4964318839796798  0.3725868879972600
  0.7503420378314348  0.5007107650806291  0.8751846116067422
  0.9996338269720538  0.9996042991977385  0.0003658280424564
  0.0030635551302733  0.0018114284260682  0.5007044838766956
  0.9999755611207335  0.4997391342783554  0.9997591392740531
  0.0008569800060845  0.4990624862414645  0.5005682721736441
  0.4999707407334872  0.0002572047467256  0.9996644258654389
  0.4993247178586884  0.9999006724286192  0.5004106357277274
  0.4996199960125931  0.4996422898258207  0.9972624350723502
  0.2501238776836496  0.2502573042371834  0.9999512491198065
  0.2513091283608728  0.2512856178516583  0.4996310265877399
  0.2499145099465531  0.7497212318558661  0.9999586909931328
  0.2510601992130120  0.7510287298924542  0.4992616862034450
  0.7497841448775362  0.2501763839365690  0.9999566388953377
  0.7499120694056267  0.7501101537683158  0.9999111687651111
  0.2502056854395436  0.2500081776497629  0.2503437973337644
  0.2508435022774044  0.2500815998810860  0.7499639153344628
  0.2499326999677179  0.7499994363203847  0.2500991003753759
  0.2506393294883174  0.7495087794634170  0.7501328082570318
  0.7503577342055193  0.2498319400989787  0.2500280328236544
  0.7496830754613698  0.2504753212071413  0.7504635698142222
  0.7494562050938666  0.7488686551012678  0.2506647932709882
  0.7492652950900403  0.7493977630118199  0.7500814648452961
  0.9999580315192068  0.9998309080608753  0.2496729647775887
  0.0000285608281855  0.9998958687802476  0.7497011269675878
  0.0007920022351794  0.4999710062318082  0.2489582448034248
  0.0010321727203932  0.4999596355006641  0.7505701001598232
  0.5000171537801034  0.0007920578043532  0.2490247823725697
  0.5001708862934174  0.0004871947779076  0.7501437001075665
  0.4999574232659362  0.5000354821134474  0.2454525966734409
  0.5008768861105647  0.5006064419494696  0.7491244072133657
  0.7516297897059410  0.2503057016763978  0.4992088697247914
  0.4989022325972078  0.5012244650532404  0.4995900036914637
  0.7538310265218160  0.7564305669031213  0.5002122656343276
  0.1094975405232029  0.1393117823454186  0.2479151803386202
  0.1092039771827971  0.1399534856566949  0.7510533220874733
  0.1102306439546287  0.6396931875770265  0.2499686359152991
  0.1096920641451220  0.6407854373509305  0.7499857396492199
  0.6102360440891240  0.1400547878279772  0.2495142023364395
  0.6090960415494002  0.1413066843542156  0.7495929710795022
  0.6076714848897380  0.6380860231342689  0.2544401523388611
  0.6089255970153429  0.6418844441276556  0.7552657720664352
  0.3910333635758389  0.3612807741513810  0.2577750672565315
  0.3912101148610495  0.3589153842903418  0.7486927751054016
  0.3889928092730947  0.8609197198673544  0.2484041742975517
  0.3903221682450737  0.8597902087954686  0.7503971027182985
  0.8894327838418425  0.3606005773068225  0.2510899642219001
  0.8904367067969301  0.3595827361701434  0.7485649331904969
  0.8886394265108960  0.8588562916142541  0.2531781604882059
  0.8895303943666888  0.8589190327591461  0.7464100266901176
  0.3605017929949402  0.1105862117043940  0.2498849243421441
  0.3594461438125780  0.1093309990542483  0.7502112829997570
  0.3613742888660550  0.6088089329008745  0.2575408727547215
  0.3591756255506548  0.6089030392082038  0.7505079297663010
  0.8596809696702088  0.1092846486730942  0.2477474404173157
  0.8589316296651942  0.1097914439788047  0.7487531276165096
  0.8598660215148773  0.6097271414709269  0.2490092095203818
  0.8596290944786208  0.6094345799829332  0.7505368444274640
  0.1399800405843371  0.3898137195306575  0.2493095895941795
  0.1410449406210233  0.3906496500652104  0.7501623271234599
  0.1390655623981179  0.8895881303058477  0.2484955643597794
  0.1402073542986477  0.8897391791010778  0.7486020275774120
  0.6382246230759698  0.3910838730438027  0.2578322448386316
  0.6415069162787369  0.3913616050331212  0.7520743818453848
  0.6392949644179361  0.8889930866577422  0.2517766342273470
  0.6408573390811415  0.8907531816923840  0.7486184328526918
  0.3587830866425035  0.3910081991674574  0.0001185939950159
  0.3593874211914267  0.8904595135805996  0.0006123527246953
  0.3571975630112406  0.8930882637348295  0.4997894173845417
  0.8591276007293134  0.3906383902717509  0.9998222693630624
  0.8589007116766061  0.8904392646138032  0.0012528598018049
  0.8581671653920009  0.8925784347532613  0.5010078381240334
  0.1402521062904964  0.1091604235791565  0.0009477665375304
  0.1406358862024209  0.1083347958992603  0.5009750824085449
  0.1405766463088615  0.6091414953210927  0.9997044184052548
  0.1408049868972263  0.6100388684149366  0.4998779397814078
  0.6408198850849294  0.1096115955017098  0.0006211386309441
  0.6391289319070530  0.1117182038080038  0.4996155703388057
  0.6403050510542899  0.6090915130474384  0.9997802855636511
  0.1093032507859798  0.3590036958812798  0.0006338843298810
  0.1090798550248791  0.3592601552368918  0.4999052922726876
  0.1093959880722981  0.8590999628050315  0.0008786808104938
  0.1076711284936882  0.8581796272114747  0.5013850240230663
  0.6088198566149194  0.3592687309783994  0.9996484413347534
  0.6093740432751218  0.8592064721733961  0.0000273889649994
  0.6066108625205098  0.8552570849849875  0.5003207653689546
  0.3906775923441633  0.1405694910623936  0.9998582441573565
  0.3911328983575916  0.1412601233961130  0.5001984200455490
  0.3909432971087268  0.6405349835901940  0.9998412009967514
  0.8904983984611022  0.1406042135456864  0.0010177677593997
  0.8905224504999130  0.1402683382616663  0.5017928846141132
  0.8902446983212762  0.6405592816984702  0.0007529028504992
  0.9982913823618543  0.9975292143713601  0.1251138631260019
  0.0003355975304279  0.0008522092451848  0.6250890344893668
  0.9998956709418657  0.4993750356114489  0.1248685055695529
  0.0010967842918569  0.5011273365647972  0.6250598807563694
  0.5010029889163744  0.9999923976397251  0.1249091059617814
  0.4999656691598581  0.0004688193039387  0.6247846265673909
  0.4985015852860925  0.4981990595059855  0.1248603844004020
  0.5068819669612180  0.5045100480121120  0.6268863864101220
  0.0000894486300348  0.0010166802613521  0.3752798409723515
  0.9982206589840922  0.9978905097053110  0.8749304682128491
  0.0004963869283404  0.5010161493402611  0.3749681074915919
  0.9998789246076997  0.4993149571905965  0.8750319783508108
  0.4997410763568145  0.0004507962249003  0.3749795858306395
  0.5009799928642830  0.9998826663011616  0.8749446801813853
  0.4979524931791945  0.4981235580820244  0.8754277623954956
  0.2447888468036805  0.2453035056880882  0.3745279246770225
  0.2502019736019602  0.2500717339437713  0.8753157689957907
  0.2456064486625535  0.7548324432973573  0.3747511016927009
  0.2497210887446789  0.7507542297502556  0.8750549453534439
  0.7509810488415993  0.2491477715464380  0.8750681529630119
  0.7523386276370972  0.7522830468652262  0.8752620844042630
  0.2535712162235058  0.2521095067069451  0.1256757291396269
  0.2493960950673439  0.2499167829454179  0.6251477474006669
  0.2521063167569083  0.7460809656066928  0.1255695234094939
  0.2541023202933629  0.7467600726513567  0.6239505090969565
  0.7477566636324899  0.2543636082501327  0.1257314787697912
  0.7442822623894649  0.2537024411832082  0.6239340990754733
  0.7471294742276433  0.7488688829877576  0.1262146802952772
  0.7416359215233734  0.7397951752214127  0.6234515878188480
  0.7552827151473124  0.2440365710982151  0.3745442281622354
  0.8624271285027220  0.3884996170894653  0.5003014609819849
  0.3975716744291101  0.6451330438317736  0.4911015873309010
  0.3562126377734527  0.3894743342111201  0.4961419903951347
  0.8827220754722300  0.6357235442721393  0.5001634438620669
  0.7449611260751869  0.7426031212289329  0.3773260185387340
  0.6170873066304926  0.3715951212072004  0.4882044776177088
 
  0.00000000E+00  0.00000000E+00  0.00000000E+00
  0.00000000E+00  0.00000000E+00  0.00000000E+00
  0.00000000E+00  0.00000000E+00  0.00000000E+00
  0.00000000E+00  0.00000000E+00  0.00000000E+00
  0.00000000E+00  0.00000000E+00  0.00000000E+00
  0.00000000E+00  0.00000000E+00  0.00000000E+00
  0.00000000E+00  0.00000000E+00  0.00000000E+00
  0.00000000E+00  0.00000000E+00  0.00000000E+00
  0.00000000E+00  0.00000000E+00  0.00000000E+00
  0.00000000E+00  0.00000000E+00  0.00000000E+00
  0.00000000E+00  0.00000000E+00  0.00000000E+00
  0.00000000E+00  0.00000000E+00  0.00000000E+00
  0.00000000E+00  0.00000000E+00  0.00000000E+00
  0.00000000E+00  0.00000000E+00  0.00000000E+00
  0.00000000E+00  0.00000000E+00  0.00000000E+00
  0.00000000E+00  0.00000000E+00  0.00000000E+00
  0.00000000E+00  0.00000000E+00  0.00000000E+00
  0.00000000E+00  0.00000000E+00  0.00000000E+00
  0.00000000E+00  0.00000000E+00  0.00000000E+00
  0.00000000E+00  0.00000000E+00  0.00000000E+00
  0.00000000E+00  0.00000000E+00  0.00000000E+00
  0.00000000E+00  0.00000000E+00  0.00000000E+00
  0.00000000E+00  0.00000000E+00  0.00000000E+00
  0.00000000E+00  0.00000000E+00  0.00000000E+00
  0.00000000E+00  0.00000000E+00  0.00000000E+00
  0.00000000E+00  0.00000000E+00  0.00000000E+00
  0.00000000E+00  0.00000000E+00  0.00000000E+00
  0.00000000E+00  0.00000000E+00  0.00000000E+00
  0.00000000E+00  0.00000000E+00  0.00000000E+00
  0.00000000E+00  0.00000000E+00  0.00000000E+00
  0.00000000E+00  0.00000000E+00  0.00000000E+00
  0.00000000E+00  0.00000000E+00  0.00000000E+00
  0.00000000E+00  0.00000000E+00  0.00000000E+00
  0.00000000E+00  0.00000000E+00  0.00000000E+00
  0.00000000E+00  0.00000000E+00  0.00000000E+00
  0.00000000E+00  0.00000000E+00  0.00000000E+00
  0.00000000E+00  0.00000000E+00  0.00000000E+00
  0.00000000E+00  0.00000000E+00  0.00000000E+00
  0.00000000E+00  0.00000000E+00  0.00000000E+00
  0.00000000E+00  0.00000000E+00  0.00000000E+00
  0.00000000E+00  0.00000000E+00  0.00000000E+00
  0.00000000E+00  0.00000000E+00  0.00000000E+00
  0.00000000E+00  0.00000000E+00  0.00000000E+00
  0.00000000E+00  0.00000000E+00  0.00000000E+00
  0.00000000E+00  0.00000000E+00  0.00000000E+00
  0.00000000E+00  0.00000000E+00  0.00000000E+00
  0.00000000E+00  0.00000000E+00  0.00000000E+00
  0.00000000E+00  0.00000000E+00  0.00000000E+00
  0.00000000E+00  0.00000000E+00  0.00000000E+00
  0.00000000E+00  0.00000000E+00  0.00000000E+00
  0.00000000E+00  0.00000000E+00  0.00000000E+00
  0.00000000E+00  0.00000000E+00  0.00000000E+00
  0.00000000E+00  0.00000000E+00  0.00000000E+00
  0.00000000E+00  0.00000000E+00  0.00000000E+00
  0.00000000E+00  0.00000000E+00  0.00000000E+00
  0.00000000E+00  0.00000000E+00  0.00000000E+00
  0.00000000E+00  0.00000000E+00  0.00000000E+00
  0.00000000E+00  0.00000000E+00  0.00000000E+00
  0.00000000E+00  0.00000000E+00  0.00000000E+00
  0.00000000E+00  0.00000000E+00  0.00000000E+00
  0.00000000E+00  0.00000000E+00  0.00000000E+00
  0.00000000E+00  0.00000000E+00  0.00000000E+00
  0.00000000E+00  0.00000000E+00  0.00000000E+00
  0.00000000E+00  0.00000000E+00  0.00000000E+00
  0.00000000E+00  0.00000000E+00  0.00000000E+00
  0.00000000E+00  0.00000000E+00  0.00000000E+00
  0.00000000E+00  0.00000000E+00  0.00000000E+00
  0.00000000E+00  0.00000000E+00  0.00000000E+00
  0.00000000E+00  0.00000000E+00  0.00000000E+00
  0.00000000E+00  0.00000000E+00  0.00000000E+00
  0.00000000E+00  0.00000000E+00  0.00000000E+00
  0.00000000E+00  0.00000000E+00  0.00000000E+00
  0.00000000E+00  0.00000000E+00  0.00000000E+00
  0.00000000E+00  0.00000000E+00  0.00000000E+00
  0.00000000E+00  0.00000000E+00  0.00000000E+00
  0.00000000E+00  0.00000000E+00  0.00000000E+00
  0.00000000E+00  0.00000000E+00  0.00000000E+00
  0.00000000E+00  0.00000000E+00  0.00000000E+00
  0.00000000E+00  0.00000000E+00  0.00000000E+00
  0.00000000E+00  0.00000000E+00  0.00000000E+00
  0.00000000E+00  0.00000000E+00  0.00000000E+00
  0.00000000E+00  0.00000000E+00  0.00000000E+00
  0.00000000E+00  0.00000000E+00  0.00000000E+00
  0.00000000E+00  0.00000000E+00  0.00000000E+00
  0.00000000E+00  0.00000000E+00  0.00000000E+00
  0.00000000E+00  0.00000000E+00  0.00000000E+00
  0.00000000E+00  0.00000000E+00  0.00000000E+00
  0.00000000E+00  0.00000000E+00  0.00000000E+00
  0.00000000E+00  0.00000000E+00  0.00000000E+00
  0.00000000E+00  0.00000000E+00  0.00000000E+00
  0.00000000E+00  0.00000000E+00  0.00000000E+00
  0.00000000E+00  0.00000000E+00  0.00000000E+00
  0.00000000E+00  0.00000000E+00  0.00000000E+00
  0.00000000E+00  0.00000000E+00  0.00000000E+00
  0.00000000E+00  0.00000000E+00  0.00000000E+00
  0.00000000E+00  0.00000000E+00  0.00000000E+00
  0.00000000E+00  0.00000000E+00  0.00000000E+00
  0.00000000E+00  0.00000000E+00  0.00000000E+00
  0.00000000E+00  0.00000000E+00  0.00000000E+00
  0.00000000E+00  0.00000000E+00  0.00000000E+00
  0.00000000E+00  0.00000000E+00  0.00000000E+00
  0.00000000E+00  0.00000000E+00  0.00000000E+00
  0.00000000E+00  0.00000000E+00  0.00000000E+00
  0.00000000E+00  0.00000000E+00  0.00000000E+00
  0.00000000E+00  0.00000000E+00  0.00000000E+00
  0.00000000E+00  0.00000000E+00  0.00000000E+00
  0.00000000E+00  0.00000000E+00  0.00000000E+00
  0.00000000E+00  0.00000000E+00  0.00000000E+00
  0.00000000E+00  0.00000000E+00  0.00000000E+00
  0.00000000E+00  0.00000000E+00  0.00000000E+00
  0.00000000E+00  0.00000000E+00  0.00000000E+00
  0.00000000E+00  0.00000000E+00  0.00000000E+00
  0.00000000E+00  0.00000000E+00  0.00000000E+00
  0.00000000E+00  0.00000000E+00  0.00000000E+00
  0.00000000E+00  0.00000000E+00  0.00000000E+00
  0.00000000E+00  0.00000000E+00  0.00000000E+00
  0.00000000E+00  0.00000000E+00  0.00000000E+00
  0.00000000E+00  0.00000000E+00  0.00000000E+00
  0.00000000E+00  0.00000000E+00  0.00000000E+00
  0.00000000E+00  0.00000000E+00  0.00000000E+00
  0.00000000E+00  0.00000000E+00  0.00000000E+00
  0.00000000E+00  0.00000000E+00  0.00000000E+00
  0.00000000E+00  0.00000000E+00  0.00000000E+00
  0.00000000E+00  0.00000000E+00  0.00000000E+00
  0.00000000E+00  0.00000000E+00  0.00000000E+00
  0.00000000E+00  0.00000000E+00  0.00000000E+00
  0.00000000E+00  0.00000000E+00  0.00000000E+00
  0.00000000E+00  0.00000000E+00  0.00000000E+00
  0.00000000E+00  0.00000000E+00  0.00000000E+00
  0.00000000E+00  0.00000000E+00  0.00000000E+00
  0.00000000E+00  0.00000000E+00  0.00000000E+00
  0.00000000E+00  0.00000000E+00  0.00000000E+00
  0.00000000E+00  0.00000000E+00  0.00000000E+00
  0.00000000E+00  0.00000000E+00  0.00000000E+00
  0.00000000E+00  0.00000000E+00  0.00000000E+00
  0.00000000E+00  0.00000000E+00  0.00000000E+00
  0.00000000E+00  0.00000000E+00  0.00000000E+00
  0.00000000E+00  0.00000000E+00  0.00000000E+00
  0.00000000E+00  0.00000000E+00  0.00000000E+00
  0.00000000E+00  0.00000000E+00  0.00000000E+00
  0.00000000E+00  0.00000000E+00  0.00000000E+00
  0.00000000E+00  0.00000000E+00  0.00000000E+00
  0.00000000E+00  0.00000000E+00  0.00000000E+00
  0.00000000E+00  0.00000000E+00  0.00000000E+00
  0.00000000E+00  0.00000000E+00  0.00000000E+00
  0.00000000E+00  0.00000000E+00  0.00000000E+00
  0.00000000E+00  0.00000000E+00  0.00000000E+00
  0.00000000E+00  0.00000000E+00  0.00000000E+00
  0.00000000E+00  0.00000000E+00  0.00000000E+00
  0.00000000E+00  0.00000000E+00  0.00000000E+00
  0.00000000E+00  0.00000000E+00  0.00000000E+00
  0.00000000E+00  0.00000000E+00  0.00000000E+00
  0.00000000E+00  0.00000000E+00  0.00000000E+00
  0.00000000E+00  0.00000000E+00  0.00000000E+00
  0.00000000E+00  0.00000000E+00  0.00000000E+00
  0.00000000E+00  0.00000000E+00  0.00000000E+00
  0.00000000E+00  0.00000000E+00  0.00000000E+00
  0.00000000E+00  0.00000000E+00  0.00000000E+00
