SrTiFeO                                 
   1.00000000000000     
    11.1989999999999998    0.0000000000000000    0.0000000000000000
     0.0000000000000000   11.1989999999999998    0.0000000000000000
     0.0000000000000000    0.0000000000000000   15.9830000000000005
   Sr   Ti   O 
    32    32    94
Direct
  0.0007942662943989  0.2491308779832748  0.1248389823978173
 -0.0008039223185833  0.2513491419984397  0.6258078033131399
 -0.0007942662943989  0.7508691220167253  0.1248389823978173
  0.0008039223185833  0.7486508580015601  0.6258078033131399
  0.5002734942870147  0.2499035416061124  0.1239335355225614
  0.5033528032472214  0.2480522992394788  0.6288275403564471
  0.4997265057129854  0.7500964583938878  0.1239335355225614
  0.4966471967527789  0.7519477007605213  0.6288275403564471
 -0.0008039223185833  0.2513491419984397  0.3741921966868604
  0.0007942662943989  0.2491308779832748  0.8751610176021822
  0.0008039223185833  0.7486508580015601  0.3741921966868604
 -0.0007942662943989  0.7508691220167253  0.8751610176021822
  0.5033528032472214  0.2480522992394788  0.3711724596435532
  0.5002734942870147  0.2499035416061124  0.8760664644774385
  0.4966471967527789  0.7519477007605213  0.3711724596435532
  0.4997265057129854  0.7500964583938878  0.8760664644774385
  0.2501710878575613  0.0006147904225171  0.1245733054654716
  0.2497644132953780 -0.0035224429293332  0.6281192919772851
  0.2505054776923120  0.4997181423771175  0.1239626084782683
  0.2444811051384583  0.5044954762586674  0.6287419449408712
  0.7498289121424386 -0.0006147904225171  0.1245733054654716
  0.7502355867046218  0.0035224429293332  0.6281192919772851
  0.7494945223076881  0.5002818576228825  0.1239626084782683
  0.7555188948615418  0.4955045237413329  0.6287419449408712
  0.2497644132953780 -0.0035224429293332  0.3718807080227144
  0.2501710878575613  0.0006147904225171  0.8754266945345284
  0.2444811051384583  0.5044954762586674  0.3712580550591286
  0.2505054776923120  0.4997181423771175  0.8760373915217318
  0.7502355867046218  0.0035224429293332  0.3718807080227144
  0.7498289121424386 -0.0006147904225171  0.8754266945345284
  0.7555188948615418  0.4955045237413329  0.3712580550591286
  0.7494945223076881  0.5002818576228825  0.8760373915217318
 -0.0000000000000000  0.0000000000000000  0.0000000000000000
 -0.0000000000000000  0.0000000000000000  0.5000000000000000
 -0.0000000000000000  0.5000000000000000  0.0000000000000000
 -0.0000000000000000  0.5000000000000000  0.5000000000000000
  0.5000000000000000  0.0000000000000000  0.0000000000000000
  0.5000000000000000  0.0000000000000000  0.5000000000000000
  0.5000000000000000  0.5000000000000000  0.0000000000000000
  0.2500345233884517  0.2498682706709085  0.0000000000000000
  0.2475027127773518  0.2413796303407403  0.5000000000000000
  0.2495426339919913  0.7499898957544345  0.0000000000000000
  0.2491388222335849  0.7515867874241388  0.5000000000000000
  0.7504573660080088  0.2500101042455655  0.0000000000000000
  0.7499654766115484  0.7501317293290916  0.0000000000000000
  0.2511287678326184  0.2511519671107132  0.2500210177845826
  0.2511287678326184  0.2511519671107132  0.7499789822154176
  0.2493956367145061  0.7501781324612937  0.2487065438227032
  0.2493956367145061  0.7501781324612937  0.7512934561772968
  0.7506043632854936  0.2498218675387059  0.2487065438227032
  0.7506043632854936  0.2498218675387059  0.7512934561772968
  0.7488712321673814  0.7488480328892869  0.2500210177845826
  0.7488712321673814  0.7488480328892869  0.7499789822154176
 -0.0000000000000000  0.0000000000000000  0.2509315873894087
 -0.0000000000000000  0.0000000000000000  0.7490684126105910
 -0.0000000000000000  0.5000000000000000  0.2488027313357867
 -0.0000000000000000  0.5000000000000000  0.7511972686642133
  0.5000000000000000  0.0000000000000000  0.2494948384593332
  0.5000000000000000  0.0000000000000000  0.7505051615406668
  0.5000000000000000  0.5000000000000000  0.2494555239487990
  0.5000000000000000  0.5000000000000000  0.7505444760512009
  0.7508611777664153  0.2484132125758612  0.5000000000000000
  0.5000000000000000  0.5000000000000000  0.5000000000000000
  0.7524972872226484  0.7586203696592599  0.5000000000000000
  0.1119154513695574  0.1419925134517547  0.2525044825023786
  0.1119154513695574  0.1419925134517547  0.7474955174976218
  0.1092924032749457  0.6405081702903596  0.2510832207679637
  0.1092924032749457  0.6405081702903596  0.7489167792320365
  0.6107880662647830  0.1396555922224195  0.2494100041044177
  0.6107880662647830  0.1396555922224195  0.7505899958955817
  0.6077216547776984  0.6396892827805917  0.2481281869511510
  0.6077216547776984  0.6396892827805917  0.7518718130488489
  0.3922783452223017  0.3603107172194083  0.2481281869511510
  0.3922783452223017  0.3603107172194083  0.7518718130488489
  0.3892119337352166  0.8603444077775803  0.2494100041044177
  0.3892119337352166  0.8603444077775803  0.7505899958955817
  0.8907075967250543  0.3594918297096404  0.2510832207679637
  0.8907075967250543  0.3594918297096404  0.7489167792320365
  0.8880845486304426  0.8580074865482454  0.2525044825023786
  0.8880845486304426  0.8580074865482454  0.7474955174976218
  0.3602374172216211  0.1104656506416169  0.2514742750741973
  0.3602374172216211  0.1104656506416169  0.7485257249258025
  0.3590411673268072  0.6094216128023817  0.2502510176512936
  0.3590411673268072  0.6094216128023817  0.7497489823487061
  0.8599789313075431  0.1102611711667529  0.2484370112431469
  0.8599789313075431  0.1102611711667529  0.7515629887568531
  0.8588984815528016  0.6088264921279144  0.2498644033150550
  0.8588984815528016  0.6088264921279144  0.7501355966849452
  0.1411015184471987  0.3911735078720860  0.2498644033150550
  0.1411015184471987  0.3911735078720860  0.7501355966849452
  0.1400210686924564  0.8897388288332467  0.2484370112431469
  0.1400210686924564  0.8897388288332467  0.7515629887568531
  0.6409588326731928  0.3905783871976184  0.2502510176512936
  0.6409588326731928  0.3905783871976184  0.7497489823487061
  0.6397625827783792  0.8895343493583832  0.2514742750741973
  0.6397625827783792  0.8895343493583832  0.7485257249258025
  0.3595530619411977  0.3904809874633403  0.0000000000000000
  0.3591081186042334  0.8905188483859313  0.0000000000000000
  0.3563543075771400  0.8940417716639003  0.5000000000000000
  0.8594057000793393  0.3908023089734854  0.0000000000000000
  0.8592890259968710  0.8905339743759032  0.0000000000000000
  0.8522116348918275  0.8904505658202087  0.5000000000000000
  0.1407109740031290  0.1094660256240967  0.0000000000000000
  0.1477883651081724  0.1095494341797912  0.5000000000000000
  0.1405942999206611  0.6091976910265143  0.0000000000000000
  0.1360668758398800  0.6134966372005985  0.5000000000000000
  0.6408918813957665  0.1094811516140686  0.0000000000000000
  0.6436456924228601  0.1059582283360999  0.5000000000000000
  0.6404469380588020  0.6095190125366596  0.0000000000000000
  0.1095956007977108  0.3591901061655161  0.0000000000000000
  0.1215252701461476  0.3663377104186087  0.5000000000000000
  0.1092890386933497  0.8590672837146369  0.0000000000000000
  0.1075723293435122  0.8574221538221931  0.5000000000000000
  0.6094069213626815  0.3596272900148658  0.0000000000000000
  0.6093539159070652  0.8594504954849610  0.0000000000000000
  0.6022936106778062  0.8500693555556886  0.5000000000000000
  0.3906460840929347  0.1405495045150390  0.0000000000000000
  0.3977063893221938  0.1499306444443113  0.5000000000000000
  0.3905930786373185  0.6403727099851342  0.0000000000000000
  0.8907109613066503  0.1409327162853631  0.0000000000000000
  0.8924276706564880  0.1425778461778069  0.5000000000000000
  0.8904043992022892  0.6408098938344835  0.0000000000000000
 -0.0000000000000000  0.0000000000000000  0.1247762062032770
 -0.0000000000000000  0.0000000000000000  0.6280639270980706
 -0.0000000000000000  0.5000000000000000  0.1250843046664337
 -0.0000000000000000  0.5000000000000000  0.6248628916016162
  0.5000000000000000  0.0000000000000000  0.1251660121866185
  0.5000000000000000  0.0000000000000000  0.6245047006279724
  0.5000000000000000  0.5000000000000000  0.1245905322315370
  0.5000000000000000  0.5000000000000000  0.6233211518242404
 -0.0000000000000000  0.0000000000000000  0.3719360729019293
 -0.0000000000000000  0.0000000000000000  0.8752237937967229
 -0.0000000000000000  0.5000000000000000  0.3751371083983838
 -0.0000000000000000  0.5000000000000000  0.8749156953335663
  0.5000000000000000  0.0000000000000000  0.3754952993720279
  0.5000000000000000  0.0000000000000000  0.8748339878133814
  0.5000000000000000  0.5000000000000000  0.8754094677684630
  0.2598766649175419  0.2615182012671922  0.3772553848547412
  0.2504947567649767  0.2496381354376176  0.8747317323836475
  0.2498150132364145  0.7512494479458997  0.3747950255467230
  0.2498142617650612  0.7487951489421397  0.8751924969189696
  0.7501857382349387  0.2512048510578601  0.8751924969189696
  0.7495052432350229  0.7503618645623825  0.8747317323836475
  0.2504947567649767  0.2496381354376176  0.1252682676163520
  0.2598766649175419  0.2615182012671922  0.6227446151452589
  0.2498142617650612  0.7487951489421397  0.1248075030810305
  0.2498150132364145  0.7512494479458997  0.6252049744532772
  0.7501857382349387  0.2512048510578601  0.1248075030810305
  0.7501849867635856  0.2487505520541000  0.6252049744532772
  0.7495052432350229  0.7503618645623825  0.1252682676163520
  0.7401233350824578  0.7384817987328075  0.6227446151452589
  0.7501849867635856  0.2487505520541000  0.3747950255467230
  0.8639331241601200  0.3865033627994015  0.5000000000000000
  0.3887671988771754  0.6367905089845072  0.5000000000000000
  0.5000000000000000  0.5000000000000000  0.3766788481757595
  0.8784747298538522  0.6336622895813917  0.5000000000000000
  0.7401233350824578  0.7384817987328075  0.3772553848547412
  0.6112328011228247  0.3632094910154930  0.5000000000000000
 
  0.00000000E+00  0.00000000E+00  0.00000000E+00
  0.00000000E+00  0.00000000E+00  0.00000000E+00
  0.00000000E+00  0.00000000E+00  0.00000000E+00
  0.00000000E+00  0.00000000E+00  0.00000000E+00
  0.00000000E+00  0.00000000E+00  0.00000000E+00
  0.00000000E+00  0.00000000E+00  0.00000000E+00
  0.00000000E+00  0.00000000E+00  0.00000000E+00
  0.00000000E+00  0.00000000E+00  0.00000000E+00
  0.00000000E+00  0.00000000E+00  0.00000000E+00
  0.00000000E+00  0.00000000E+00  0.00000000E+00
  0.00000000E+00  0.00000000E+00  0.00000000E+00
  0.00000000E+00  0.00000000E+00  0.00000000E+00
  0.00000000E+00  0.00000000E+00  0.00000000E+00
  0.00000000E+00  0.00000000E+00  0.00000000E+00
  0.00000000E+00  0.00000000E+00  0.00000000E+00
  0.00000000E+00  0.00000000E+00  0.00000000E+00
  0.00000000E+00  0.00000000E+00  0.00000000E+00
  0.00000000E+00  0.00000000E+00  0.00000000E+00
  0.00000000E+00  0.00000000E+00  0.00000000E+00
  0.00000000E+00  0.00000000E+00  0.00000000E+00
  0.00000000E+00  0.00000000E+00  0.00000000E+00
  0.00000000E+00  0.00000000E+00  0.00000000E+00
  0.00000000E+00  0.00000000E+00  0.00000000E+00
  0.00000000E+00  0.00000000E+00  0.00000000E+00
  0.00000000E+00  0.00000000E+00  0.00000000E+00
  0.00000000E+00  0.00000000E+00  0.00000000E+00
  0.00000000E+00  0.00000000E+00  0.00000000E+00
  0.00000000E+00  0.00000000E+00  0.00000000E+00
  0.00000000E+00  0.00000000E+00  0.00000000E+00
  0.00000000E+00  0.00000000E+00  0.00000000E+00
  0.00000000E+00  0.00000000E+00  0.00000000E+00
  0.00000000E+00  0.00000000E+00  0.00000000E+00
  0.00000000E+00  0.00000000E+00  0.00000000E+00
  0.00000000E+00  0.00000000E+00  0.00000000E+00
  0.00000000E+00  0.00000000E+00  0.00000000E+00
  0.00000000E+00  0.00000000E+00  0.00000000E+00
  0.00000000E+00  0.00000000E+00  0.00000000E+00
  0.00000000E+00  0.00000000E+00  0.00000000E+00
  0.00000000E+00  0.00000000E+00  0.00000000E+00
  0.00000000E+00  0.00000000E+00  0.00000000E+00
  0.00000000E+00  0.00000000E+00  0.00000000E+00
  0.00000000E+00  0.00000000E+00  0.00000000E+00
  0.00000000E+00  0.00000000E+00  0.00000000E+00
  0.00000000E+00  0.00000000E+00  0.00000000E+00
  0.00000000E+00  0.00000000E+00  0.00000000E+00
  0.00000000E+00  0.00000000E+00  0.00000000E+00
  0.00000000E+00  0.00000000E+00  0.00000000E+00
  0.00000000E+00  0.00000000E+00  0.00000000E+00
  0.00000000E+00  0.00000000E+00  0.00000000E+00
  0.00000000E+00  0.00000000E+00  0.00000000E+00
  0.00000000E+00  0.00000000E+00  0.00000000E+00
  0.00000000E+00  0.00000000E+00  0.00000000E+00
  0.00000000E+00  0.00000000E+00  0.00000000E+00
  0.00000000E+00  0.00000000E+00  0.00000000E+00
  0.00000000E+00  0.00000000E+00  0.00000000E+00
  0.00000000E+00  0.00000000E+00  0.00000000E+00
  0.00000000E+00  0.00000000E+00  0.00000000E+00
  0.00000000E+00  0.00000000E+00  0.00000000E+00
  0.00000000E+00  0.00000000E+00  0.00000000E+00
  0.00000000E+00  0.00000000E+00  0.00000000E+00
  0.00000000E+00  0.00000000E+00  0.00000000E+00
  0.00000000E+00  0.00000000E+00  0.00000000E+00
  0.00000000E+00  0.00000000E+00  0.00000000E+00
  0.00000000E+00  0.00000000E+00  0.00000000E+00
  0.00000000E+00  0.00000000E+00  0.00000000E+00
  0.00000000E+00  0.00000000E+00  0.00000000E+00
  0.00000000E+00  0.00000000E+00  0.00000000E+00
  0.00000000E+00  0.00000000E+00  0.00000000E+00
  0.00000000E+00  0.00000000E+00  0.00000000E+00
  0.00000000E+00  0.00000000E+00  0.00000000E+00
  0.00000000E+00  0.00000000E+00  0.00000000E+00
  0.00000000E+00  0.00000000E+00  0.00000000E+00
  0.00000000E+00  0.00000000E+00  0.00000000E+00
  0.00000000E+00  0.00000000E+00  0.00000000E+00
  0.00000000E+00  0.00000000E+00  0.00000000E+00
  0.00000000E+00  0.00000000E+00  0.00000000E+00
  0.00000000E+00  0.00000000E+00  0.00000000E+00
  0.00000000E+00  0.00000000E+00  0.00000000E+00
  0.00000000E+00  0.00000000E+00  0.00000000E+00
  0.00000000E+00  0.00000000E+00  0.00000000E+00
  0.00000000E+00  0.00000000E+00  0.00000000E+00
  0.00000000E+00  0.00000000E+00  0.00000000E+00
  0.00000000E+00  0.00000000E+00  0.00000000E+00
  0.00000000E+00  0.00000000E+00  0.00000000E+00
  0.00000000E+00  0.00000000E+00  0.00000000E+00
  0.00000000E+00  0.00000000E+00  0.00000000E+00
  0.00000000E+00  0.00000000E+00  0.00000000E+00
  0.00000000E+00  0.00000000E+00  0.00000000E+00
  0.00000000E+00  0.00000000E+00  0.00000000E+00
  0.00000000E+00  0.00000000E+00  0.00000000E+00
  0.00000000E+00  0.00000000E+00  0.00000000E+00
  0.00000000E+00  0.00000000E+00  0.00000000E+00
  0.00000000E+00  0.00000000E+00  0.00000000E+00
  0.00000000E+00  0.00000000E+00  0.00000000E+00
  0.00000000E+00  0.00000000E+00  0.00000000E+00
  0.00000000E+00  0.00000000E+00  0.00000000E+00
  0.00000000E+00  0.00000000E+00  0.00000000E+00
  0.00000000E+00  0.00000000E+00  0.00000000E+00
  0.00000000E+00  0.00000000E+00  0.00000000E+00
  0.00000000E+00  0.00000000E+00  0.00000000E+00
  0.00000000E+00  0.00000000E+00  0.00000000E+00
  0.00000000E+00  0.00000000E+00  0.00000000E+00
  0.00000000E+00  0.00000000E+00  0.00000000E+00
  0.00000000E+00  0.00000000E+00  0.00000000E+00
  0.00000000E+00  0.00000000E+00  0.00000000E+00
  0.00000000E+00  0.00000000E+00  0.00000000E+00
  0.00000000E+00  0.00000000E+00  0.00000000E+00
  0.00000000E+00  0.00000000E+00  0.00000000E+00
  0.00000000E+00  0.00000000E+00  0.00000000E+00
  0.00000000E+00  0.00000000E+00  0.00000000E+00
  0.00000000E+00  0.00000000E+00  0.00000000E+00
  0.00000000E+00  0.00000000E+00  0.00000000E+00
  0.00000000E+00  0.00000000E+00  0.00000000E+00
  0.00000000E+00  0.00000000E+00  0.00000000E+00
  0.00000000E+00  0.00000000E+00  0.00000000E+00
  0.00000000E+00  0.00000000E+00  0.00000000E+00
  0.00000000E+00  0.00000000E+00  0.00000000E+00
  0.00000000E+00  0.00000000E+00  0.00000000E+00
  0.00000000E+00  0.00000000E+00  0.00000000E+00
  0.00000000E+00  0.00000000E+00  0.00000000E+00
  0.00000000E+00  0.00000000E+00  0.00000000E+00
  0.00000000E+00  0.00000000E+00  0.00000000E+00
  0.00000000E+00  0.00000000E+00  0.00000000E+00
  0.00000000E+00  0.00000000E+00  0.00000000E+00
  0.00000000E+00  0.00000000E+00  0.00000000E+00
  0.00000000E+00  0.00000000E+00  0.00000000E+00
  0.00000000E+00  0.00000000E+00  0.00000000E+00
  0.00000000E+00  0.00000000E+00  0.00000000E+00
  0.00000000E+00  0.00000000E+00  0.00000000E+00
  0.00000000E+00  0.00000000E+00  0.00000000E+00
  0.00000000E+00  0.00000000E+00  0.00000000E+00
  0.00000000E+00  0.00000000E+00  0.00000000E+00
  0.00000000E+00  0.00000000E+00  0.00000000E+00
  0.00000000E+00  0.00000000E+00  0.00000000E+00
  0.00000000E+00  0.00000000E+00  0.00000000E+00
  0.00000000E+00  0.00000000E+00  0.00000000E+00
  0.00000000E+00  0.00000000E+00  0.00000000E+00
  0.00000000E+00  0.00000000E+00  0.00000000E+00
  0.00000000E+00  0.00000000E+00  0.00000000E+00
  0.00000000E+00  0.00000000E+00  0.00000000E+00
  0.00000000E+00  0.00000000E+00  0.00000000E+00
  0.00000000E+00  0.00000000E+00  0.00000000E+00
  0.00000000E+00  0.00000000E+00  0.00000000E+00
  0.00000000E+00  0.00000000E+00  0.00000000E+00
  0.00000000E+00  0.00000000E+00  0.00000000E+00
  0.00000000E+00  0.00000000E+00  0.00000000E+00
  0.00000000E+00  0.00000000E+00  0.00000000E+00
  0.00000000E+00  0.00000000E+00  0.00000000E+00
  0.00000000E+00  0.00000000E+00  0.00000000E+00
  0.00000000E+00  0.00000000E+00  0.00000000E+00
  0.00000000E+00  0.00000000E+00  0.00000000E+00
  0.00000000E+00  0.00000000E+00  0.00000000E+00
  0.00000000E+00  0.00000000E+00  0.00000000E+00
  0.00000000E+00  0.00000000E+00  0.00000000E+00
  0.00000000E+00  0.00000000E+00  0.00000000E+00
  0.00000000E+00  0.00000000E+00  0.00000000E+00
  0.00000000E+00  0.00000000E+00  0.00000000E+00
  0.00000000E+00  0.00000000E+00  0.00000000E+00
