SrTiFeO                                 
   1.00000000000000     
    11.1989999999999998    0.0000000000000000    0.0000000000000000
     0.0000000000000000   11.1989999999999998    0.0000000000000000
     0.0000000000000000    0.0000000000000000   15.9830000000000005
   Sr   Ti   O 
    32    32    94
Direct
 -0.0002221201414101  0.2496153932374274  0.1249694160292965
 -0.0001367392914308  0.2487746621777013  0.6248112157567773
  0.0002221201414101  0.7503846067625726  0.1249694160292965
  0.0001367392914308  0.7512253378222985  0.6248112157567773
  0.4994781819542409  0.2463858378836011  0.1245829207813667
  0.5010623674536289  0.2413619778246537  0.6246141695411188
  0.5005218180457589  0.7536141621163988  0.1245829207813667
  0.4989376325463711  0.7586380221753464  0.6246141695411188
 -0.0001367392914308  0.2487746621777013  0.3751887842432226
 -0.0002221201414101  0.2496153932374274  0.8750305839707034
  0.0001367392914308  0.7512253378222985  0.3751887842432226
  0.0002221201414101  0.7503846067625726  0.8750305839707034
  0.5010623674536289  0.2413619778246537  0.3753858304588816
  0.4994781819542409  0.2463858378836011  0.8754170792186333
  0.4989376325463711  0.7586380221753464  0.3753858304588816
  0.5005218180457589  0.7536141621163988  0.8754170792186333
  0.2496153932374274  0.0002221201414101  0.1249694160292965
  0.2487746621777013  0.0001367392914308  0.6248112157567773
  0.2463858378836011  0.5005218180457589  0.1245829207813667
  0.2413619778246537  0.4989376325463711  0.6246141695411188
  0.7503846067625726 -0.0002221201414101  0.1249694160292965
  0.7512253378222985 -0.0001367392914308  0.6248112157567773
  0.7536141621163988  0.4994781819542409  0.1245829207813667
  0.7586380221753464  0.5010623674536289  0.6246141695411188
  0.2487746621777013  0.0001367392914308  0.3751887842432226
  0.2496153932374274  0.0002221201414101  0.8750305839707034
  0.2413619778246537  0.4989376325463711  0.3753858304588816
  0.2463858378836011  0.5005218180457589  0.8754170792186333
  0.7512253378222985 -0.0001367392914308  0.3751887842432226
  0.7503846067625726 -0.0002221201414101  0.8750305839707034
  0.7586380221753464  0.5010623674536289  0.3753858304588816
  0.7536141621163988  0.4994781819542409  0.8754170792186333
 -0.0000000000000000  0.0000000000000000 -0.0000000000000000
 -0.0000000000000000  0.0000000000000000  0.5000000000000000
 -0.0000000000000000  0.5000000000000000 -0.0000000000000000
 -0.0000000000000000  0.5000000000000000  0.5000000000000000
  0.5000000000000000  0.0000000000000000 -0.0000000000000000
  0.5000000000000000  0.0000000000000000  0.5000000000000000
  0.5000000000000000  0.5000000000000000 -0.0000000000000000
  0.2506591365898768  0.2509730970441629 -0.0000000000000000
  0.2497311700089628  0.2495648772580417  0.5000000000000000
  0.2509730970441629  0.7493408634101230 -0.0000000000000000
  0.2495648772580417  0.7502688299910373  0.5000000000000000
  0.7490269029558370  0.2506591365898768 -0.0000000000000000
  0.7504351227419583  0.2497311700089628  0.5000000000000000
  0.7493408634101230  0.7490269029558370 -0.0000000000000000
  0.2501376779790193  0.2502733584395849  0.2507278914949255
  0.2501376779790193  0.2502733584395849  0.7492721085050748
  0.2502733584395849  0.7498623220209807  0.2507278914949255
  0.2502733584395849  0.7498623220209807  0.7492721085050748
  0.7497266415604148  0.2501376779790193  0.2507278914949255
  0.7497266415604148  0.2501376779790193  0.7492721085050748
  0.7498623220209807  0.7497266415604148  0.2507278914949255
  0.7498623220209807  0.7497266415604148  0.7492721085050748
 -0.0000000000000000  0.0000000000000000  0.2496055745637138
 -0.0000000000000000  0.0000000000000000  0.7503944254362861
 -0.0000000000000000  0.5000000000000000  0.2496859844076408
 -0.0000000000000000  0.5000000000000000  0.7503140155923591
  0.5000000000000000  0.0000000000000000  0.2496859844076408
  0.5000000000000000  0.0000000000000000  0.7503140155923591
  0.5000000000000000  0.5000000000000000  0.2442642231663695
  0.5000000000000000  0.5000000000000000  0.7557357768336304
  0.5000000000000000  0.5000000000000000  0.5000000000000000
  0.7502688299910373  0.7504351227419583  0.5000000000000000
  0.1104720008090474  0.1404137327480565  0.2490785667998474
  0.1104720008090474  0.1404137327480565  0.7509214332001526
  0.1105078223062273  0.6396589557835469  0.2504774458765884
  0.1105078223062273  0.6396589557835469  0.7495225541234117
  0.6097048105718512  0.1402881612499942  0.2496477860572680
  0.6097048105718512  0.1402881612499942  0.7503522139427322
  0.6072492140379019  0.6376302111998550  0.2589081827298327
  0.3927507859620983  0.3623697888001453  0.2589081827298327
  0.3927507859620983  0.3623697888001453  0.7410918172701674
  0.3902951894281487  0.8597118387500058  0.2496477860572680
  0.3902951894281487  0.8597118387500058  0.7503522139427322
  0.8894921776937730  0.3603410442164532  0.2504774458765884
  0.8894921776937730  0.3603410442164532  0.7495225541234117
  0.8895279991909526  0.8595862672519434  0.2490785667998474
  0.8895279991909526  0.8595862672519434  0.7509214332001526
  0.3603410442164532  0.1105078223062273  0.2504774458765884
  0.3603410442164532  0.1105078223062273  0.7495225541234117
  0.3623697888001453  0.6072492140379019  0.2589081827298327
  0.3623697888001453  0.6072492140379019  0.7410918172701674
  0.8595862672519434  0.1104720008090474  0.2490785667998474
  0.8595862672519434  0.1104720008090474  0.7509214332001526
  0.8597118387500058  0.6097048105718512  0.2496477860572680
  0.8597118387500058  0.6097048105718512  0.7503522139427322
  0.1402881612499942  0.3902951894281487  0.2496477860572680
  0.1402881612499942  0.3902951894281487  0.7503522139427322
  0.1404137327480565  0.8895279991909526  0.2490785667998474
  0.1404137327480565  0.8895279991909526  0.7509214332001526
  0.6376302111998550  0.3927507859620983  0.2589081827298327
  0.6396589557835469  0.8894921776937730  0.2504774458765884
  0.6396589557835469  0.8894921776937730  0.7495225541234117
  0.3592909424963409  0.3929209136735416 -0.0000000000000000
  0.3596526104033452  0.8903421647792806 -0.0000000000000000
  0.3604508521422996  0.8898288695760155  0.5000000000000000
  0.8590983631798870  0.3907852464601379 -0.0000000000000000
  0.8603145753771846  0.3898237702732958  0.5000000000000000
  0.8591783067601984  0.8890485651742345 -0.0000000000000000
  0.8601397175461477  0.8903062347997025  0.5000000000000000
  0.1408216932398016  0.1109514348257656 -0.0000000000000000
  0.1398602824538525  0.1096937652002972  0.5000000000000000
  0.1409016368201131  0.6092147535398621 -0.0000000000000000
  0.1396854246228154  0.6101762297267042  0.5000000000000000
  0.6403473895966549  0.1096578352207192 -0.0000000000000000
  0.6395491478577005  0.1101711304239842  0.5000000000000000
  0.6407090575036591  0.6070790863264584 -0.0000000000000000
  0.1096578352207192  0.3596526104033452 -0.0000000000000000
  0.1101711304239842  0.3604508521422996  0.5000000000000000
  0.1109514348257656  0.8591783067601984 -0.0000000000000000
  0.1096937652002972  0.8601397175461477  0.5000000000000000
  0.6070790863264584  0.3592909424963409 -0.0000000000000000
  0.6092147535398621  0.8590983631798870 -0.0000000000000000
  0.6101762297267042  0.8603145753771846  0.5000000000000000
  0.3907852464601379  0.1409016368201131 -0.0000000000000000
  0.3898237702732958  0.1396854246228154  0.5000000000000000
  0.3929209136735416  0.6407090575036591 -0.0000000000000000
  0.3916331687259892  0.6382007279627455  0.5000000000000000
  0.8890485651742345  0.1408216932398016 -0.0000000000000000
  0.8903062347997025  0.1398602824538525  0.5000000000000000
  0.8903421647792806  0.6403473895966549 -0.0000000000000000
 -0.0000000000000000  0.0000000000000000  0.1246945059073662
 -0.0000000000000000  0.0000000000000000  0.6253879850702116
 -0.0000000000000000  0.5000000000000000  0.1248842928152023
 -0.0000000000000000  0.5000000000000000  0.6250529147157552
  0.5000000000000000  0.0000000000000000  0.1248842928152023
  0.5000000000000000  0.0000000000000000  0.6250529147157552
  0.5000000000000000  0.5000000000000000  0.1265388621861178
 -0.0000000000000000  0.0000000000000000  0.3746120149297879
 -0.0000000000000000  0.0000000000000000  0.8753054940926341
 -0.0000000000000000  0.5000000000000000  0.3749470852842447
 -0.0000000000000000  0.5000000000000000  0.8751157071847980
  0.5000000000000000  0.0000000000000000  0.3749470852842447
  0.5000000000000000  0.0000000000000000  0.8751157071847980
  0.5000000000000000  0.5000000000000000  0.8734611378138823
  0.2480487020128009  0.2491887927105990  0.3757756427874813
  0.2546141997230461  0.2536397401221501  0.8740047388009623
  0.2491887927105990  0.7519512979871988  0.3757756427874813
  0.2536397401221501  0.7453858002769539  0.8740047388009623
  0.7508112072894011  0.2480487020128009  0.3757756427874813
  0.7463602598778500  0.2546141997230461  0.8740047388009623
  0.7519512979871988  0.7508112072894011  0.3757756427874813
  0.7453858002769539  0.7463602598778500  0.8740047388009623
  0.2546141997230461  0.2536397401221501  0.1259952611990378
  0.2480487020128009  0.2491887927105990  0.6242243572125186
  0.2536397401221501  0.7453858002769539  0.1259952611990378
  0.2491887927105990  0.7519512979871988  0.6242243572125186
  0.7463602598778500  0.2546141997230461  0.1259952611990378
  0.7508112072894011  0.2480487020128009  0.6242243572125186
  0.7453858002769539  0.7463602598778500  0.1259952611990378
  0.6376302111998550  0.3927507859620983  0.7410918172701674
  0.6072492140379019  0.6376302111998550  0.7410918172701674
  0.6083668312740109  0.3617992720372546  0.5000000000000000
  0.3617992720372546  0.3916331687259892  0.5000000000000000
  0.7519512979871988  0.7508112072894011  0.6242243572125186
  0.8898288695760155  0.6395491478577005  0.5000000000000000
  0.6382007279627455  0.6083668312740109  0.5000000000000000
 
  0.00000000E+00  0.00000000E+00  0.00000000E+00
  0.00000000E+00  0.00000000E+00  0.00000000E+00
  0.00000000E+00  0.00000000E+00  0.00000000E+00
  0.00000000E+00  0.00000000E+00  0.00000000E+00
  0.00000000E+00  0.00000000E+00  0.00000000E+00
  0.00000000E+00  0.00000000E+00  0.00000000E+00
  0.00000000E+00  0.00000000E+00  0.00000000E+00
  0.00000000E+00  0.00000000E+00  0.00000000E+00
  0.00000000E+00  0.00000000E+00  0.00000000E+00
  0.00000000E+00  0.00000000E+00  0.00000000E+00
  0.00000000E+00  0.00000000E+00  0.00000000E+00
  0.00000000E+00  0.00000000E+00  0.00000000E+00
  0.00000000E+00  0.00000000E+00  0.00000000E+00
  0.00000000E+00  0.00000000E+00  0.00000000E+00
  0.00000000E+00  0.00000000E+00  0.00000000E+00
  0.00000000E+00  0.00000000E+00  0.00000000E+00
  0.00000000E+00  0.00000000E+00  0.00000000E+00
  0.00000000E+00  0.00000000E+00  0.00000000E+00
  0.00000000E+00  0.00000000E+00  0.00000000E+00
  0.00000000E+00  0.00000000E+00  0.00000000E+00
  0.00000000E+00  0.00000000E+00  0.00000000E+00
  0.00000000E+00  0.00000000E+00  0.00000000E+00
  0.00000000E+00  0.00000000E+00  0.00000000E+00
  0.00000000E+00  0.00000000E+00  0.00000000E+00
  0.00000000E+00  0.00000000E+00  0.00000000E+00
  0.00000000E+00  0.00000000E+00  0.00000000E+00
  0.00000000E+00  0.00000000E+00  0.00000000E+00
  0.00000000E+00  0.00000000E+00  0.00000000E+00
  0.00000000E+00  0.00000000E+00  0.00000000E+00
  0.00000000E+00  0.00000000E+00  0.00000000E+00
  0.00000000E+00  0.00000000E+00  0.00000000E+00
  0.00000000E+00  0.00000000E+00  0.00000000E+00
  0.00000000E+00  0.00000000E+00  0.00000000E+00
  0.00000000E+00  0.00000000E+00  0.00000000E+00
  0.00000000E+00  0.00000000E+00  0.00000000E+00
  0.00000000E+00  0.00000000E+00  0.00000000E+00
  0.00000000E+00  0.00000000E+00  0.00000000E+00
  0.00000000E+00  0.00000000E+00  0.00000000E+00
  0.00000000E+00  0.00000000E+00  0.00000000E+00
  0.00000000E+00  0.00000000E+00  0.00000000E+00
  0.00000000E+00  0.00000000E+00  0.00000000E+00
  0.00000000E+00  0.00000000E+00  0.00000000E+00
  0.00000000E+00  0.00000000E+00  0.00000000E+00
  0.00000000E+00  0.00000000E+00  0.00000000E+00
  0.00000000E+00  0.00000000E+00  0.00000000E+00
  0.00000000E+00  0.00000000E+00  0.00000000E+00
  0.00000000E+00  0.00000000E+00  0.00000000E+00
  0.00000000E+00  0.00000000E+00  0.00000000E+00
  0.00000000E+00  0.00000000E+00  0.00000000E+00
  0.00000000E+00  0.00000000E+00  0.00000000E+00
  0.00000000E+00  0.00000000E+00  0.00000000E+00
  0.00000000E+00  0.00000000E+00  0.00000000E+00
  0.00000000E+00  0.00000000E+00  0.00000000E+00
  0.00000000E+00  0.00000000E+00  0.00000000E+00
  0.00000000E+00  0.00000000E+00  0.00000000E+00
  0.00000000E+00  0.00000000E+00  0.00000000E+00
  0.00000000E+00  0.00000000E+00  0.00000000E+00
  0.00000000E+00  0.00000000E+00  0.00000000E+00
  0.00000000E+00  0.00000000E+00  0.00000000E+00
  0.00000000E+00  0.00000000E+00  0.00000000E+00
  0.00000000E+00  0.00000000E+00  0.00000000E+00
  0.00000000E+00  0.00000000E+00  0.00000000E+00
  0.00000000E+00  0.00000000E+00  0.00000000E+00
  0.00000000E+00  0.00000000E+00  0.00000000E+00
  0.00000000E+00  0.00000000E+00  0.00000000E+00
  0.00000000E+00  0.00000000E+00  0.00000000E+00
  0.00000000E+00  0.00000000E+00  0.00000000E+00
  0.00000000E+00  0.00000000E+00  0.00000000E+00
  0.00000000E+00  0.00000000E+00  0.00000000E+00
  0.00000000E+00  0.00000000E+00  0.00000000E+00
  0.00000000E+00  0.00000000E+00  0.00000000E+00
  0.00000000E+00  0.00000000E+00  0.00000000E+00
  0.00000000E+00  0.00000000E+00  0.00000000E+00
  0.00000000E+00  0.00000000E+00  0.00000000E+00
  0.00000000E+00  0.00000000E+00  0.00000000E+00
  0.00000000E+00  0.00000000E+00  0.00000000E+00
  0.00000000E+00  0.00000000E+00  0.00000000E+00
  0.00000000E+00  0.00000000E+00  0.00000000E+00
  0.00000000E+00  0.00000000E+00  0.00000000E+00
  0.00000000E+00  0.00000000E+00  0.00000000E+00
  0.00000000E+00  0.00000000E+00  0.00000000E+00
  0.00000000E+00  0.00000000E+00  0.00000000E+00
  0.00000000E+00  0.00000000E+00  0.00000000E+00
  0.00000000E+00  0.00000000E+00  0.00000000E+00
  0.00000000E+00  0.00000000E+00  0.00000000E+00
  0.00000000E+00  0.00000000E+00  0.00000000E+00
  0.00000000E+00  0.00000000E+00  0.00000000E+00
  0.00000000E+00  0.00000000E+00  0.00000000E+00
  0.00000000E+00  0.00000000E+00  0.00000000E+00
  0.00000000E+00  0.00000000E+00  0.00000000E+00
  0.00000000E+00  0.00000000E+00  0.00000000E+00
  0.00000000E+00  0.00000000E+00  0.00000000E+00
  0.00000000E+00  0.00000000E+00  0.00000000E+00
  0.00000000E+00  0.00000000E+00  0.00000000E+00
  0.00000000E+00  0.00000000E+00  0.00000000E+00
  0.00000000E+00  0.00000000E+00  0.00000000E+00
  0.00000000E+00  0.00000000E+00  0.00000000E+00
  0.00000000E+00  0.00000000E+00  0.00000000E+00
  0.00000000E+00  0.00000000E+00  0.00000000E+00
  0.00000000E+00  0.00000000E+00  0.00000000E+00
  0.00000000E+00  0.00000000E+00  0.00000000E+00
  0.00000000E+00  0.00000000E+00  0.00000000E+00
  0.00000000E+00  0.00000000E+00  0.00000000E+00
  0.00000000E+00  0.00000000E+00  0.00000000E+00
  0.00000000E+00  0.00000000E+00  0.00000000E+00
  0.00000000E+00  0.00000000E+00  0.00000000E+00
  0.00000000E+00  0.00000000E+00  0.00000000E+00
  0.00000000E+00  0.00000000E+00  0.00000000E+00
  0.00000000E+00  0.00000000E+00  0.00000000E+00
  0.00000000E+00  0.00000000E+00  0.00000000E+00
  0.00000000E+00  0.00000000E+00  0.00000000E+00
  0.00000000E+00  0.00000000E+00  0.00000000E+00
  0.00000000E+00  0.00000000E+00  0.00000000E+00
  0.00000000E+00  0.00000000E+00  0.00000000E+00
  0.00000000E+00  0.00000000E+00  0.00000000E+00
  0.00000000E+00  0.00000000E+00  0.00000000E+00
  0.00000000E+00  0.00000000E+00  0.00000000E+00
  0.00000000E+00  0.00000000E+00  0.00000000E+00
  0.00000000E+00  0.00000000E+00  0.00000000E+00
  0.00000000E+00  0.00000000E+00  0.00000000E+00
  0.00000000E+00  0.00000000E+00  0.00000000E+00
  0.00000000E+00  0.00000000E+00  0.00000000E+00
  0.00000000E+00  0.00000000E+00  0.00000000E+00
  0.00000000E+00  0.00000000E+00  0.00000000E+00
  0.00000000E+00  0.00000000E+00  0.00000000E+00
  0.00000000E+00  0.00000000E+00  0.00000000E+00
  0.00000000E+00  0.00000000E+00  0.00000000E+00
  0.00000000E+00  0.00000000E+00  0.00000000E+00
  0.00000000E+00  0.00000000E+00  0.00000000E+00
  0.00000000E+00  0.00000000E+00  0.00000000E+00
  0.00000000E+00  0.00000000E+00  0.00000000E+00
  0.00000000E+00  0.00000000E+00  0.00000000E+00
  0.00000000E+00  0.00000000E+00  0.00000000E+00
  0.00000000E+00  0.00000000E+00  0.00000000E+00
  0.00000000E+00  0.00000000E+00  0.00000000E+00
  0.00000000E+00  0.00000000E+00  0.00000000E+00
  0.00000000E+00  0.00000000E+00  0.00000000E+00
  0.00000000E+00  0.00000000E+00  0.00000000E+00
  0.00000000E+00  0.00000000E+00  0.00000000E+00
  0.00000000E+00  0.00000000E+00  0.00000000E+00
  0.00000000E+00  0.00000000E+00  0.00000000E+00
  0.00000000E+00  0.00000000E+00  0.00000000E+00
  0.00000000E+00  0.00000000E+00  0.00000000E+00
  0.00000000E+00  0.00000000E+00  0.00000000E+00
  0.00000000E+00  0.00000000E+00  0.00000000E+00
  0.00000000E+00  0.00000000E+00  0.00000000E+00
  0.00000000E+00  0.00000000E+00  0.00000000E+00
  0.00000000E+00  0.00000000E+00  0.00000000E+00
  0.00000000E+00  0.00000000E+00  0.00000000E+00
  0.00000000E+00  0.00000000E+00  0.00000000E+00
  0.00000000E+00  0.00000000E+00  0.00000000E+00
  0.00000000E+00  0.00000000E+00  0.00000000E+00
  0.00000000E+00  0.00000000E+00  0.00000000E+00
  0.00000000E+00  0.00000000E+00  0.00000000E+00
  0.00000000E+00  0.00000000E+00  0.00000000E+00
  0.00000000E+00  0.00000000E+00  0.00000000E+00
  0.00000000E+00  0.00000000E+00  0.00000000E+00
  0.00000000E+00  0.00000000E+00  0.00000000E+00
