Sr   Ti   O                             
   1.00000000000000     
    11.1989999999999998    0.0000000000000000    0.0000000000000000
     0.0000000000000000   11.1989999999999998    0.0000000000000000
     0.0000000000000000    0.0000000000000000   15.9830000000000005
   Sr   Ti   O 
    32    32    94
Direct
 -0.0000274397129228  0.2491946285016985  0.1249736945887129
  0.0006479758065341  0.2474164188249581  0.6242090588717586
  0.9992841230240557  0.7512872153593626  0.1249932194958342
  0.0005338900877407  0.7511805771828864  0.6259514907541036
  0.4997814072070415  0.2486252889869389  0.1245469678743790
  0.5021713882853333  0.2400623560588557  0.6232965930855960
  0.5011269648182899  0.7524170541725684  0.1241111131490539
  0.4976054755309276  0.7585490565012711  0.6285043731708824
  0.0002366793635709  0.2477917388656441  0.3752772616917485
  0.0002925778442260  0.2501706112544706  0.8745622169512239
  0.9985968413926350  0.7501749465399395  0.3759085238291990
  0.0007061266101563  0.7504055029271207  0.8750282804082179
  0.5010091214420005  0.2402077639846245  0.3731503286627141
  0.5001161797767134  0.2479530980839354  0.8749941805996916
  0.4964384538239051  0.7577086228825991  0.3704399062963468
  0.5014920123495994  0.7557394237196270  0.8772445585194490
  0.2503984272974786  0.0007427542328513  0.1245525164187093
  0.2487117768593697  0.0000547694815102  0.6240705859707502
  0.2481228135469458  0.5011976189852658  0.1248076187361806
  0.2400428910605163  0.4988648557838368  0.6252371638900804
  0.7499961663637755  0.9988014153084754  0.1246120227327828
  0.7524458788657893  0.0007752574856310  0.6250662604957826
  0.7517318883317902  0.5004679687253375  0.1239866478048633
  0.7674338441424303  0.4947417181923686  0.6291531398277341
  0.2478061430080473  0.9998234349989173  0.3740340087126020
  0.2505748165519925  0.0009294861635824  0.8741947932941672
  0.2413754095601173  0.5004007399011373  0.3755051424754661
  0.2479926614508131  0.5009391137984541  0.8760206300130949
  0.7516381497491496  0.9998776198446517  0.3729465638194752
  0.7524075165266221  1.0002989533833142  0.8755593400726618
  0.7612926664951523  0.4954243716218533  0.3710872500929520
  0.7538661775421696  0.5019572907829788  0.8751696166315902
  0.0008005838187747  0.0006861574062912 -0.0001793100722752
  0.9992956905632039  0.9991385952649080  0.4994843021478280
  1.0003941801700826  0.4999129307518149  0.0000571854601276
  0.9993834510875038  0.4987181838657542  0.4996855659104258
  0.5004085832639500  0.0010735812948193  0.9998223702015808
  0.4995837851630539  0.9981148103744669  0.4994282833845449
  0.4997565930180012  0.4999793909190491  0.0016364317112427
  0.2511868402827075  0.2512989205184296  0.9999536233164643
  0.2492347256351761  0.2481519364781978  0.4994668836077310
  0.2509606773160477  0.7496337829289854 -0.0002265815945833
  0.2496361289481365  0.7504771512152885  0.4986363659395225
  0.7498980762381160  0.2511455527816657  0.9997053813975569
  0.7499149201382301  0.2487979712005014  0.4984539410442754
  0.7508505874690531  0.7505094251181188  0.0001854922491806
  0.2500924352169115  0.2505659868621298  0.2505820884928697
  0.2514893103814123  0.2510727848138306  0.7483712154913281
  0.2488015197835551  0.7502224209644365  0.2498514606592311
  0.2515239672899361  0.7503141808544155  0.7490769586908721
  0.7502714975993461  0.2490174427920709  0.2494555518385289
  0.7499373832920301  0.2503458552620957  0.7493935483703007
  0.7491811251439510  0.7483709015679966  0.2519002125890713
  0.7511393206069766  0.7519467134128279  0.7501819578275630
  1.0002988934593009  0.9997241241489730  0.2492173457316896
  0.0010714646694491  1.0001688216808133  0.7501800156939392
  1.0006084183935477  0.4999117412733023  0.2485778768701823
  0.0017717998347758  0.5001264879061788  0.7511281916942947
  0.4998700555189849  0.9997142294503660  0.2485514990387409
  0.5010058589974096  0.0011597524344503  0.7505996594700656
  0.5002087130747296  0.5003523841564168  0.2477264261013273
  0.5025663420807934  0.5026325073204684  0.7574941837401138
  0.4965298107255033  0.4974115049348174  0.4983133838723428
  0.7496720039702144  0.7529044378783859  0.5030081379089201
  0.1109116754925314  0.1410453825956066  0.2483957238641705
  0.1123035566185206  0.1412597709153679  0.7519394458209850
  0.1099067226487152  0.6398897736021093  0.2492274084708214
  0.1136579483734759  0.6387496487516092  0.7493169000579735
  0.6105864000495452  0.1390364991219956  0.2483240104901314
  0.6098222214382980  0.1423405553952345  0.7499264844958823
  0.6073637436137395  0.6381380694531309  0.2511019733408513
  0.3914582643056249  0.3624597386530972  0.2578189726275771
  0.3936773708566057  0.3663533136649285  0.7346516745515269
  0.3889848687137925  0.8608865038117364  0.2479436998742307
  0.3896693512095011  0.8627444765053073  0.7518118478268597
  0.8894631881501739  0.3606550061819002  0.2509897156788334
  0.8899917033106262  0.3614382078994755  0.7482615805029338
  0.8895566079255636  0.8600297925044094  0.2506368545882164
  0.8929083001967347  0.8622710291159089  0.7533141887785294
  0.3611294765713133  0.1114038672371063  0.2504490192922229
  0.3621176795024876  0.1132335381305726  0.7491241229361553
  0.3615145194320701  0.6093641426110501  0.2585031990583788
  0.3668870326493056  0.6101996048203175  0.7379814866535169
  0.8603146433911497  0.1097208355109184  0.2462793010805093
  0.8605472117480689  0.1121183063438192  0.7496679961329646
  0.8603861779138817  0.6089282317460665  0.2472862494496688
  0.8638691411515826  0.6120260505573671  0.7518052868961059
  0.1404300208412903  0.3905685447878555  0.2495155103115653
  0.1415795411658494  0.3904702363542525  0.7511261386712820
  0.1398052787458179  0.8903558788565642  0.2458983936232071
  0.1416063145160374  0.8895491685408885  0.7500597953217235
  0.6384380999680880  0.3903955071497571  0.2566004895096392
  0.6387333335485867  0.8889564187729629  0.2492814943457921
  0.6405774857539641  0.8928249191191044  0.7518926909528760
  0.3585050340297687  0.3929059861918179  0.0014686550129389
  0.3600435413133656  0.8906968928741388  0.9991110497919901
  0.3583580112934306  0.8904086673478259  0.4994550729698238
  0.8592197749026450  0.3915323454910319  0.9995271635967869
  0.8629252581807360  0.3846933936621778  0.4985313593324162
  0.8607599492498202  0.8910101525503380  0.0012157473156873
  0.8616105827844114  0.8920013076281204  0.4963012870489984
  0.1424497418330399  0.1112145873556819 -0.0008096870506595
  0.1401308384722817  0.1095437852092436  0.4991851394202273
  0.1409799694356842  0.6092015029090923  0.9993330360181950
  0.1335719941073232  0.6133881002214526  0.4991555119162959
  0.6410964059665449  0.1104081227098301 -0.0000989702977188
  0.6399080240659514  0.1073905005877019  0.4994398737703778
  0.6398168651842278  0.6084623489088495  0.9973725855594994
  0.1098590187076087  0.3589583355258858  0.9993166903120773
  0.1107738017196664  0.3609205598645744  0.4991391603196994
  0.1112897797671134  0.8593985902032810  0.9991560996602805
  0.1082903833369101  0.8601508130393610  0.5006655136107649
  0.6077733838617031  0.3599770796989642  0.9991482877854219
  0.6099740317838029  0.8606633287479670  0.0002697702840119
  0.6032756672725889  0.8528546931565341  0.5000449454486054
  0.3914390389662777  0.1419817437074055  0.9999350003068787
  0.3900895818415139  0.1389565212274388  0.4995936263363605
  0.3927008863887340  0.6407315915966610  0.9995754320674004
  0.3844723939823494  0.6354494696198035  0.4880508163631823
  0.8903100175474089  0.1417352333028732  0.9992817151453431
  0.8900663223182214  0.1387831853134150  0.5010183417772502
  0.8910055444391030  0.6401804412990383  0.0003771478562321
  0.0013878709977718  1.0010358348915731  0.1237109043297392
  1.0010758485247393  1.0006962674852065  0.6258364576801574
  1.0013050606430176  0.4983493645755380  0.1243869003264816
  0.0035918649216444  0.4991543430349896  0.6251382244937710
  0.4992820954629182  1.0009017724851412  0.1243194017621923
  0.5006487858338601  0.0009488963234699  0.6249326449628548
  0.4993970234830409  0.4989319569076753  0.1249581998234766
  0.0024739183174650  0.0023955932614325  0.3731978060099460
  0.0017116143207375  0.0020452104390599  0.8754694304273035
  0.9995461929804297  0.5018060192598476  0.3744686241322593
  1.0007705719261861  0.4991686468824229  0.8750809506368676
  0.5004657605790473  0.9989737476161119  0.3743262546343151
  0.5000936832645834  0.0025051297478428  0.8752346976647915
  0.4920943700784466  0.4942123326811781  0.8737907597316008
  0.2481097216253983  0.2491013424486706  0.3750958125957305
  0.2582725115062376  0.2559067191256930  0.8734372070508181
  0.2431205096851647  0.7573585374378787  0.3736728648285793
  0.2546970670910458  0.7444617539132046  0.8733534656346883
  0.7542248289330585  0.2427670274807091  0.3738948631669297
  0.7480424428144776  0.2546127659033585  0.8735627754846340
  0.7452656005031507  0.7413938889734405  0.3729835173782172
  0.7527988784196614  0.7528802122770548  0.8767232558581404
  0.2541199703005685  0.2528809634456572  0.1254958227535203
  0.2452962453390073  0.2472949053318379  0.6240520321476446
  0.2531799270736991  0.7451594805828757  0.1247570197086055
  0.2509450127149231  0.7506525673626588  0.6232471932859989
  0.7478884127805057  0.2549021099596316  0.1248470363363496
  0.7470581710734203  0.2504900936261608  0.6233873955739826
  0.7477246935587817  0.7482521169144898  0.1244310765599781
  0.6387350395350448  0.3945742924168635  0.7437511318174879
  0.6101087617049291  0.6412176943644969  0.7566251761784197
  0.6095428454606320  0.3610754154115636  0.4897172829358957
  0.3591503432906068  0.3885633281652366  0.5003481795406908
  0.7547922580645399  0.7575664661950021  0.6306263669128680
  0.8764891699382403  0.6284923204844851  0.5023487881599094
  0.5877571900514000  0.5775290020836082  0.5768314888526808
 
  0.00000000E+00  0.00000000E+00  0.00000000E+00
  0.00000000E+00  0.00000000E+00  0.00000000E+00
  0.00000000E+00  0.00000000E+00  0.00000000E+00
  0.00000000E+00  0.00000000E+00  0.00000000E+00
  0.00000000E+00  0.00000000E+00  0.00000000E+00
  0.00000000E+00  0.00000000E+00  0.00000000E+00
  0.00000000E+00  0.00000000E+00  0.00000000E+00
  0.00000000E+00  0.00000000E+00  0.00000000E+00
  0.00000000E+00  0.00000000E+00  0.00000000E+00
  0.00000000E+00  0.00000000E+00  0.00000000E+00
  0.00000000E+00  0.00000000E+00  0.00000000E+00
  0.00000000E+00  0.00000000E+00  0.00000000E+00
  0.00000000E+00  0.00000000E+00  0.00000000E+00
  0.00000000E+00  0.00000000E+00  0.00000000E+00
  0.00000000E+00  0.00000000E+00  0.00000000E+00
  0.00000000E+00  0.00000000E+00  0.00000000E+00
  0.00000000E+00  0.00000000E+00  0.00000000E+00
  0.00000000E+00  0.00000000E+00  0.00000000E+00
  0.00000000E+00  0.00000000E+00  0.00000000E+00
  0.00000000E+00  0.00000000E+00  0.00000000E+00
  0.00000000E+00  0.00000000E+00  0.00000000E+00
  0.00000000E+00  0.00000000E+00  0.00000000E+00
  0.00000000E+00  0.00000000E+00  0.00000000E+00
  0.00000000E+00  0.00000000E+00  0.00000000E+00
  0.00000000E+00  0.00000000E+00  0.00000000E+00
  0.00000000E+00  0.00000000E+00  0.00000000E+00
  0.00000000E+00  0.00000000E+00  0.00000000E+00
  0.00000000E+00  0.00000000E+00  0.00000000E+00
  0.00000000E+00  0.00000000E+00  0.00000000E+00
  0.00000000E+00  0.00000000E+00  0.00000000E+00
  0.00000000E+00  0.00000000E+00  0.00000000E+00
  0.00000000E+00  0.00000000E+00  0.00000000E+00
  0.00000000E+00  0.00000000E+00  0.00000000E+00
  0.00000000E+00  0.00000000E+00  0.00000000E+00
  0.00000000E+00  0.00000000E+00  0.00000000E+00
  0.00000000E+00  0.00000000E+00  0.00000000E+00
  0.00000000E+00  0.00000000E+00  0.00000000E+00
  0.00000000E+00  0.00000000E+00  0.00000000E+00
  0.00000000E+00  0.00000000E+00  0.00000000E+00
  0.00000000E+00  0.00000000E+00  0.00000000E+00
  0.00000000E+00  0.00000000E+00  0.00000000E+00
  0.00000000E+00  0.00000000E+00  0.00000000E+00
  0.00000000E+00  0.00000000E+00  0.00000000E+00
  0.00000000E+00  0.00000000E+00  0.00000000E+00
  0.00000000E+00  0.00000000E+00  0.00000000E+00
  0.00000000E+00  0.00000000E+00  0.00000000E+00
  0.00000000E+00  0.00000000E+00  0.00000000E+00
  0.00000000E+00  0.00000000E+00  0.00000000E+00
  0.00000000E+00  0.00000000E+00  0.00000000E+00
  0.00000000E+00  0.00000000E+00  0.00000000E+00
  0.00000000E+00  0.00000000E+00  0.00000000E+00
  0.00000000E+00  0.00000000E+00  0.00000000E+00
  0.00000000E+00  0.00000000E+00  0.00000000E+00
  0.00000000E+00  0.00000000E+00  0.00000000E+00
  0.00000000E+00  0.00000000E+00  0.00000000E+00
  0.00000000E+00  0.00000000E+00  0.00000000E+00
  0.00000000E+00  0.00000000E+00  0.00000000E+00
  0.00000000E+00  0.00000000E+00  0.00000000E+00
  0.00000000E+00  0.00000000E+00  0.00000000E+00
  0.00000000E+00  0.00000000E+00  0.00000000E+00
  0.00000000E+00  0.00000000E+00  0.00000000E+00
  0.00000000E+00  0.00000000E+00  0.00000000E+00
  0.00000000E+00  0.00000000E+00  0.00000000E+00
  0.00000000E+00  0.00000000E+00  0.00000000E+00
  0.00000000E+00  0.00000000E+00  0.00000000E+00
  0.00000000E+00  0.00000000E+00  0.00000000E+00
  0.00000000E+00  0.00000000E+00  0.00000000E+00
  0.00000000E+00  0.00000000E+00  0.00000000E+00
  0.00000000E+00  0.00000000E+00  0.00000000E+00
  0.00000000E+00  0.00000000E+00  0.00000000E+00
  0.00000000E+00  0.00000000E+00  0.00000000E+00
  0.00000000E+00  0.00000000E+00  0.00000000E+00
  0.00000000E+00  0.00000000E+00  0.00000000E+00
  0.00000000E+00  0.00000000E+00  0.00000000E+00
  0.00000000E+00  0.00000000E+00  0.00000000E+00
  0.00000000E+00  0.00000000E+00  0.00000000E+00
  0.00000000E+00  0.00000000E+00  0.00000000E+00
  0.00000000E+00  0.00000000E+00  0.00000000E+00
  0.00000000E+00  0.00000000E+00  0.00000000E+00
  0.00000000E+00  0.00000000E+00  0.00000000E+00
  0.00000000E+00  0.00000000E+00  0.00000000E+00
  0.00000000E+00  0.00000000E+00  0.00000000E+00
  0.00000000E+00  0.00000000E+00  0.00000000E+00
  0.00000000E+00  0.00000000E+00  0.00000000E+00
  0.00000000E+00  0.00000000E+00  0.00000000E+00
  0.00000000E+00  0.00000000E+00  0.00000000E+00
  0.00000000E+00  0.00000000E+00  0.00000000E+00
  0.00000000E+00  0.00000000E+00  0.00000000E+00
  0.00000000E+00  0.00000000E+00  0.00000000E+00
  0.00000000E+00  0.00000000E+00  0.00000000E+00
  0.00000000E+00  0.00000000E+00  0.00000000E+00
  0.00000000E+00  0.00000000E+00  0.00000000E+00
  0.00000000E+00  0.00000000E+00  0.00000000E+00
  0.00000000E+00  0.00000000E+00  0.00000000E+00
  0.00000000E+00  0.00000000E+00  0.00000000E+00
  0.00000000E+00  0.00000000E+00  0.00000000E+00
  0.00000000E+00  0.00000000E+00  0.00000000E+00
  0.00000000E+00  0.00000000E+00  0.00000000E+00
  0.00000000E+00  0.00000000E+00  0.00000000E+00
  0.00000000E+00  0.00000000E+00  0.00000000E+00
  0.00000000E+00  0.00000000E+00  0.00000000E+00
  0.00000000E+00  0.00000000E+00  0.00000000E+00
  0.00000000E+00  0.00000000E+00  0.00000000E+00
  0.00000000E+00  0.00000000E+00  0.00000000E+00
  0.00000000E+00  0.00000000E+00  0.00000000E+00
  0.00000000E+00  0.00000000E+00  0.00000000E+00
  0.00000000E+00  0.00000000E+00  0.00000000E+00
  0.00000000E+00  0.00000000E+00  0.00000000E+00
  0.00000000E+00  0.00000000E+00  0.00000000E+00
  0.00000000E+00  0.00000000E+00  0.00000000E+00
  0.00000000E+00  0.00000000E+00  0.00000000E+00
  0.00000000E+00  0.00000000E+00  0.00000000E+00
  0.00000000E+00  0.00000000E+00  0.00000000E+00
  0.00000000E+00  0.00000000E+00  0.00000000E+00
  0.00000000E+00  0.00000000E+00  0.00000000E+00
  0.00000000E+00  0.00000000E+00  0.00000000E+00
  0.00000000E+00  0.00000000E+00  0.00000000E+00
  0.00000000E+00  0.00000000E+00  0.00000000E+00
  0.00000000E+00  0.00000000E+00  0.00000000E+00
  0.00000000E+00  0.00000000E+00  0.00000000E+00
  0.00000000E+00  0.00000000E+00  0.00000000E+00
  0.00000000E+00  0.00000000E+00  0.00000000E+00
  0.00000000E+00  0.00000000E+00  0.00000000E+00
  0.00000000E+00  0.00000000E+00  0.00000000E+00
  0.00000000E+00  0.00000000E+00  0.00000000E+00
  0.00000000E+00  0.00000000E+00  0.00000000E+00
  0.00000000E+00  0.00000000E+00  0.00000000E+00
  0.00000000E+00  0.00000000E+00  0.00000000E+00
  0.00000000E+00  0.00000000E+00  0.00000000E+00
  0.00000000E+00  0.00000000E+00  0.00000000E+00
  0.00000000E+00  0.00000000E+00  0.00000000E+00
  0.00000000E+00  0.00000000E+00  0.00000000E+00
  0.00000000E+00  0.00000000E+00  0.00000000E+00
  0.00000000E+00  0.00000000E+00  0.00000000E+00
  0.00000000E+00  0.00000000E+00  0.00000000E+00
  0.00000000E+00  0.00000000E+00  0.00000000E+00
  0.00000000E+00  0.00000000E+00  0.00000000E+00
  0.00000000E+00  0.00000000E+00  0.00000000E+00
  0.00000000E+00  0.00000000E+00  0.00000000E+00
  0.00000000E+00  0.00000000E+00  0.00000000E+00
  0.00000000E+00  0.00000000E+00  0.00000000E+00
  0.00000000E+00  0.00000000E+00  0.00000000E+00
  0.00000000E+00  0.00000000E+00  0.00000000E+00
  0.00000000E+00  0.00000000E+00  0.00000000E+00
  0.00000000E+00  0.00000000E+00  0.00000000E+00
  0.00000000E+00  0.00000000E+00  0.00000000E+00
  0.00000000E+00  0.00000000E+00  0.00000000E+00
  0.00000000E+00  0.00000000E+00  0.00000000E+00
  0.00000000E+00  0.00000000E+00  0.00000000E+00
  0.00000000E+00  0.00000000E+00  0.00000000E+00
  0.00000000E+00  0.00000000E+00  0.00000000E+00
  0.00000000E+00  0.00000000E+00  0.00000000E+00
  0.00000000E+00  0.00000000E+00  0.00000000E+00
  0.00000000E+00  0.00000000E+00  0.00000000E+00
  0.00000000E+00  0.00000000E+00  0.00000000E+00
  0.00000000E+00  0.00000000E+00  0.00000000E+00
  0.00000000E+00  0.00000000E+00  0.00000000E+00
  0.00000000E+00  0.00000000E+00  0.00000000E+00
