SrTiFeO                                 
   1.00000000000000     
    11.1989999999999998    0.0000000000000000    0.0000000000000000
     0.0000000000000000   11.1989999999999998    0.0000000000000000
     0.0000000000000000    0.0000000000000000   15.9830000000000005
   Sr   Ti   O 
    32    32    94
Direct
  0.9998389710314282  0.2497694367655085  0.1250014284147495
  0.0015882233415438  0.2497963715220795  0.6253066283668142
  0.9993538946502488  0.7502331809621889  0.1252861554546486
  0.0022474778180014  0.7488530987792383  0.6258124923227291
  0.4992715164554355  0.2483220019556919  0.1237732234827071
  0.5006343503642284  0.2498124179833786  0.6249571118411719
  0.5000649083436591  0.7518972874414195  0.1233740803354370
  0.4990461062512798  0.7526048000094134  0.6280450193669539
  0.0011294161554004  0.2486869351645193  0.3751176248386585
  0.9999258297809966  0.2500764558202120  0.8751542518925056
  0.0021058991721353  0.7496135737742388  0.3748843831229836
  0.9995322480450949  0.7499262550216383  0.8749738982420859
  0.5012636502715883  0.2428388709556296  0.3743860756564942
  0.4997665920364453  0.2499563043699824  0.8745148644771940
  0.4987767115658352  0.7612881345753021  0.3710684052147097
  0.4991849194852446  0.7511366099511174  0.8756398670249945
  0.2498309862216617  0.9997791116589867  0.1250242918408480
  0.2504730348347718  0.0010278258383107  0.6254527693647394
  0.2482025163026607  0.5003162624591776  0.1237015768645214
  0.2492447587810451  0.4987968234026115  0.6257576656747557
  0.7493062728815710  0.9994507845820508  0.1248445894338094
  0.7497447202770711  0.0035963891446400  0.6260132584419068
  0.7517329213398933  0.4996187117944255  0.1236936129347015
  0.7555337294911290  0.4969029530267900  0.6287472139232798
  0.2490732274111322  0.0011472015014353  0.3744030502738491
  0.2497286729858618  0.9998742133521955  0.8749878717709775
  0.2425062626703928  0.4990545171596439  0.3742940854837503
  0.2499910270278158  0.4997668119693472  0.8749962111203338
  0.7514293768061144  0.0027537673875520  0.3737085283635392
  0.7496871633542233  0.9996928860720390  0.8751857456772322
  0.7617973060341383  0.4964315330245136  0.3725861928667917
  0.7503417549185800  0.5007111248215095  0.8751836870569286
  0.9996321184627920  0.9996084705196533  0.0003585154128348
  0.0030659881315565  0.0018123689641727  0.5007055847211610
  0.9999751190741508  0.4997399802654546  0.9997586363585397
  0.0008541686322971  0.4990608069629754  0.5005705509142363
  0.4999853711076858  0.0002443539470630  0.9996724766058606
  0.4993257388140507  0.9999000079940442  0.5004098873033413
  0.4996152191419104  0.4996390118882452  0.9972633556473188
  0.2501227689164525  0.2502546024161241  0.9999526319811679
  0.2513102690858156  0.2512853143850151  0.4996313797361758
  0.2499145129869310  0.7497211671353887  0.9999569103719885
  0.2510599165818457  0.7510284236666063  0.4992612650149053
  0.7497844664710952  0.2501770376399821  0.9999576521250045
  0.7516295902033681  0.2503043059817174  0.4992092385257146
  0.7499101121870775  0.7501063254169662  0.9999149430825254
  0.2502037341697672  0.2500030925330415  0.2503451179163542
  0.2508431612285347  0.2500812237225141  0.7499649318895624
  0.2499331804498691  0.7500015414544771  0.2500975886398114
  0.2506393458001035  0.7495084341954468  0.7501314984713541
  0.7503587889156544  0.2498331059470087  0.2500272014914761
  0.7496828718519171  0.2504749564731184  0.7504642481659635
  0.7494589481931219  0.7488697544933497  0.2506692891950944
  0.7492635808035317  0.7493993484168562  0.7500835347707264
  0.9999581215279465  0.9998293315210444  0.2496723365023929
  0.0000288723506044  0.9998919671984901  0.7497034878807636
  0.0007929947002368  0.4999700512227332  0.2489575215552456
  0.0010296608339153  0.4999602526211709  0.7505703514539404
  0.5000191700247553  0.0007937881171090  0.2490244071932487
  0.5001690047637168  0.0004878860165987  0.7501446943861664
  0.4999649856214567  0.5000282326205513  0.2454523273609629
  0.5008759654881029  0.5006050686587084  0.7491248945843447
  0.4989066335863336  0.5012131907455577  0.4995929311987234
  0.7538364488292794  0.7564308140400391  0.5002138091835115
  0.1094984220608688  0.1393135963857400  0.2479163129136675
  0.1092030247854062  0.1399533597102949  0.7510523693631094
  0.1102329409999604  0.6396939729044326  0.2499644827184882
  0.1096899550651488  0.6407872529839846  0.7499845173614438
  0.6102355049154422  0.1400546494760125  0.2495141771291407
  0.6090957445077050  0.1413069263503547  0.7495929244036726
  0.6076731510031884  0.6380884825820742  0.2544444818510702
  0.3910336279485396  0.3612827759983004  0.2577765304959768
  0.3912107100799789  0.3589155525335223  0.7486942149057272
  0.3889885849833718  0.8609177867574029  0.2484034101987952
  0.3903216070556441  0.8597918582818879  0.7503986875307855
  0.8894349229859677  0.3606008842951218  0.2510893844172449
  0.8904375381223175  0.3595823542726644  0.7485648658607670
  0.8886402967136267  0.8588585229862561  0.2531750389438321
  0.8895293261189032  0.8589185261252068  0.7464103278908627
  0.3605011524905674  0.1105843652817166  0.2498851362733983
  0.3594455411236046  0.1093305038974130  0.7502103415150687
  0.3613747630010144  0.6088115523309163  0.2575425923110724
  0.3591743625509849  0.6089026050554519  0.7505079883954767
  0.8596835281093959  0.1092857215322188  0.2477474442941831
  0.8589317337619431  0.1097908302437544  0.7487540863189865
  0.8598667791270890  0.6097271991602007  0.2490099980373645
  0.8596278842297886  0.6094346513199501  0.7505380064318931
  0.1399823465571275  0.3898155095074659  0.2493094052747105
  0.1410445257189125  0.3906511806259003  0.7501623918747838
  0.1390678487163380  0.8895875973262132  0.2484948766755831
  0.1402080444249371  0.8897401726789783  0.7486007349965574
  0.6382237342813147  0.3910861152609493  0.2578330614551201
  0.6392909516244145  0.8889915537954503  0.2517805393374314
  0.6408579806146919  0.8907532617307864  0.7486189159540301
  0.3587790991170782  0.3910093913490291  0.0001183378833699
  0.3593887669697678  0.8904583023017590  0.0006126336115872
  0.3571949737084423  0.8930904100519237  0.4997890054122966
  0.8591291401277833  0.3906376737305863  0.9998211800004342
  0.8624258120309140  0.3884996538146053  0.5003010951110072
  0.8589018016888813  0.8904382826299533  0.0012552034446615
  0.8581654548277030  0.8925792843422831  0.5010071486125178
  0.1402494998574563  0.1091608025111804  0.0009459010943360
  0.1406354476745142  0.1083355578454070  0.5009761937695205
  0.1405768748536839  0.6091420360487521  0.9997034819506140
  0.1408048279954071  0.6100385035213238  0.4998779810612247
  0.6408202208541136  0.1096130069608758  0.0006191172178209
  0.6391288115042352  0.1117174091206687  0.4996156619621199
  0.6403040700263112  0.6090934050034302  0.9997796171121378
  0.1093026102143257  0.3590052430569459  0.0006349850264892
  0.1090800264161848  0.3592618651906690  0.4998991276083291
  0.1093959868680702  0.8591045631210041  0.0008764117260376
  0.1076688534300949  0.8581779618536787  0.5013859616321035
  0.6088203567274543  0.3592708532521165  0.9996487169687304
  0.6093744460386221  0.8592069627523164  0.0000262031895138
  0.6066108816623911  0.8552563376776273  0.5003183879272886
  0.3906781724723943  0.1405685968344617  0.9998588262085244
  0.3911315064317820  0.1412598729526941  0.5002007418688881
  0.3909398449043525  0.6405313803027310  0.9998419671493917
  0.3975703411918591  0.6451341190727344  0.4911006384070826
  0.8904985036290434  0.1406038287720239  0.0010172392135923
  0.8905220907287357  0.1402668804984279  0.5017916132135790
  0.8902454362349010  0.6405610783975816  0.0007523967516209
  0.9982951301499776  0.9975302671292020  0.1251139954629659
  0.0003327929368903  0.0008523835211554  0.6250899881427251
  0.9998961339197433  0.4993750215418533  0.1248676136635189
  0.0010967975715512  0.5011267278375728  0.6250595839724485
  0.5010054819875371  0.9999921137466037  0.1249092607306603
  0.4999661401187481  0.0004674867849246  0.6247846036330580
  0.4985023479525260  0.4982028819063060  0.1248619109345961
  0.0000906980681537  0.0010168389258856  0.3752789474243149
  0.9982223113552543  0.9978905680044515  0.8749299958746932
  0.0004954455815354  0.5010181729310572  0.3749668311591524
  0.9998742477625175  0.4993114768682665  0.8750319379922914
  0.4997410171453290  0.0004515181394207  0.3749795156038587
  0.5009808307625241  0.9998816973628438  0.8749445671725284
  0.4979552734709793  0.4981256770524114  0.8754276006881174
  0.2447898516196760  0.2453012054451606  0.3745278044202544
  0.2501995681519760  0.2500719466339916  0.8753147251652683
  0.2456049220188701  0.7548332630084487  0.3747501868029188
  0.2497198081008730  0.7507550183173572  0.8750540757307353
  0.7552843502492018  0.2440363389292433  0.3745455207552497
  0.7509813529940549  0.2491476168010212  0.8750680376672320
  0.7449666802509749  0.7426062089062625  0.3773251497827766
  0.7523361177240702  0.7522847528545111  0.8752626990740137
  0.2535722767133775  0.2521100542560166  0.1256772178815454
  0.2493949132820135  0.2499206985460074  0.6251477139124980
  0.2521086791173224  0.7460791092377957  0.1255692746388411
  0.2541016517508174  0.7467590939926595  0.6239532883133591
  0.7477571893288939  0.2543629146974446  0.1257305872563299
  0.7442838490078139  0.2537010903974709  0.6239339775813955
  0.7471262793814599  0.7488683975478818  0.1262153057683381
  0.6415073305644893  0.3913619102243090  0.7520729589448456
  0.6089245390215607  0.6418849636509322  0.7552661228715559
  0.6170834631359192  0.3715933890304707  0.4882057456391455
  0.3562099377494456  0.3894769535886123  0.4961405614835510
  0.7416312833753378  0.7397901127110733  0.6234506039681850
  0.8827262370213853  0.6357232487201752  0.5001634488179584
  0.5068794037499581  0.5045094269657974  0.6268865600167862
 
  0.00000000E+00  0.00000000E+00  0.00000000E+00
  0.00000000E+00  0.00000000E+00  0.00000000E+00
  0.00000000E+00  0.00000000E+00  0.00000000E+00
  0.00000000E+00  0.00000000E+00  0.00000000E+00
  0.00000000E+00  0.00000000E+00  0.00000000E+00
  0.00000000E+00  0.00000000E+00  0.00000000E+00
  0.00000000E+00  0.00000000E+00  0.00000000E+00
  0.00000000E+00  0.00000000E+00  0.00000000E+00
  0.00000000E+00  0.00000000E+00  0.00000000E+00
  0.00000000E+00  0.00000000E+00  0.00000000E+00
  0.00000000E+00  0.00000000E+00  0.00000000E+00
  0.00000000E+00  0.00000000E+00  0.00000000E+00
  0.00000000E+00  0.00000000E+00  0.00000000E+00
  0.00000000E+00  0.00000000E+00  0.00000000E+00
  0.00000000E+00  0.00000000E+00  0.00000000E+00
  0.00000000E+00  0.00000000E+00  0.00000000E+00
  0.00000000E+00  0.00000000E+00  0.00000000E+00
  0.00000000E+00  0.00000000E+00  0.00000000E+00
  0.00000000E+00  0.00000000E+00  0.00000000E+00
  0.00000000E+00  0.00000000E+00  0.00000000E+00
  0.00000000E+00  0.00000000E+00  0.00000000E+00
  0.00000000E+00  0.00000000E+00  0.00000000E+00
  0.00000000E+00  0.00000000E+00  0.00000000E+00
  0.00000000E+00  0.00000000E+00  0.00000000E+00
  0.00000000E+00  0.00000000E+00  0.00000000E+00
  0.00000000E+00  0.00000000E+00  0.00000000E+00
  0.00000000E+00  0.00000000E+00  0.00000000E+00
  0.00000000E+00  0.00000000E+00  0.00000000E+00
  0.00000000E+00  0.00000000E+00  0.00000000E+00
  0.00000000E+00  0.00000000E+00  0.00000000E+00
  0.00000000E+00  0.00000000E+00  0.00000000E+00
  0.00000000E+00  0.00000000E+00  0.00000000E+00
  0.00000000E+00  0.00000000E+00  0.00000000E+00
  0.00000000E+00  0.00000000E+00  0.00000000E+00
  0.00000000E+00  0.00000000E+00  0.00000000E+00
  0.00000000E+00  0.00000000E+00  0.00000000E+00
  0.00000000E+00  0.00000000E+00  0.00000000E+00
  0.00000000E+00  0.00000000E+00  0.00000000E+00
  0.00000000E+00  0.00000000E+00  0.00000000E+00
  0.00000000E+00  0.00000000E+00  0.00000000E+00
  0.00000000E+00  0.00000000E+00  0.00000000E+00
  0.00000000E+00  0.00000000E+00  0.00000000E+00
  0.00000000E+00  0.00000000E+00  0.00000000E+00
  0.00000000E+00  0.00000000E+00  0.00000000E+00
  0.00000000E+00  0.00000000E+00  0.00000000E+00
  0.00000000E+00  0.00000000E+00  0.00000000E+00
  0.00000000E+00  0.00000000E+00  0.00000000E+00
  0.00000000E+00  0.00000000E+00  0.00000000E+00
  0.00000000E+00  0.00000000E+00  0.00000000E+00
  0.00000000E+00  0.00000000E+00  0.00000000E+00
  0.00000000E+00  0.00000000E+00  0.00000000E+00
  0.00000000E+00  0.00000000E+00  0.00000000E+00
  0.00000000E+00  0.00000000E+00  0.00000000E+00
  0.00000000E+00  0.00000000E+00  0.00000000E+00
  0.00000000E+00  0.00000000E+00  0.00000000E+00
  0.00000000E+00  0.00000000E+00  0.00000000E+00
  0.00000000E+00  0.00000000E+00  0.00000000E+00
  0.00000000E+00  0.00000000E+00  0.00000000E+00
  0.00000000E+00  0.00000000E+00  0.00000000E+00
  0.00000000E+00  0.00000000E+00  0.00000000E+00
  0.00000000E+00  0.00000000E+00  0.00000000E+00
  0.00000000E+00  0.00000000E+00  0.00000000E+00
  0.00000000E+00  0.00000000E+00  0.00000000E+00
  0.00000000E+00  0.00000000E+00  0.00000000E+00
  0.00000000E+00  0.00000000E+00  0.00000000E+00
  0.00000000E+00  0.00000000E+00  0.00000000E+00
  0.00000000E+00  0.00000000E+00  0.00000000E+00
  0.00000000E+00  0.00000000E+00  0.00000000E+00
  0.00000000E+00  0.00000000E+00  0.00000000E+00
  0.00000000E+00  0.00000000E+00  0.00000000E+00
  0.00000000E+00  0.00000000E+00  0.00000000E+00
  0.00000000E+00  0.00000000E+00  0.00000000E+00
  0.00000000E+00  0.00000000E+00  0.00000000E+00
  0.00000000E+00  0.00000000E+00  0.00000000E+00
  0.00000000E+00  0.00000000E+00  0.00000000E+00
  0.00000000E+00  0.00000000E+00  0.00000000E+00
  0.00000000E+00  0.00000000E+00  0.00000000E+00
  0.00000000E+00  0.00000000E+00  0.00000000E+00
  0.00000000E+00  0.00000000E+00  0.00000000E+00
  0.00000000E+00  0.00000000E+00  0.00000000E+00
  0.00000000E+00  0.00000000E+00  0.00000000E+00
  0.00000000E+00  0.00000000E+00  0.00000000E+00
  0.00000000E+00  0.00000000E+00  0.00000000E+00
  0.00000000E+00  0.00000000E+00  0.00000000E+00
  0.00000000E+00  0.00000000E+00  0.00000000E+00
  0.00000000E+00  0.00000000E+00  0.00000000E+00
  0.00000000E+00  0.00000000E+00  0.00000000E+00
  0.00000000E+00  0.00000000E+00  0.00000000E+00
  0.00000000E+00  0.00000000E+00  0.00000000E+00
  0.00000000E+00  0.00000000E+00  0.00000000E+00
  0.00000000E+00  0.00000000E+00  0.00000000E+00
  0.00000000E+00  0.00000000E+00  0.00000000E+00
  0.00000000E+00  0.00000000E+00  0.00000000E+00
  0.00000000E+00  0.00000000E+00  0.00000000E+00
  0.00000000E+00  0.00000000E+00  0.00000000E+00
  0.00000000E+00  0.00000000E+00  0.00000000E+00
  0.00000000E+00  0.00000000E+00  0.00000000E+00
  0.00000000E+00  0.00000000E+00  0.00000000E+00
  0.00000000E+00  0.00000000E+00  0.00000000E+00
  0.00000000E+00  0.00000000E+00  0.00000000E+00
  0.00000000E+00  0.00000000E+00  0.00000000E+00
  0.00000000E+00  0.00000000E+00  0.00000000E+00
  0.00000000E+00  0.00000000E+00  0.00000000E+00
  0.00000000E+00  0.00000000E+00  0.00000000E+00
  0.00000000E+00  0.00000000E+00  0.00000000E+00
  0.00000000E+00  0.00000000E+00  0.00000000E+00
  0.00000000E+00  0.00000000E+00  0.00000000E+00
  0.00000000E+00  0.00000000E+00  0.00000000E+00
  0.00000000E+00  0.00000000E+00  0.00000000E+00
  0.00000000E+00  0.00000000E+00  0.00000000E+00
  0.00000000E+00  0.00000000E+00  0.00000000E+00
  0.00000000E+00  0.00000000E+00  0.00000000E+00
  0.00000000E+00  0.00000000E+00  0.00000000E+00
  0.00000000E+00  0.00000000E+00  0.00000000E+00
  0.00000000E+00  0.00000000E+00  0.00000000E+00
  0.00000000E+00  0.00000000E+00  0.00000000E+00
  0.00000000E+00  0.00000000E+00  0.00000000E+00
  0.00000000E+00  0.00000000E+00  0.00000000E+00
  0.00000000E+00  0.00000000E+00  0.00000000E+00
  0.00000000E+00  0.00000000E+00  0.00000000E+00
  0.00000000E+00  0.00000000E+00  0.00000000E+00
  0.00000000E+00  0.00000000E+00  0.00000000E+00
  0.00000000E+00  0.00000000E+00  0.00000000E+00
  0.00000000E+00  0.00000000E+00  0.00000000E+00
  0.00000000E+00  0.00000000E+00  0.00000000E+00
  0.00000000E+00  0.00000000E+00  0.00000000E+00
  0.00000000E+00  0.00000000E+00  0.00000000E+00
  0.00000000E+00  0.00000000E+00  0.00000000E+00
  0.00000000E+00  0.00000000E+00  0.00000000E+00
  0.00000000E+00  0.00000000E+00  0.00000000E+00
  0.00000000E+00  0.00000000E+00  0.00000000E+00
  0.00000000E+00  0.00000000E+00  0.00000000E+00
  0.00000000E+00  0.00000000E+00  0.00000000E+00
  0.00000000E+00  0.00000000E+00  0.00000000E+00
  0.00000000E+00  0.00000000E+00  0.00000000E+00
  0.00000000E+00  0.00000000E+00  0.00000000E+00
  0.00000000E+00  0.00000000E+00  0.00000000E+00
  0.00000000E+00  0.00000000E+00  0.00000000E+00
  0.00000000E+00  0.00000000E+00  0.00000000E+00
  0.00000000E+00  0.00000000E+00  0.00000000E+00
  0.00000000E+00  0.00000000E+00  0.00000000E+00
  0.00000000E+00  0.00000000E+00  0.00000000E+00
  0.00000000E+00  0.00000000E+00  0.00000000E+00
  0.00000000E+00  0.00000000E+00  0.00000000E+00
  0.00000000E+00  0.00000000E+00  0.00000000E+00
  0.00000000E+00  0.00000000E+00  0.00000000E+00
  0.00000000E+00  0.00000000E+00  0.00000000E+00
  0.00000000E+00  0.00000000E+00  0.00000000E+00
  0.00000000E+00  0.00000000E+00  0.00000000E+00
  0.00000000E+00  0.00000000E+00  0.00000000E+00
  0.00000000E+00  0.00000000E+00  0.00000000E+00
  0.00000000E+00  0.00000000E+00  0.00000000E+00
  0.00000000E+00  0.00000000E+00  0.00000000E+00
  0.00000000E+00  0.00000000E+00  0.00000000E+00
  0.00000000E+00  0.00000000E+00  0.00000000E+00
  0.00000000E+00  0.00000000E+00  0.00000000E+00
  0.00000000E+00  0.00000000E+00  0.00000000E+00
  0.00000000E+00  0.00000000E+00  0.00000000E+00
