SrTiFeO                                 
   1.00000000000000     
    11.1989999999999998    0.0000000000000000    0.0000000000000000
     0.0000000000000000   11.1989999999999998    0.0000000000000000
     0.0000000000000000    0.0000000000000000   15.9830000000000005
   Sr   Ti   O 
    32    32    94
Direct
  0.0017923755517345  0.2503165200199530  0.1237075414481809
  0.0007587454331245  0.2488108204418804  0.6257582111595064
  0.0001586325659481  0.7497762133087097  0.1250250623245298
  0.9995215600416129  0.7510270694289808  0.6254604884924875
  0.4982621792403765  0.2496234612146491  0.1236901374594886
  0.4944686226715888  0.2469055905373255  0.6287481195315946
  0.5006959228419936  0.7494530829693272  0.1248399293363169
  0.5002526923802398  0.7535938348428760  0.6260196853207508
  0.0074956753957336  0.2490688921971705  0.3742898651172545
  0.0000089672121222  0.2497651770793710  0.8749953282424019
  0.0009206698127818  0.7511395513026030  0.3744058790783826
  0.0002738749727897  0.7498683869703836  0.8749843958926041
  0.4882079095507809  0.2464270229104605  0.3725901692777507
  0.4996559672356249  0.2506996988547586  0.8751837352958693
  0.4985724558589787  0.7527509485181779  0.3737091702224101
  0.5003090374546368  0.7496802607839563  0.8751918355144325
  0.2501512199834243  0.9997799682593478  0.1249974021626423
  0.2484099420243346  0.9998046962464040  0.6253053859106208
  0.2506492168056552  0.5002353424201371  0.1252863152172604
  0.2477607940364615  0.4988500293165825  0.6258076778094025
  0.7507281495714271  0.9983290787816312  0.1237797495680186
  0.7493623393069134  0.9998105659777972  0.6249632297675456
  0.7499328522115171  0.5018948619880534  0.1233691402973777
  0.7509593433035269  0.5025990702713372  0.6280392721177629
  0.2488698318605957  0.9986899012917659  0.3751118954963352
  0.2500594368993318  0.0000636617267238  0.8751509522176105
  0.2478913986095525  0.4996145021766030  0.3748799261872677
  0.2504735906569485  0.4999302047681667  0.8749735495361235
  0.7487316288099599  0.9928413011697927  0.3743872932503915
  0.7502280385842489  0.9999472642713604  0.8745206403440674
  0.7512357250615237  0.5112954353912913  0.3710733365654875
  0.7508039175489682  0.5011307094540658  0.8756398325264420
  0.9998745971683295  0.0002514623543847  0.9999583774995557
  0.9986850675565385  0.0012907117967514  0.4996364794759620
  0.0000924389639017  0.4997255966101340  0.9999443631411750
  0.9989384864574702  0.5010335710704968  0.4992555629253757
  0.5002118286409133  0.0001721490677204  0.9999534136958753
  0.4983714413542479  0.0002947331771853  0.4992112575920765
  0.5000970641166970  0.5000999867997433  0.9999079301717683
  0.2500216298227431  0.2497412323683055  0.9997476336421510
  0.2491289610011875  0.2490630552839894  0.5005707229552524
  0.2503683303924191  0.7496129570476374  0.0003476883372579
  0.2469243614178329  0.7518048658926845  0.5007094662708755
  0.7503847556192472  0.2496443226563081  0.9972591362502140
  0.7500125710113379  0.7502490038998575  0.9996693378066329
  0.2492098414283094  0.2499723904104103  0.2489521323307638
  0.2489720568239453  0.2499493312418265  0.7505669470137716
  0.2500358099363688  0.7498330042486745  0.2496799530584450
  0.2499683598833612  0.7498979170358685  0.7496979155815575
  0.7500350832678160  0.2500609591161225  0.2454503512704989
  0.7491227305570149  0.2506051049080313  0.7491215174374665
  0.7499852003041145  0.7508007083272570  0.2490295718511285
  0.7498320824643372  0.7504739599189947  0.7501506266250498
  0.9997820350620547  0.0000123113581891  0.2503501811455552
  0.9991595311306545  0.0000753716073333  0.7499723722928240
  0.0000768181568459  0.4999994694304730  0.2500822266002868
  0.9993715062938695  0.4994958081496731  0.7501246202169920
  0.4996325355057663  0.9998381494100667  0.2500355069666507
  0.5003102409094987  0.0004629651563085  0.7504645501595832
  0.5005528158622048  0.4988727328745544  0.2506678970542641
  0.5007317217032647  0.4993970225310972  0.7500791339418489
  0.7511025931820041  0.2512200214542467  0.4995901588930203
  0.4961588416305080  0.5064433348600448  0.5002117832080427
  0.7506701785571035  0.7499015625002273  0.5004147715995558
  0.1100147232932657  0.1398189041190631  0.2493041433554634
  0.1089511466861013  0.1406542390174463  0.7501593737891321
  0.1109284338468589  0.6395913253105563  0.2484901610713570
  0.1097887612715761  0.6397431729784292  0.7485982961003526
  0.6117585446425827  0.1411059843232251  0.2578137890399861
  0.6084919999130814  0.1413568355098216  0.7520657963603762
  0.6106978225840535  0.6390109740239066  0.2517766695762901
  0.6091420884183798  0.6407478085421895  0.7486217052540423
  0.3901424154879659  0.3597246410632390  0.2490154484578923
  0.3903794942937911  0.3594227003763839  0.7505422899496764
  0.3903197543207502  0.8592833988621992  0.2477630434871483
  0.3910757572009699  0.8597763822449808  0.7487610453222443
  0.8886250851865847  0.3588107660403488  0.2575338210116880
  0.8908356190348392  0.3588958203808021  0.7505113761764708
  0.8895112882240763  0.8605723354438829  0.2498878917271657
  0.8905618497841248  0.8593220868449297  0.7502088761863700
  0.3605609728248128  0.1105957613333097  0.2510869344768696
  0.3595579970711503  0.1095711177308057  0.7485750314342881
  0.3613519632224637  0.6088561461761589  0.2531688009904559
  0.3604645777539281  0.6089141778139442  0.7464170578041021
  0.8589490214583220  0.1112760662898946  0.2577672182330878
  0.8587890263522827  0.1089124931403695  0.7486992357898345
  0.8609998419145763  0.6109103250466352  0.2483918401962947
  0.8596758688531940  0.6097778213810835  0.7504061138551780
  0.1397697729142090  0.3896994468162405  0.2499676306791509
  0.1403236665279181  0.3907909217052419  0.7499780271846226
  0.1405096126988354  0.8893173424421885  0.2479231490416150
  0.1408030739949142  0.8899580428864378  0.7510422653017668
  0.6423321766450398  0.3881058224968312  0.2544547052616113
  0.6410724300040838  0.3918867805704443  0.7552549942840989
  0.6397731182579649  0.8900655541642328  0.2495140625312491
  0.6409092008634351  0.8913024188083023  0.7495953347487125
  0.3597523725561709  0.3905563271337178  0.0007476909558015
  0.3594965828140521  0.8906011209952058  0.0010139446346423
  0.3594823125026357  0.8902660224934756  0.5017799341392425
  0.8590615079774410  0.3905391693119322  0.9998459710889500
  0.8593242263142138  0.8905719316874922  0.9998610967885549
  0.8588568918161616  0.8912756976165664  0.5002007391460608
  0.1406952454847427  0.1090082725880432  0.0006366985883252
  0.1409372046390389  0.1092528464094773  0.4999016452039358
  0.1405996622402511  0.6091042803257786  0.0008814276220631
  0.1423344926020076  0.6081767962881645  0.5013906891262681
  0.6411827005563577  0.1092711836347665  0.9996557997746242
  0.6329386464254315  0.1215574173949602  0.4882408463215762
  0.6406269030612718  0.6092049911872505  0.0000265379997658
  0.1094202105448427  0.3591504753907792  0.9997099472623303
  0.1091998394159303  0.3600344046394178  0.4998791992230825
  0.1097448464058905  0.8591607148600326  0.0009558965259537
  0.1093636869497962  0.8583347099793636  0.5009762749086658
  0.6096888690629166  0.3590858167924575  0.9997738462380038
  0.6091837530085139  0.8596087681395911  0.0006155799246160
  0.6108572486523284  0.8617004970455134  0.4996174675634628
  0.3908669122814183  0.1406385349522448  0.9998227034904544
  0.3875898834067228  0.1385013686208161  0.5003010225128639
  0.3910900557735119  0.6404259146843159  0.0012554037848522
  0.8912119953198416  0.1410052239682998  0.0001093774610010
  0.8938163937368907  0.1394980735300300  0.4961432340473830
  0.8906181868869235  0.6404575995775021  0.0006117562229449
  0.9964163795705299  0.0021122510169751  0.1256774750325960
  0.0006028833843021  0.9999225289089779  0.6251484788899614
  0.9979062068947440  0.4960919552466116  0.1255636660223681
  0.9959004294264610  0.4967658277067967  0.6239544701247469
  0.5022391293001258  0.0043456128738099  0.1257300938169270
  0.5056912389387034  0.0036697811979048  0.6239377402143973
  0.5028852030019109  0.4988575064569154  0.1262147313055157
  0.5083527698246786  0.4897925284409360  0.6234481966408697
  0.0052033605616918  0.9953075684118604  0.3745275829580474
  0.9998147310877247  0.0000634117026009  0.8753159464296092
  0.0043831306198261  0.5048409789902678  0.3747471945025665
  0.0003003988008372  0.5007469869569744  0.8750570498640394
  0.4947369386786077  0.9940560492925147  0.3745465523884983
  0.4990281030687533  0.9991464378234566  0.8750672402032978
  0.4976643283224446  0.5022841524608667  0.8752619622476260
  0.2495043183038728  0.2510137074313349  0.3749676638384484
  0.2501140641116793  0.2493120812160729  0.8750309858533075
  0.2498976730108897  0.7510025127055759  0.3752760888925598
  0.2517578534116930  0.7479023590147359  0.8749329556120660
  0.7520314692997584  0.2481352598973300  0.8754261063649743
  0.7490261666354949  0.7498876701500833  0.8749463409910998
  0.2501050613325230  0.2493830561647306  0.1248656745418833
  0.2489161010159504  0.2511221819347051  0.6250591391769129
  0.2517136413398222  0.7475402666576855  0.1251171681975324
  0.2496777812815696  0.7508509334009998  0.6250868370385974
  0.7514878735315221  0.2482171036050680  0.1248587750953182
  0.7431382317613572  0.2545032961148804  0.6268902514361480
  0.7490018144171683  0.7500017395226459  0.1249099707090793
  0.7500340351737831  0.7504692017646031  0.6247892344515813
  0.8524278554303762  0.3951383509890224  0.4911104673422822
  0.3918328727154760  0.6425797739833636  0.5010103950651438
  0.5050321699202170  0.4926254707328054  0.3773215411869720
  0.3672767694482296  0.3857202829719551  0.5001576924862424
  0.8928113999850591  0.6431043992550390  0.4997915037817329
  0.7502609329398553  0.7504567529136706  0.3749803626984979
  0.6433947177946093  0.6052453514992749  0.5003228656647899
 
  0.00000000E+00  0.00000000E+00  0.00000000E+00
  0.00000000E+00  0.00000000E+00  0.00000000E+00
  0.00000000E+00  0.00000000E+00  0.00000000E+00
  0.00000000E+00  0.00000000E+00  0.00000000E+00
  0.00000000E+00  0.00000000E+00  0.00000000E+00
  0.00000000E+00  0.00000000E+00  0.00000000E+00
  0.00000000E+00  0.00000000E+00  0.00000000E+00
  0.00000000E+00  0.00000000E+00  0.00000000E+00
  0.00000000E+00  0.00000000E+00  0.00000000E+00
  0.00000000E+00  0.00000000E+00  0.00000000E+00
  0.00000000E+00  0.00000000E+00  0.00000000E+00
  0.00000000E+00  0.00000000E+00  0.00000000E+00
  0.00000000E+00  0.00000000E+00  0.00000000E+00
  0.00000000E+00  0.00000000E+00  0.00000000E+00
  0.00000000E+00  0.00000000E+00  0.00000000E+00
  0.00000000E+00  0.00000000E+00  0.00000000E+00
  0.00000000E+00  0.00000000E+00  0.00000000E+00
  0.00000000E+00  0.00000000E+00  0.00000000E+00
  0.00000000E+00  0.00000000E+00  0.00000000E+00
  0.00000000E+00  0.00000000E+00  0.00000000E+00
  0.00000000E+00  0.00000000E+00  0.00000000E+00
  0.00000000E+00  0.00000000E+00  0.00000000E+00
  0.00000000E+00  0.00000000E+00  0.00000000E+00
  0.00000000E+00  0.00000000E+00  0.00000000E+00
  0.00000000E+00  0.00000000E+00  0.00000000E+00
  0.00000000E+00  0.00000000E+00  0.00000000E+00
  0.00000000E+00  0.00000000E+00  0.00000000E+00
  0.00000000E+00  0.00000000E+00  0.00000000E+00
  0.00000000E+00  0.00000000E+00  0.00000000E+00
  0.00000000E+00  0.00000000E+00  0.00000000E+00
  0.00000000E+00  0.00000000E+00  0.00000000E+00
  0.00000000E+00  0.00000000E+00  0.00000000E+00
  0.00000000E+00  0.00000000E+00  0.00000000E+00
  0.00000000E+00  0.00000000E+00  0.00000000E+00
  0.00000000E+00  0.00000000E+00  0.00000000E+00
  0.00000000E+00  0.00000000E+00  0.00000000E+00
  0.00000000E+00  0.00000000E+00  0.00000000E+00
  0.00000000E+00  0.00000000E+00  0.00000000E+00
  0.00000000E+00  0.00000000E+00  0.00000000E+00
  0.00000000E+00  0.00000000E+00  0.00000000E+00
  0.00000000E+00  0.00000000E+00  0.00000000E+00
  0.00000000E+00  0.00000000E+00  0.00000000E+00
  0.00000000E+00  0.00000000E+00  0.00000000E+00
  0.00000000E+00  0.00000000E+00  0.00000000E+00
  0.00000000E+00  0.00000000E+00  0.00000000E+00
  0.00000000E+00  0.00000000E+00  0.00000000E+00
  0.00000000E+00  0.00000000E+00  0.00000000E+00
  0.00000000E+00  0.00000000E+00  0.00000000E+00
  0.00000000E+00  0.00000000E+00  0.00000000E+00
  0.00000000E+00  0.00000000E+00  0.00000000E+00
  0.00000000E+00  0.00000000E+00  0.00000000E+00
  0.00000000E+00  0.00000000E+00  0.00000000E+00
  0.00000000E+00  0.00000000E+00  0.00000000E+00
  0.00000000E+00  0.00000000E+00  0.00000000E+00
  0.00000000E+00  0.00000000E+00  0.00000000E+00
  0.00000000E+00  0.00000000E+00  0.00000000E+00
  0.00000000E+00  0.00000000E+00  0.00000000E+00
  0.00000000E+00  0.00000000E+00  0.00000000E+00
  0.00000000E+00  0.00000000E+00  0.00000000E+00
  0.00000000E+00  0.00000000E+00  0.00000000E+00
  0.00000000E+00  0.00000000E+00  0.00000000E+00
  0.00000000E+00  0.00000000E+00  0.00000000E+00
  0.00000000E+00  0.00000000E+00  0.00000000E+00
  0.00000000E+00  0.00000000E+00  0.00000000E+00
  0.00000000E+00  0.00000000E+00  0.00000000E+00
  0.00000000E+00  0.00000000E+00  0.00000000E+00
  0.00000000E+00  0.00000000E+00  0.00000000E+00
  0.00000000E+00  0.00000000E+00  0.00000000E+00
  0.00000000E+00  0.00000000E+00  0.00000000E+00
  0.00000000E+00  0.00000000E+00  0.00000000E+00
  0.00000000E+00  0.00000000E+00  0.00000000E+00
  0.00000000E+00  0.00000000E+00  0.00000000E+00
  0.00000000E+00  0.00000000E+00  0.00000000E+00
  0.00000000E+00  0.00000000E+00  0.00000000E+00
  0.00000000E+00  0.00000000E+00  0.00000000E+00
  0.00000000E+00  0.00000000E+00  0.00000000E+00
  0.00000000E+00  0.00000000E+00  0.00000000E+00
  0.00000000E+00  0.00000000E+00  0.00000000E+00
  0.00000000E+00  0.00000000E+00  0.00000000E+00
  0.00000000E+00  0.00000000E+00  0.00000000E+00
  0.00000000E+00  0.00000000E+00  0.00000000E+00
  0.00000000E+00  0.00000000E+00  0.00000000E+00
  0.00000000E+00  0.00000000E+00  0.00000000E+00
  0.00000000E+00  0.00000000E+00  0.00000000E+00
  0.00000000E+00  0.00000000E+00  0.00000000E+00
  0.00000000E+00  0.00000000E+00  0.00000000E+00
  0.00000000E+00  0.00000000E+00  0.00000000E+00
  0.00000000E+00  0.00000000E+00  0.00000000E+00
  0.00000000E+00  0.00000000E+00  0.00000000E+00
  0.00000000E+00  0.00000000E+00  0.00000000E+00
  0.00000000E+00  0.00000000E+00  0.00000000E+00
  0.00000000E+00  0.00000000E+00  0.00000000E+00
  0.00000000E+00  0.00000000E+00  0.00000000E+00
  0.00000000E+00  0.00000000E+00  0.00000000E+00
  0.00000000E+00  0.00000000E+00  0.00000000E+00
  0.00000000E+00  0.00000000E+00  0.00000000E+00
  0.00000000E+00  0.00000000E+00  0.00000000E+00
  0.00000000E+00  0.00000000E+00  0.00000000E+00
  0.00000000E+00  0.00000000E+00  0.00000000E+00
  0.00000000E+00  0.00000000E+00  0.00000000E+00
  0.00000000E+00  0.00000000E+00  0.00000000E+00
  0.00000000E+00  0.00000000E+00  0.00000000E+00
  0.00000000E+00  0.00000000E+00  0.00000000E+00
  0.00000000E+00  0.00000000E+00  0.00000000E+00
  0.00000000E+00  0.00000000E+00  0.00000000E+00
  0.00000000E+00  0.00000000E+00  0.00000000E+00
  0.00000000E+00  0.00000000E+00  0.00000000E+00
  0.00000000E+00  0.00000000E+00  0.00000000E+00
  0.00000000E+00  0.00000000E+00  0.00000000E+00
  0.00000000E+00  0.00000000E+00  0.00000000E+00
  0.00000000E+00  0.00000000E+00  0.00000000E+00
  0.00000000E+00  0.00000000E+00  0.00000000E+00
  0.00000000E+00  0.00000000E+00  0.00000000E+00
  0.00000000E+00  0.00000000E+00  0.00000000E+00
  0.00000000E+00  0.00000000E+00  0.00000000E+00
  0.00000000E+00  0.00000000E+00  0.00000000E+00
  0.00000000E+00  0.00000000E+00  0.00000000E+00
  0.00000000E+00  0.00000000E+00  0.00000000E+00
  0.00000000E+00  0.00000000E+00  0.00000000E+00
  0.00000000E+00  0.00000000E+00  0.00000000E+00
  0.00000000E+00  0.00000000E+00  0.00000000E+00
  0.00000000E+00  0.00000000E+00  0.00000000E+00
  0.00000000E+00  0.00000000E+00  0.00000000E+00
  0.00000000E+00  0.00000000E+00  0.00000000E+00
  0.00000000E+00  0.00000000E+00  0.00000000E+00
  0.00000000E+00  0.00000000E+00  0.00000000E+00
  0.00000000E+00  0.00000000E+00  0.00000000E+00
  0.00000000E+00  0.00000000E+00  0.00000000E+00
  0.00000000E+00  0.00000000E+00  0.00000000E+00
  0.00000000E+00  0.00000000E+00  0.00000000E+00
  0.00000000E+00  0.00000000E+00  0.00000000E+00
  0.00000000E+00  0.00000000E+00  0.00000000E+00
  0.00000000E+00  0.00000000E+00  0.00000000E+00
  0.00000000E+00  0.00000000E+00  0.00000000E+00
  0.00000000E+00  0.00000000E+00  0.00000000E+00
  0.00000000E+00  0.00000000E+00  0.00000000E+00
  0.00000000E+00  0.00000000E+00  0.00000000E+00
  0.00000000E+00  0.00000000E+00  0.00000000E+00
  0.00000000E+00  0.00000000E+00  0.00000000E+00
  0.00000000E+00  0.00000000E+00  0.00000000E+00
  0.00000000E+00  0.00000000E+00  0.00000000E+00
  0.00000000E+00  0.00000000E+00  0.00000000E+00
  0.00000000E+00  0.00000000E+00  0.00000000E+00
  0.00000000E+00  0.00000000E+00  0.00000000E+00
  0.00000000E+00  0.00000000E+00  0.00000000E+00
  0.00000000E+00  0.00000000E+00  0.00000000E+00
  0.00000000E+00  0.00000000E+00  0.00000000E+00
  0.00000000E+00  0.00000000E+00  0.00000000E+00
  0.00000000E+00  0.00000000E+00  0.00000000E+00
  0.00000000E+00  0.00000000E+00  0.00000000E+00
  0.00000000E+00  0.00000000E+00  0.00000000E+00
  0.00000000E+00  0.00000000E+00  0.00000000E+00
  0.00000000E+00  0.00000000E+00  0.00000000E+00
  0.00000000E+00  0.00000000E+00  0.00000000E+00
  0.00000000E+00  0.00000000E+00  0.00000000E+00
  0.00000000E+00  0.00000000E+00  0.00000000E+00
  0.00000000E+00  0.00000000E+00  0.00000000E+00
  0.00000000E+00  0.00000000E+00  0.00000000E+00
