SrTiFeO                                 
   1.00000000000000     
    11.1989999999999998    0.0000000000000000    0.0000000000000000
     0.0000000000000000   11.1989999999999998    0.0000000000000000
     0.0000000000000000    0.0000000000000000   15.9830000000000005
   Sr   Ti   Fe   O 
    32    29     3    94
Direct
  0.9989836859456931  0.2500473486178864  0.1235995873649280
  0.0036805019111572  0.2473794048359239  0.6283204698757537
  0.9999239447325405  0.7491016941690800  0.1256685075978801
  0.9951032995408534  0.7547353347816416  0.6244899063808312
  0.5024022548297223  0.2503611145682077  0.1253032181907296
  0.4945820504198677  0.2472026101170071  0.6268561226287550
  0.5005881914648765  0.7489214322318413  0.1248574201457015
  0.5015684090212783  0.7522102113352598  0.6256041121649297
  0.0036805019111572  0.2473794048359239  0.3716795301242461
  0.9989836859456931  0.2500473486178864  0.8764004126350720
  0.9951032995408534  0.7547353347816416  0.3755100936191687
  0.9999239447325405  0.7491016941690800  0.8743314924021198
  0.4945820504198677  0.2472026101170071  0.3731438773712449
  0.5024022548297223  0.2503611145682077  0.8746967818092704
  0.5015684090212783  0.7522102113352598  0.3743958878350703
  0.5005881914648765  0.7489214322318413  0.8751425798542986
  0.2498890488144015  0.0000203835168860  0.1249658732839814
  0.2493952404827998  0.0007765247560296  0.6256579160376602
  0.2512954764877226  0.5000037914309251  0.1250015618623655
  0.2568977538115298  0.4972949862181396  0.6266956747462197
  0.7506576960337786  0.0019035568894120  0.1256669492220555
  0.7475184092690621  0.9939504917894699  0.6226793330737330
  0.7506527992590820  0.5001022988450592  0.1234764357166821
  0.7459247159350610  0.5099154861906587  0.6312174113425788
  0.2493952404827998  0.0007765247560296  0.3743420839623398
  0.2498890488144015  0.0000203835168860  0.8750341267160185
  0.2568977538115298  0.4972949862181396  0.3733043252537803
  0.2512954764877226  0.5000037914309251  0.8749984381376417
  0.7475184092690621  0.9939504917894699  0.3773206669262669
  0.7506576960337786  0.0019035568894120  0.8743330507779444
  0.7459247159350610  0.5099154861906587  0.3687825886574212
  0.7506527992590820  0.5001022988450592  0.8765235642833180
  0.9995203537968219  0.0000961620271142 -0.0000000000000000
  0.9991367972357820  0.0009622274970850  0.5000000000000000
  0.0010374488138202  0.5004994609150130 -0.0000000000000000
  0.0145897652416179  0.5087747753154465  0.5000000000000000
  0.5002367454492027  0.0004193667572628 -0.0000000000000000
  0.5013491596942315  0.9992716409942277  0.5000000000000000
  0.4996689042247551  0.5005586165135847 -0.0000000000000000
  0.2503753351281574  0.2499328318062119 -0.0000000000000000
  0.2509279976876258  0.2481323440213871  0.5000000000000000
  0.2498422399116270  0.7494292356849418 -0.0000000000000000
  0.2520516816550576  0.7580055714302735  0.5000000000000000
  0.7500854707389026  0.2490341977946320 -0.0000000000000000
  0.7497373219646716  0.7507247687476407 -0.0000000000000000
  0.2497212818461213  0.2500589716423498  0.2489739962750531
  0.2497212818461213  0.2500589716423498  0.7510260037249469
  0.2492961822239366  0.7499525707120441  0.2507860789479086
  0.2492961822239366  0.7499525707120441  0.7492139210520914
  0.7498104888007631  0.2525201399786083  0.2534726358954547
  0.7498104888007631  0.2525201399786083  0.7465273641045382
  0.7499509979751624  0.7511793107825299  0.2501263840271286
  0.7499509979751624  0.7511793107825299  0.7498736159728714
  0.9993681421018725  0.0003811748167075  0.2501905782544101
  0.9993681421018725  0.0003811748167075  0.7498094217455898
  0.9996629839870820  0.4990892522700083  0.2501145797494826
  0.9996629839870820  0.4990892522700083  0.7498854202505174
  0.4998793335018145  0.9998017378875061  0.2500302810338846
  0.4998793335018145  0.9998017378875061  0.7499697189661154
  0.5005930528485217  0.4991263955673277  0.2506725446238854
  0.5005930528485217  0.4991263955673277  0.7493274553761146
  0.7545558669127307  0.2375115089821291  0.5000000000000000
  0.4920312644398708  0.5137204595407158  0.5000000000000000
  0.7485403315771821  0.7458109414335904  0.5000000000000000
  0.1096637768276064  0.1404654900872631  0.2487054424407519
  0.1096637768276064  0.1404654900872631  0.7512945575592481
  0.1085691790265854  0.6391114329357329  0.2553849853369713
  0.1085691790265854  0.6391114329357329  0.7446150146630286
  0.6102349498729862  0.1416111528952479  0.2549760578551650
  0.6102349498729862  0.1416111528952479  0.7450239421448349
  0.6099114752351001  0.6399135418066784  0.2513624486676081
  0.6099114752351001  0.6399135418066784  0.7486375513323920
  0.3901340588761854  0.3588573371603095  0.2485827894499907
  0.3901340588761854  0.3588573371603095  0.7514172105500092
  0.3902561187826269  0.8590883076743776  0.2479256471177218
  0.3902561187826269  0.8590883076743776  0.7520743528822781
  0.8912936589441128  0.3593687572483419  0.2459467289826613
  0.8912936589441128  0.3593687572483419  0.7540532710173387
  0.8902368315453788  0.8606440856640150  0.2488122220532159
  0.8902368315453788  0.8606440856640150  0.7511877779467842
  0.3599720219377832  0.1103085974849625  0.2505114881039531
  0.3599720219377832  0.1103085974849625  0.7494885118960469
  0.3601810615506525  0.6089816572953644  0.2529017776834365
  0.3601810615506525  0.6089816572953644  0.7470982223165634
  0.8587199655100458  0.1114741632084597  0.2573776319696048
  0.8587199655100458  0.1114741632084597  0.7426223680303953
  0.8607446769918308  0.6102116008236573  0.2485262865536843
  0.8607446769918308  0.6102116008236573  0.7514737134463156
  0.1410264341160305  0.3912313434732222  0.2510583179592668
  0.1410264341160305  0.3912313434732222  0.7489416820407331
  0.1400151565540345  0.8901280948411328  0.2478216783467655
  0.1400151565540345  0.8901280948411328  0.7521783216532345
  0.6405972460643442  0.3913047699678405  0.2437425518411660
  0.6405972460643442  0.3913047699678405  0.7562574481588340
  0.6404298549867524  0.8914152979646228  0.2492125870168372
  0.6404298549867524  0.8914152979646228  0.7507874129831628
  0.3590903388953393  0.3907730091294092 -0.0000000000000000
  0.3588085705684497  0.8907472239133183 -0.0000000000000000
  0.3548423941563427  0.8943668600572016  0.5000000000000000
  0.8603151713324622  0.3901742906427378 -0.0000000000000000
  0.8588403733652812  0.8910868566288147 -0.0000000000000000
  0.8612046348440496  0.8905152216574955  0.5000000000000000
  0.1407588156012897  0.1087951896799864 -0.0000000000000000
  0.1462837611883123  0.1051422661316411  0.5000000000000000
  0.1411202906616813  0.6088675136342711 -0.0000000000000000
  0.1482006769721922  0.6046969297888496  0.5000000000000000
  0.6405994845884383  0.1089863198871139 -0.0000000000000000
  0.6292670549210545  0.1122433525784269  0.5000000000000000
  0.6403630855352341  0.6096558476392190 -0.0000000000000000
  0.1092353366528993  0.3591890918551661 -0.0000000000000000
  0.1029430316781309  0.3551231466712552  0.5000000000000000
  0.1087930000966200  0.8595212123785159 -0.0000000000000000
  0.1072964441417666  0.8540124750153818  0.5000000000000000
  0.6101346075714336  0.3599401867184859 -0.0000000000000000
  0.6083092891840670  0.8595593057993783 -0.0000000000000000
  0.6069171283609872  0.8580195882061055  0.5000000000000000
  0.3907759495772950  0.1411249392531843 -0.0000000000000000
  0.3883797151163326  0.1398829557950918  0.5000000000000000
  0.3903477909588582  0.6416955900568716 -0.0000000000000000
  0.8909748519245537  0.1407398455578797 -0.0000000000000000
  0.9048811016710508  0.1446190451829389  0.5000000000000000
  0.8907336940790004  0.6404023196637877 -0.0000000000000000
  0.9968631420331641  0.0027326184062421  0.1252994892593779
  0.0041152906937410  0.9969266390922872  0.6257399079267242
  0.0027009746858743  0.5018429277685618  0.1253385493100467
  0.9889630690530358  0.4873733126474641  0.6216740376629994
  0.5007800667816980  0.0029266144542570  0.1252524588964442
  0.4971005116516563  0.9962029957816687  0.6257572083816086
  0.4976334298693405  0.5025677241688126  0.1246000248861299
  0.5054174307649814  0.4881655650333382  0.6247072393170761
  0.0041152906937410  0.9969266390922872  0.3742600920732758
  0.9968631420331641  0.0027326184062421  0.8747005107406221
  0.9889630690530358  0.4873733126474641  0.3783259623370005
  0.0027009746858743  0.5018429277685618  0.8746614506899534
  0.4971005116516563  0.9962029957816687  0.3742427916183914
  0.5007800667816980  0.0029266144542570  0.8747475411035558
  0.4976334298693405  0.5025677241688126  0.8753999751138701
  0.2493963659787237  0.2508673790933133  0.3743681703669245
  0.2492652483813106  0.2498708202125899  0.8752764821008666
  0.2503914778555677  0.7528941439134526  0.3750981028819801
  0.2481040088442263  0.7463187950308509  0.8744840092795144
  0.7503382423818821  0.2452542063295104  0.8744174679539910
  0.7489510331645231  0.7498415579361063  0.8754030389789967
  0.2492652483813106  0.2498708202125899  0.1247235178991335
  0.2493963659787237  0.2508673790933133  0.6256318296330755
  0.2481040088442263  0.7463187950308509  0.1255159907204856
  0.2503914778555677  0.7528941439134526  0.6249018971180198
  0.7503382423818821  0.2452542063295104  0.1255825320460160
  0.7469501079179351  0.2764789525527592  0.6205659494336182
  0.7489510331645231  0.7498415579361063  0.1245969610210033
  0.7507134736791392  0.7508816042266819  0.6267889920563537
  0.7469501079179351  0.2764789525527592  0.3794340505663819
  0.3912586778749715  0.6477782490072748  0.5000000000000000
  0.5054174307649814  0.4881655650333382  0.3752927606829241
  0.3670857482780969  0.3852389812899297  0.5000000000000000
  0.8905257247250753  0.6285641944299362  0.5000000000000000
  0.7507134736791392  0.7508816042266819  0.3732110079436463
  0.6459940073995404  0.5930584600297999  0.5000000000000000
 
  0.00000000E+00  0.00000000E+00  0.00000000E+00
  0.00000000E+00  0.00000000E+00  0.00000000E+00
  0.00000000E+00  0.00000000E+00  0.00000000E+00
  0.00000000E+00  0.00000000E+00  0.00000000E+00
  0.00000000E+00  0.00000000E+00  0.00000000E+00
  0.00000000E+00  0.00000000E+00  0.00000000E+00
  0.00000000E+00  0.00000000E+00  0.00000000E+00
  0.00000000E+00  0.00000000E+00  0.00000000E+00
  0.00000000E+00  0.00000000E+00  0.00000000E+00
  0.00000000E+00  0.00000000E+00  0.00000000E+00
  0.00000000E+00  0.00000000E+00  0.00000000E+00
  0.00000000E+00  0.00000000E+00  0.00000000E+00
  0.00000000E+00  0.00000000E+00  0.00000000E+00
  0.00000000E+00  0.00000000E+00  0.00000000E+00
  0.00000000E+00  0.00000000E+00  0.00000000E+00
  0.00000000E+00  0.00000000E+00  0.00000000E+00
  0.00000000E+00  0.00000000E+00  0.00000000E+00
  0.00000000E+00  0.00000000E+00  0.00000000E+00
  0.00000000E+00  0.00000000E+00  0.00000000E+00
  0.00000000E+00  0.00000000E+00  0.00000000E+00
  0.00000000E+00  0.00000000E+00  0.00000000E+00
  0.00000000E+00  0.00000000E+00  0.00000000E+00
  0.00000000E+00  0.00000000E+00  0.00000000E+00
  0.00000000E+00  0.00000000E+00  0.00000000E+00
  0.00000000E+00  0.00000000E+00  0.00000000E+00
  0.00000000E+00  0.00000000E+00  0.00000000E+00
  0.00000000E+00  0.00000000E+00  0.00000000E+00
  0.00000000E+00  0.00000000E+00  0.00000000E+00
  0.00000000E+00  0.00000000E+00  0.00000000E+00
  0.00000000E+00  0.00000000E+00  0.00000000E+00
  0.00000000E+00  0.00000000E+00  0.00000000E+00
  0.00000000E+00  0.00000000E+00  0.00000000E+00
  0.00000000E+00  0.00000000E+00  0.00000000E+00
  0.00000000E+00  0.00000000E+00  0.00000000E+00
  0.00000000E+00  0.00000000E+00  0.00000000E+00
  0.00000000E+00  0.00000000E+00  0.00000000E+00
  0.00000000E+00  0.00000000E+00  0.00000000E+00
  0.00000000E+00  0.00000000E+00  0.00000000E+00
  0.00000000E+00  0.00000000E+00  0.00000000E+00
  0.00000000E+00  0.00000000E+00  0.00000000E+00
  0.00000000E+00  0.00000000E+00  0.00000000E+00
  0.00000000E+00  0.00000000E+00  0.00000000E+00
  0.00000000E+00  0.00000000E+00  0.00000000E+00
  0.00000000E+00  0.00000000E+00  0.00000000E+00
  0.00000000E+00  0.00000000E+00  0.00000000E+00
  0.00000000E+00  0.00000000E+00  0.00000000E+00
  0.00000000E+00  0.00000000E+00  0.00000000E+00
  0.00000000E+00  0.00000000E+00  0.00000000E+00
  0.00000000E+00  0.00000000E+00  0.00000000E+00
  0.00000000E+00  0.00000000E+00  0.00000000E+00
  0.00000000E+00  0.00000000E+00  0.00000000E+00
  0.00000000E+00  0.00000000E+00  0.00000000E+00
  0.00000000E+00  0.00000000E+00  0.00000000E+00
  0.00000000E+00  0.00000000E+00  0.00000000E+00
  0.00000000E+00  0.00000000E+00  0.00000000E+00
  0.00000000E+00  0.00000000E+00  0.00000000E+00
  0.00000000E+00  0.00000000E+00  0.00000000E+00
  0.00000000E+00  0.00000000E+00  0.00000000E+00
  0.00000000E+00  0.00000000E+00  0.00000000E+00
  0.00000000E+00  0.00000000E+00  0.00000000E+00
  0.00000000E+00  0.00000000E+00  0.00000000E+00
  0.00000000E+00  0.00000000E+00  0.00000000E+00
  0.00000000E+00  0.00000000E+00  0.00000000E+00
  0.00000000E+00  0.00000000E+00  0.00000000E+00
  0.00000000E+00  0.00000000E+00  0.00000000E+00
  0.00000000E+00  0.00000000E+00  0.00000000E+00
  0.00000000E+00  0.00000000E+00  0.00000000E+00
  0.00000000E+00  0.00000000E+00  0.00000000E+00
  0.00000000E+00  0.00000000E+00  0.00000000E+00
  0.00000000E+00  0.00000000E+00  0.00000000E+00
  0.00000000E+00  0.00000000E+00  0.00000000E+00
  0.00000000E+00  0.00000000E+00  0.00000000E+00
  0.00000000E+00  0.00000000E+00  0.00000000E+00
  0.00000000E+00  0.00000000E+00  0.00000000E+00
  0.00000000E+00  0.00000000E+00  0.00000000E+00
  0.00000000E+00  0.00000000E+00  0.00000000E+00
  0.00000000E+00  0.00000000E+00  0.00000000E+00
  0.00000000E+00  0.00000000E+00  0.00000000E+00
  0.00000000E+00  0.00000000E+00  0.00000000E+00
  0.00000000E+00  0.00000000E+00  0.00000000E+00
  0.00000000E+00  0.00000000E+00  0.00000000E+00
  0.00000000E+00  0.00000000E+00  0.00000000E+00
  0.00000000E+00  0.00000000E+00  0.00000000E+00
  0.00000000E+00  0.00000000E+00  0.00000000E+00
  0.00000000E+00  0.00000000E+00  0.00000000E+00
  0.00000000E+00  0.00000000E+00  0.00000000E+00
  0.00000000E+00  0.00000000E+00  0.00000000E+00
  0.00000000E+00  0.00000000E+00  0.00000000E+00
  0.00000000E+00  0.00000000E+00  0.00000000E+00
  0.00000000E+00  0.00000000E+00  0.00000000E+00
  0.00000000E+00  0.00000000E+00  0.00000000E+00
  0.00000000E+00  0.00000000E+00  0.00000000E+00
  0.00000000E+00  0.00000000E+00  0.00000000E+00
  0.00000000E+00  0.00000000E+00  0.00000000E+00
  0.00000000E+00  0.00000000E+00  0.00000000E+00
  0.00000000E+00  0.00000000E+00  0.00000000E+00
  0.00000000E+00  0.00000000E+00  0.00000000E+00
  0.00000000E+00  0.00000000E+00  0.00000000E+00
  0.00000000E+00  0.00000000E+00  0.00000000E+00
  0.00000000E+00  0.00000000E+00  0.00000000E+00
  0.00000000E+00  0.00000000E+00  0.00000000E+00
  0.00000000E+00  0.00000000E+00  0.00000000E+00
  0.00000000E+00  0.00000000E+00  0.00000000E+00
  0.00000000E+00  0.00000000E+00  0.00000000E+00
  0.00000000E+00  0.00000000E+00  0.00000000E+00
  0.00000000E+00  0.00000000E+00  0.00000000E+00
  0.00000000E+00  0.00000000E+00  0.00000000E+00
  0.00000000E+00  0.00000000E+00  0.00000000E+00
  0.00000000E+00  0.00000000E+00  0.00000000E+00
  0.00000000E+00  0.00000000E+00  0.00000000E+00
  0.00000000E+00  0.00000000E+00  0.00000000E+00
  0.00000000E+00  0.00000000E+00  0.00000000E+00
  0.00000000E+00  0.00000000E+00  0.00000000E+00
  0.00000000E+00  0.00000000E+00  0.00000000E+00
  0.00000000E+00  0.00000000E+00  0.00000000E+00
  0.00000000E+00  0.00000000E+00  0.00000000E+00
  0.00000000E+00  0.00000000E+00  0.00000000E+00
  0.00000000E+00  0.00000000E+00  0.00000000E+00
  0.00000000E+00  0.00000000E+00  0.00000000E+00
  0.00000000E+00  0.00000000E+00  0.00000000E+00
  0.00000000E+00  0.00000000E+00  0.00000000E+00
  0.00000000E+00  0.00000000E+00  0.00000000E+00
  0.00000000E+00  0.00000000E+00  0.00000000E+00
  0.00000000E+00  0.00000000E+00  0.00000000E+00
  0.00000000E+00  0.00000000E+00  0.00000000E+00
  0.00000000E+00  0.00000000E+00  0.00000000E+00
  0.00000000E+00  0.00000000E+00  0.00000000E+00
  0.00000000E+00  0.00000000E+00  0.00000000E+00
  0.00000000E+00  0.00000000E+00  0.00000000E+00
  0.00000000E+00  0.00000000E+00  0.00000000E+00
  0.00000000E+00  0.00000000E+00  0.00000000E+00
  0.00000000E+00  0.00000000E+00  0.00000000E+00
  0.00000000E+00  0.00000000E+00  0.00000000E+00
  0.00000000E+00  0.00000000E+00  0.00000000E+00
  0.00000000E+00  0.00000000E+00  0.00000000E+00
  0.00000000E+00  0.00000000E+00  0.00000000E+00
  0.00000000E+00  0.00000000E+00  0.00000000E+00
  0.00000000E+00  0.00000000E+00  0.00000000E+00
  0.00000000E+00  0.00000000E+00  0.00000000E+00
  0.00000000E+00  0.00000000E+00  0.00000000E+00
  0.00000000E+00  0.00000000E+00  0.00000000E+00
  0.00000000E+00  0.00000000E+00  0.00000000E+00
  0.00000000E+00  0.00000000E+00  0.00000000E+00
  0.00000000E+00  0.00000000E+00  0.00000000E+00
  0.00000000E+00  0.00000000E+00  0.00000000E+00
  0.00000000E+00  0.00000000E+00  0.00000000E+00
  0.00000000E+00  0.00000000E+00  0.00000000E+00
  0.00000000E+00  0.00000000E+00  0.00000000E+00
  0.00000000E+00  0.00000000E+00  0.00000000E+00
  0.00000000E+00  0.00000000E+00  0.00000000E+00
  0.00000000E+00  0.00000000E+00  0.00000000E+00
  0.00000000E+00  0.00000000E+00  0.00000000E+00
  0.00000000E+00  0.00000000E+00  0.00000000E+00
  0.00000000E+00  0.00000000E+00  0.00000000E+00
  0.00000000E+00  0.00000000E+00  0.00000000E+00
  0.00000000E+00  0.00000000E+00  0.00000000E+00
  0.00000000E+00  0.00000000E+00  0.00000000E+00
  0.00000000E+00  0.00000000E+00  0.00000000E+00
