SrTiFeO                                 
   1.00000000000000     
    11.1989999999999998    0.0000000000000000    0.0000000000000000
     0.0000000000000000   11.1989999999999998    0.0000000000000000
     0.0000000000000000    0.0000000000000000   15.9830000000000005
   Sr   Ti   Fe   O 
    32    29     3    94
Direct
  0.9998429131678558  0.2491704874842659  0.1235926070963860
  0.0008927118913146  0.2466764668417111  0.6286053384961149
  0.9987444664389042  0.7493920554760890  0.1257951409281315
  0.9999396679726181  0.7538093426919211  0.6251346791339398
  0.5013687975437843  0.2510803891806370  0.1257819029882378
  0.5045540496578579  0.2518249584171035  0.6236796367008779
  0.4999217693018280  0.7497164854497457  0.1238813853822917
  0.4984788319416335  0.7519454509065927  0.6284115458105041
  0.0008927118913146  0.2466764668417111  0.3713946615038850
  0.9998429131678558  0.2491704874842659  0.8764073929036141
  0.9999396679726181  0.7538093426919211  0.3748653208660603
  0.9987444664389042  0.7493920554760890  0.8742048590718685
  0.5045540496578579  0.2518249584171035  0.3763203632991221
  0.5013687975437843  0.2510803891806370  0.8742180970117622
  0.4984788319416335  0.7519454509065927  0.3715884541894960
  0.4999217693018280  0.7497164854497457  0.8761186146177083
  0.2501476587140848  0.9996452428044237  0.1251060010054160
  0.2511441434825721  0.0001940284522811  0.6260618827683115
  0.2503119123706350  0.4998415843691162  0.1241396032026080
  0.2546040937690111  0.5001125380766830  0.6280883857000470
  0.7497425893171575  0.9998577424410031  0.1249346316313207
  0.7518415890469776  0.0041956490033771  0.6244906274681663
  0.7495830047504353  0.5003679899792245  0.1243548116397845
  0.7468142479396138  0.5008293552193539  0.6294619784262679
  0.2511441434825721  0.0001940284522811  0.3739381172316885
  0.2501476587140848  0.9996452428044237  0.8748939989945840
  0.2546040937690111  0.5001125380766830  0.3719116142999531
  0.2503119123706350  0.4998415843691162  0.8758603967973920
  0.7518415890469776  0.0041956490033771  0.3755093725318338
  0.7497425893171575  0.9998577424410031  0.8750653683686793
  0.7468142479396138  0.5008293552193539  0.3705380215737322
  0.7495830047504353  0.5003679899792245  0.8756451883602154
  0.9996297525531413  0.9991107755416065 -0.0000000000000000
  0.0014198207925424  0.0046833431170962  0.5000000000000000
  0.0004899328014856  0.5002499477951804 -0.0000000000000000
  0.0095107365968874  0.5055445226328994  0.5000000000000000
  0.5003928851041255  0.0005302843473254 -0.0000000000000000
  0.5046352119044851  0.9974771902792430  0.5000000000000000
  0.4994547214592503  0.4996742727593168 -0.0000000000000000
  0.2508135851353943  0.2502220582562276 -0.0000000000000000
  0.2504583640040211  0.2461561983851649  0.5000000000000000
  0.2490513206542451  0.7496470109650870 -0.0000000000000000
  0.2558364125739848  0.7559850313068142  0.5000000000000000
  0.7497342830220690  0.2494619433446076 -0.0000000000000000
  0.7501420653827684  0.7505807389211261 -0.0000000000000000
  0.2509144146484892  0.2502005743345683  0.2500766832226830
  0.2509144146484892  0.2502005743345683  0.7499233167773168
  0.2494425771541319  0.7497850747524183  0.2498868016193585
  0.2494425771541319  0.7497850747524183  0.7501131983806415
  0.7507974022734710  0.2511413172747111  0.2508980316983884
  0.7507974022734710  0.2511413172747111  0.7491019683016117
  0.7492067971962196  0.7498362233598891  0.2515644171001770
  0.7492067971962196  0.7498362233598891  0.7484355828998229
  0.0000382620344358  0.9999336720464312  0.2499199500643430
  0.0000382620344358  0.9999336720464312  0.7500800499356571
  0.9994127422110562  0.4990966430552893  0.2496597671566429
  0.9994127422110562  0.4990966430552893  0.7503402328433573
  0.5004946610986944  0.0006167287677514  0.2503059443972387
  0.5004946610986944  0.0006167287677514  0.7496940556027611
  0.5002830603646304  0.5011676837874348  0.2504371754981607
  0.5002830603646304  0.5011676837874348  0.7495628245018393
  0.7444085808832500  0.2514814795502798  0.5000000000000000
  0.4888495557425681  0.4951205780476213  0.5000000000000000
  0.7563916925890104  0.7598258664197435  0.5000000000000000
  0.1102034323717461  0.1398775590896247  0.2480480588985123
  0.1102034323717461  0.1398775590896247  0.7519519411014878
  0.1081115181811726  0.6391748331084565  0.2551117531750098
  0.1081115181811726  0.6391748331084565  0.7448882468249972
  0.6097019922349739  0.1411277118758512  0.2534102709021071
  0.6097019922349739  0.1411277118758512  0.7465897290978928
  0.6094344063386744  0.6406876616879962  0.2455121883168397
  0.6094344063386744  0.6406876616879962  0.7544878116831604
  0.3911112635322810  0.3597356901114221  0.2544067789582161
  0.3911112635322810  0.3597356901114221  0.7455932210417838
  0.3894346869544270  0.8596060942863414  0.2483020545885934
  0.3894346869544270  0.8596060942863414  0.7516979454114067
  0.8914302573858115  0.3595840124953617  0.2446905911121165
  0.8914302573858115  0.3595840124953617  0.7553094088878836
  0.8896310171548133  0.8587269331905709  0.2540269992627529
  0.8896310171548133  0.8587269331905709  0.7459730007372470
  0.3598041189598247  0.1100047190820643  0.2497717248017320
  0.3598041189598247  0.1100047190820643  0.7502282751982680
  0.3582325609212228  0.6094208467077972  0.2485154074476997
  0.3582325609212228  0.6094208467077972  0.7514845925523004
  0.8599002172390697  0.1090011481204090  0.2502244299794242
  0.8599002172390697  0.1090011481204090  0.7497755700205757
  0.8598883206089709  0.6093416899959890  0.2487099511851451
  0.8598883206089709  0.6093416899959890  0.7512900488148551
  0.1410902709965212  0.3910003205993116  0.2510960492860084
  0.1410902709965212  0.3910003205993116  0.7489039507139915
  0.1397218621886719  0.8892399351271102  0.2497908753304917
  0.1397218621886719  0.8892399351271102  0.7502091246695082
  0.6398127959874421  0.3909441894026285  0.2472585756353892
  0.6398127959874421  0.3909441894026285  0.7527414243646180
  0.6407603085102311  0.8909272570926668  0.2514343003668696
  0.6407603085102311  0.8909272570926668  0.7485656996331302
  0.3586522588463502  0.3906886931835095 -0.0000000000000000
  0.3590487318518069  0.8904965324842605 -0.0000000000000000
  0.3551509937317027  0.8944109618369452  0.5000000000000000
  0.8602359808867264  0.3905372318744461 -0.0000000000000000
  0.8590023363599405  0.8911750433493694 -0.0000000000000000
  0.8633093328773258  0.8884929520542255  0.5000000000000000
  0.1407882566272054  0.1093293362480222 -0.0000000000000000
  0.1477044917480180  0.1038897906897294  0.5000000000000000
  0.1411530221914733  0.6087563712035491 -0.0000000000000000
  0.1387194373701386  0.6078680967571662  0.5000000000000000
  0.6405730368031143  0.1085765712822505 -0.0000000000000000
  0.6390128190445196  0.1000755546234828  0.5000000000000000
  0.6400803907000228  0.6099661295627972 -0.0000000000000000
  0.1094465030146001  0.3589723268252660 -0.0000000000000000
  0.0956902408834295  0.3530960520098230  0.5000000000000000
  0.1087416844848431  0.8588631946681170 -0.0000000000000000
  0.1091117766267013  0.8544602083047941  0.5000000000000000
  0.6094259280078255  0.3595680325251882 -0.0000000000000000
  0.6089353005171071  0.8594572662576020 -0.0000000000000000
  0.6031302359100728  0.8475776372099926  0.5000000000000000
  0.3908905564778530  0.1408661264089737 -0.0000000000000000
  0.3936498723601564  0.1443944770943872  0.5000000000000000
  0.3900835891072967  0.6411903966556144 -0.0000000000000000
  0.8912569900261198  0.1401226173433064 -0.0000000000000000
  0.8995238404100319  0.1400026290028775  0.5000000000000000
  0.8906744444848861  0.6404583341840395 -0.0000000000000000
  0.9988836840903141  0.9976659684494407  0.1252045440869462
  0.0030579002199176  0.9997302327058196  0.6256840037926873
  0.0029493946880415  0.5021110368368145  0.1250873350127674
  0.9888940075641517  0.4888634835392879  0.6223821555236646
  0.5012971136939932  0.0010499603167845  0.1253166691302584
  0.4973548543055333  0.9977087892822840  0.6252939839956982
  0.4970853399532080  0.4985317191199015  0.1244644127820158
  0.5043880329830394  0.5096325503278575  0.6256902334682207
  0.0030579002199176  0.9997302327058196  0.3743159962073128
  0.9988836840903141  0.9976659684494407  0.8747954559130539
  0.9888940075641517  0.4888634835392879  0.3776178444763356
  0.0029493946880415  0.5021110368368145  0.8749126649872397
  0.4973548543055333  0.9977087892822840  0.3747060160043016
  0.5012971136939932  0.0010499603167845  0.8746833308697416
  0.4970853399532080  0.4985317191199015  0.8755355872179842
  0.2472537977467774  0.2490100583167501  0.3753618716544058
  0.2518682429456458  0.2519056469876585  0.8746216910038997
  0.2510375115678990  0.7492302871397400  0.3750980771690263
  0.2467323063012800  0.7484861886810695  0.8747986529550628
  0.7487134075943035  0.2476442889893888  0.8756738748305376
  0.7515898683566160  0.7523283485017506  0.8748936347888617
  0.2518682429456458  0.2519056469876585  0.1253783089961003
  0.2472537977467774  0.2490100583167501  0.6246381283455942
  0.2467323063012800  0.7484861886810695  0.1252013470449371
  0.2510375115678990  0.7492302871397400  0.6249019228309737
  0.7487134075943035  0.2476442889893888  0.1243261251694625
  0.7563941347996482  0.2601184376186254  0.6268394030429959
  0.7515898683566160  0.7523283485017506  0.1251063652111381
  0.7418477392430700  0.7387119527233940  0.6232317426450853
  0.7563941347996482  0.2601184376186254  0.3731605969570041
  0.3966323439663922  0.6457225130574354  0.5000000000000000
  0.5043880329830394  0.5096325503278575  0.3743097665317794
  0.3555921306556735  0.3895713295685697  0.5000000000000000
  0.8653756205468867  0.6098661430324077  0.5000000000000000
  0.7418477392430700  0.7387119527233940  0.3767682573549148
  0.6349114724691113  0.4026617376680694  0.5000000000000000
 
  0.00000000E+00  0.00000000E+00  0.00000000E+00
  0.00000000E+00  0.00000000E+00  0.00000000E+00
  0.00000000E+00  0.00000000E+00  0.00000000E+00
  0.00000000E+00  0.00000000E+00  0.00000000E+00
  0.00000000E+00  0.00000000E+00  0.00000000E+00
  0.00000000E+00  0.00000000E+00  0.00000000E+00
  0.00000000E+00  0.00000000E+00  0.00000000E+00
  0.00000000E+00  0.00000000E+00  0.00000000E+00
  0.00000000E+00  0.00000000E+00  0.00000000E+00
  0.00000000E+00  0.00000000E+00  0.00000000E+00
  0.00000000E+00  0.00000000E+00  0.00000000E+00
  0.00000000E+00  0.00000000E+00  0.00000000E+00
  0.00000000E+00  0.00000000E+00  0.00000000E+00
  0.00000000E+00  0.00000000E+00  0.00000000E+00
  0.00000000E+00  0.00000000E+00  0.00000000E+00
  0.00000000E+00  0.00000000E+00  0.00000000E+00
  0.00000000E+00  0.00000000E+00  0.00000000E+00
  0.00000000E+00  0.00000000E+00  0.00000000E+00
  0.00000000E+00  0.00000000E+00  0.00000000E+00
  0.00000000E+00  0.00000000E+00  0.00000000E+00
  0.00000000E+00  0.00000000E+00  0.00000000E+00
  0.00000000E+00  0.00000000E+00  0.00000000E+00
  0.00000000E+00  0.00000000E+00  0.00000000E+00
  0.00000000E+00  0.00000000E+00  0.00000000E+00
  0.00000000E+00  0.00000000E+00  0.00000000E+00
  0.00000000E+00  0.00000000E+00  0.00000000E+00
  0.00000000E+00  0.00000000E+00  0.00000000E+00
  0.00000000E+00  0.00000000E+00  0.00000000E+00
  0.00000000E+00  0.00000000E+00  0.00000000E+00
  0.00000000E+00  0.00000000E+00  0.00000000E+00
  0.00000000E+00  0.00000000E+00  0.00000000E+00
  0.00000000E+00  0.00000000E+00  0.00000000E+00
  0.00000000E+00  0.00000000E+00  0.00000000E+00
  0.00000000E+00  0.00000000E+00  0.00000000E+00
  0.00000000E+00  0.00000000E+00  0.00000000E+00
  0.00000000E+00  0.00000000E+00  0.00000000E+00
  0.00000000E+00  0.00000000E+00  0.00000000E+00
  0.00000000E+00  0.00000000E+00  0.00000000E+00
  0.00000000E+00  0.00000000E+00  0.00000000E+00
  0.00000000E+00  0.00000000E+00  0.00000000E+00
  0.00000000E+00  0.00000000E+00  0.00000000E+00
  0.00000000E+00  0.00000000E+00  0.00000000E+00
  0.00000000E+00  0.00000000E+00  0.00000000E+00
  0.00000000E+00  0.00000000E+00  0.00000000E+00
  0.00000000E+00  0.00000000E+00  0.00000000E+00
  0.00000000E+00  0.00000000E+00  0.00000000E+00
  0.00000000E+00  0.00000000E+00  0.00000000E+00
  0.00000000E+00  0.00000000E+00  0.00000000E+00
  0.00000000E+00  0.00000000E+00  0.00000000E+00
  0.00000000E+00  0.00000000E+00  0.00000000E+00
  0.00000000E+00  0.00000000E+00  0.00000000E+00
  0.00000000E+00  0.00000000E+00  0.00000000E+00
  0.00000000E+00  0.00000000E+00  0.00000000E+00
  0.00000000E+00  0.00000000E+00  0.00000000E+00
  0.00000000E+00  0.00000000E+00  0.00000000E+00
  0.00000000E+00  0.00000000E+00  0.00000000E+00
  0.00000000E+00  0.00000000E+00  0.00000000E+00
  0.00000000E+00  0.00000000E+00  0.00000000E+00
  0.00000000E+00  0.00000000E+00  0.00000000E+00
  0.00000000E+00  0.00000000E+00  0.00000000E+00
  0.00000000E+00  0.00000000E+00  0.00000000E+00
  0.00000000E+00  0.00000000E+00  0.00000000E+00
  0.00000000E+00  0.00000000E+00  0.00000000E+00
  0.00000000E+00  0.00000000E+00  0.00000000E+00
  0.00000000E+00  0.00000000E+00  0.00000000E+00
  0.00000000E+00  0.00000000E+00  0.00000000E+00
  0.00000000E+00  0.00000000E+00  0.00000000E+00
  0.00000000E+00  0.00000000E+00  0.00000000E+00
  0.00000000E+00  0.00000000E+00  0.00000000E+00
  0.00000000E+00  0.00000000E+00  0.00000000E+00
  0.00000000E+00  0.00000000E+00  0.00000000E+00
  0.00000000E+00  0.00000000E+00  0.00000000E+00
  0.00000000E+00  0.00000000E+00  0.00000000E+00
  0.00000000E+00  0.00000000E+00  0.00000000E+00
  0.00000000E+00  0.00000000E+00  0.00000000E+00
  0.00000000E+00  0.00000000E+00  0.00000000E+00
  0.00000000E+00  0.00000000E+00  0.00000000E+00
  0.00000000E+00  0.00000000E+00  0.00000000E+00
  0.00000000E+00  0.00000000E+00  0.00000000E+00
  0.00000000E+00  0.00000000E+00  0.00000000E+00
  0.00000000E+00  0.00000000E+00  0.00000000E+00
  0.00000000E+00  0.00000000E+00  0.00000000E+00
  0.00000000E+00  0.00000000E+00  0.00000000E+00
  0.00000000E+00  0.00000000E+00  0.00000000E+00
  0.00000000E+00  0.00000000E+00  0.00000000E+00
  0.00000000E+00  0.00000000E+00  0.00000000E+00
  0.00000000E+00  0.00000000E+00  0.00000000E+00
  0.00000000E+00  0.00000000E+00  0.00000000E+00
  0.00000000E+00  0.00000000E+00  0.00000000E+00
  0.00000000E+00  0.00000000E+00  0.00000000E+00
  0.00000000E+00  0.00000000E+00  0.00000000E+00
  0.00000000E+00  0.00000000E+00  0.00000000E+00
  0.00000000E+00  0.00000000E+00  0.00000000E+00
  0.00000000E+00  0.00000000E+00  0.00000000E+00
  0.00000000E+00  0.00000000E+00  0.00000000E+00
  0.00000000E+00  0.00000000E+00  0.00000000E+00
  0.00000000E+00  0.00000000E+00  0.00000000E+00
  0.00000000E+00  0.00000000E+00  0.00000000E+00
  0.00000000E+00  0.00000000E+00  0.00000000E+00
  0.00000000E+00  0.00000000E+00  0.00000000E+00
  0.00000000E+00  0.00000000E+00  0.00000000E+00
  0.00000000E+00  0.00000000E+00  0.00000000E+00
  0.00000000E+00  0.00000000E+00  0.00000000E+00
  0.00000000E+00  0.00000000E+00  0.00000000E+00
  0.00000000E+00  0.00000000E+00  0.00000000E+00
  0.00000000E+00  0.00000000E+00  0.00000000E+00
  0.00000000E+00  0.00000000E+00  0.00000000E+00
  0.00000000E+00  0.00000000E+00  0.00000000E+00
  0.00000000E+00  0.00000000E+00  0.00000000E+00
  0.00000000E+00  0.00000000E+00  0.00000000E+00
  0.00000000E+00  0.00000000E+00  0.00000000E+00
  0.00000000E+00  0.00000000E+00  0.00000000E+00
  0.00000000E+00  0.00000000E+00  0.00000000E+00
  0.00000000E+00  0.00000000E+00  0.00000000E+00
  0.00000000E+00  0.00000000E+00  0.00000000E+00
  0.00000000E+00  0.00000000E+00  0.00000000E+00
  0.00000000E+00  0.00000000E+00  0.00000000E+00
  0.00000000E+00  0.00000000E+00  0.00000000E+00
  0.00000000E+00  0.00000000E+00  0.00000000E+00
  0.00000000E+00  0.00000000E+00  0.00000000E+00
  0.00000000E+00  0.00000000E+00  0.00000000E+00
  0.00000000E+00  0.00000000E+00  0.00000000E+00
  0.00000000E+00  0.00000000E+00  0.00000000E+00
  0.00000000E+00  0.00000000E+00  0.00000000E+00
  0.00000000E+00  0.00000000E+00  0.00000000E+00
  0.00000000E+00  0.00000000E+00  0.00000000E+00
  0.00000000E+00  0.00000000E+00  0.00000000E+00
  0.00000000E+00  0.00000000E+00  0.00000000E+00
  0.00000000E+00  0.00000000E+00  0.00000000E+00
  0.00000000E+00  0.00000000E+00  0.00000000E+00
  0.00000000E+00  0.00000000E+00  0.00000000E+00
  0.00000000E+00  0.00000000E+00  0.00000000E+00
  0.00000000E+00  0.00000000E+00  0.00000000E+00
  0.00000000E+00  0.00000000E+00  0.00000000E+00
  0.00000000E+00  0.00000000E+00  0.00000000E+00
  0.00000000E+00  0.00000000E+00  0.00000000E+00
  0.00000000E+00  0.00000000E+00  0.00000000E+00
  0.00000000E+00  0.00000000E+00  0.00000000E+00
  0.00000000E+00  0.00000000E+00  0.00000000E+00
  0.00000000E+00  0.00000000E+00  0.00000000E+00
  0.00000000E+00  0.00000000E+00  0.00000000E+00
  0.00000000E+00  0.00000000E+00  0.00000000E+00
  0.00000000E+00  0.00000000E+00  0.00000000E+00
  0.00000000E+00  0.00000000E+00  0.00000000E+00
  0.00000000E+00  0.00000000E+00  0.00000000E+00
  0.00000000E+00  0.00000000E+00  0.00000000E+00
  0.00000000E+00  0.00000000E+00  0.00000000E+00
  0.00000000E+00  0.00000000E+00  0.00000000E+00
  0.00000000E+00  0.00000000E+00  0.00000000E+00
  0.00000000E+00  0.00000000E+00  0.00000000E+00
  0.00000000E+00  0.00000000E+00  0.00000000E+00
  0.00000000E+00  0.00000000E+00  0.00000000E+00
  0.00000000E+00  0.00000000E+00  0.00000000E+00
  0.00000000E+00  0.00000000E+00  0.00000000E+00
  0.00000000E+00  0.00000000E+00  0.00000000E+00
  0.00000000E+00  0.00000000E+00  0.00000000E+00
  0.00000000E+00  0.00000000E+00  0.00000000E+00
  0.00000000E+00  0.00000000E+00  0.00000000E+00
