Sr   Ti   Fe   O                        
   1.00000000000000     
    11.1989999999999998    0.0000000000000000    0.0000000000000000
     0.0000000000000000   11.1989999999999998    0.0000000000000000
     0.0000000000000000    0.0000000000000000   15.9830000000000005
   Sr   Ti   Fe   O 
    32    31     1    94
Direct
  0.0015577501656306  0.2503814022065268  0.1235983930570526
  0.0020919785950793  0.2492211032221975  0.6245986412719473
  0.9987508194380376  0.7501405212193832  0.1254006997372650
  0.9957055745017762  0.7498292252577737  0.6229101269641552
  0.4981711515839106  0.2503964103668156  0.1239598717501987
  0.4924705882506912  0.2442530947178306  0.6299461363831578
  0.5000483143808682  0.7488117724572193  0.1243892391590218
  0.4998963891172097  0.7570281570694529  0.6295278037287431
  0.0083147447885512  0.2499030754995833  0.3756016737629688
 -0.0005720073829066  0.2499939436446447  0.8750086162083401
  0.9992279070784842  0.7500368513835914  0.3755582137131807
  0.9985542030069227  0.7500869639768601  0.8744083039043291
  0.4865365743771263  0.2428252735977437  0.3712355450352486
  0.4992816610864583  0.2516419579209931  0.8755255187169757
  0.4995856964184607  0.7556532885724930  0.3707766391281096
  0.4991032162401726  0.7496020920742205  0.8760866191523137
  0.2496990099994735  0.9994239222057004  0.1249737761753181
  0.2476622629492021  0.9995492892376561  0.6254287223227060
  0.2510752278562370  0.5005184623550938  0.1245640811587131
  0.2469242117370682  0.4984834657384003  0.6281414337404785
  0.7505134385335455  0.9975396117491395  0.1243580286768675
  0.7488542154907645  0.9974077733991702  0.6240512174880236
  0.7484191309408064  0.5020376368345814  0.1235794023219106
  0.7554386804861739  0.5010426098888783  0.6314785140756174
  0.2485188025650876  0.9983493532464223  0.3749563663376660
  0.2493011955192975  0.9995945242968938  0.8751572525576194
  0.2477485408533108  0.4990240898202964  0.3722041851680352
  0.2505790973028258  0.5004505840145251  0.8758219734920931
  0.7482241206562695  0.9894109081303140  0.3774526072048651
  0.7500830378504273  0.9993734875638089  0.8746653367036733
  0.7595724688861797  0.5068809679283195  0.3694857191156287
  0.7488132906991365  0.5014472743548434  0.8757470976022806
  0.9994178280141215  0.0000549929872432 -0.0000204933701667
  0.9975447201977470  0.9994263594135194  0.4995911454835353
  0.9998995380658220  0.4996675795330885 -0.0000144129872008
  1.0016913282351505  0.5017587913649905  0.4989716985488167
  0.5000231506247402  0.0003492544384708  1.0000399952552663
  0.4985912357319768  0.9989593672180505  0.4994437438583118
  0.4995092874903838  0.4996196842758546  0.0001254422737558
  0.2498535307186812  0.2496952856714238  0.9997233456754029
  0.2484088410500960  0.2456729321524537  0.5006678134398898
  0.2495677253337016  0.7500415891489305  0.0002985693585521
  0.2491838162856509  0.7523339161733378  0.5005651176546972
  0.7501678156098799  0.2497266148172739  0.9973781861154041
  0.7498848325704015  0.7504257210585518  0.9997671670555209
  0.2489785912767863  0.2495575828239630  0.2483109725274158
  0.2486521337308627  0.2498363203169855  0.7511014107225095
  0.2496623363536032  0.7497455031889197  0.2490423955349023
  0.2488225971045300  0.7499918072433837  0.7500332527517912
  0.7499144857427814  0.2493903448773211  0.2456976018927065
  0.7485994564672767  0.2504258119152940  0.7491680006366627
  0.7494788094515160  0.7491298932830988  0.2503943716865824
  0.7485842884328570  0.7496862150428318  0.7491426231183614
  0.9996180402606557  0.9997294604685900  0.2510103117007935
  0.9988302350049602  1.0001328598514974  0.7493614944316536
  0.0011820641546449  0.5000815169503391  0.2493685025052292
  0.9998854135430002  0.4997806650555645  0.7506868614705413
  0.4999674745758400  0.9997455086945292  0.2496415215040883
  0.4999300577303967  0.0009148257755534  0.7510931815832360
  0.4995740757453295  0.4995313177930141  0.2510588572928028
  0.4989620715747956  0.5003759636670375  0.7502202919492140
  0.7561119982212152  0.2533488904636269  0.5001089466225079
  0.4880811253133828  0.5047270437318331  0.5003011945331421
  0.7537095252590491  0.7515458193851507  0.5007331537117965
  0.1095954307356168  0.1403035140601904  0.2481534315844678
  0.1085713066540252  0.1411787553497666  0.7514833154914881
  0.1107313359256509  0.6402757353233398  0.2477209253513982
  0.1089653548298608  0.6402796794043758  0.7487178108445841
  0.6113128241766611  0.1411113971803209  0.2565912247157897
  0.6080705486578720  0.1418521215063083  0.7525730818092600
  0.6095803628386651  0.6378829663711122  0.2467073889831075
  0.6077262500343126  0.6398482607781462  0.7543152202916293
  0.3888810280189804  0.3594200049643942  0.2485570476074215
  0.3892317550731688  0.3589864461290110  0.7512129170174487
  0.3898865175870654  0.8602892440614853  0.2472616407344436
  0.3898480510412380  0.8611412901377170  0.7497431315155496
  0.8879969175527548  0.3596889986512471  0.2577952443391413
  0.8899312594363495  0.3596118386610606  0.7496316863491165
  0.8885409109066953  0.8609754968060541  0.2514029665393434
  0.8889347069778919  0.8599954199137013  0.7476850980355472
  0.3606438816466637  0.1110921443742596  0.2502019863362221
  0.3592961273807128  0.1101896684569951  0.7490203295801033
  0.3593690523118808  0.6102989318182892  0.2478964590202873
  0.3579621228204363  0.6102174295611438  0.7514765548347452
  0.8579092145170709  0.1116709625345732  0.2592218890023431
  0.8577149586735600  0.1094878769401995  0.7478309599443064
  0.8624907884643280  0.6109728442568236  0.2451444635937809
  0.8609717718303981  0.6103876318456555  0.7532876361882487
  0.1400978717861002  0.3894252214158648  0.2484782776391521
  0.1404197417451048  0.3906555027929929  0.7513135828616844
  0.1399271313760782  0.8897574119067782  0.2473066801066195
  0.1397260306488227  0.8904103670944893  0.7512144684549275
  0.6402405375346695  0.3879027940973888  0.2564019191326917
  0.6391732445816395  0.3917677204851751  0.7539614457301654
  0.6390639363237348  0.8898365892189677  0.2496771635738316
  0.6396171525903810  0.8915238014259587  0.7503881844479432
  0.3587366865998886  0.3900801867578211  0.0006718189608070
  0.3594402382805049  0.8910135295822711  0.0008416598299607
  0.3559222160188607  0.8949200028148215  0.5018187737199180
  0.8587295692090343  0.3907645879836671  0.9998738164201626
  0.8591728629407928  0.8911707149078519  0.0000896403552098
  0.8641819529198651  0.8967544003475489  0.5010009385315518
  0.1404635514060666  0.1088020882727903  0.0004653876081541
  0.1416969982968291  0.1098378684228948  0.5000946589527840
  0.1402783586286733  0.6090199291357480  0.0007314952856498
  0.1505231900469843  0.6067061556970070  0.5011327072850142
  0.6414648289973118  0.1091322605757008  0.9997154409558829
  0.6298152236360200  0.1316656984902412  0.4881328021801946
  0.6400546473502180  0.6094023898937826  0.0000265426895763
  0.1092310641713713  0.3584695436282175  0.9995764990115894
  0.1184773772233240  0.3617806051217381  0.5000875002614498
  0.1087727834879120  0.8597997606265994  0.0008296538114048
  0.1105291272319968  0.8563286925634754  0.5008749393100119
  0.6096559550619717  0.3587190775075997  0.9997762298116214
  0.6086507182101182  0.8600238036181421  0.0003735289834990
  0.6061471416412367  0.8667075846773222  0.5002116394237670
  0.3910092289151330  0.1410018057181587  1.0000696867727410
  0.3867445725261416  0.1387490472014054  0.5007257689549585
  0.3903300638284977  0.6404733236868294  0.0010569360953913
  0.8910743714416751  0.1414905349190652  1.0001268386442201
  0.8933367766955225  0.1387655147371282  0.4946048124192419
  0.8906542714907083  0.6402608390415255  0.0005734156249036
  0.9950323410598041  0.0025013307659837  0.1258514137607279
  0.0031721608452774  0.0026470938498657  0.6257559023788939
  0.9991859128246261  0.4948839444432732  0.1248703196349271
  0.9990858879724548  0.4963546545756017  0.6250549510673283
  0.5021338029810264  0.0042785044376324  0.1254282195729059
  0.5045218787425650  0.0060080678674421  0.6252225234679852
  0.5013255448649069  0.4961853820851922  0.1251548174980411
  0.4942647982383730  0.5008426139632954  0.6265721104664443
  0.0084676405203603  0.9961282293884677  0.3738913590559663
  0.9981526809578484  0.9999404235925494  0.8750718807012553
  0.0085525745162348  0.5052667992874513  0.3728529634819819
  0.0008662859022635  0.4992933084681422  0.8754200587505082
  0.4942263529400091  0.9969728811225587  0.3737551339420372
  0.4985539112779712  1.0001145601739880  0.8754252612333077
  0.4962931750278302  0.4994377308001107  0.8764455478899698
  0.2498578292914721  0.2498895381343208  0.3741172209937688
  0.2504008026599358  0.2488071320055308  0.8755071083033710
  0.2517600484231728  0.7502475545533132  0.3747926224560869
  0.2495774818142235  0.7501172067930609  0.8755433687752865
  0.7518588158184031  0.2490459978038676  0.8751205603565427
  0.7501977359726029  0.7516257012690821  0.8759404864440394
  0.2500782471765171  0.2490256005218287  0.1243229376689441
  0.2489497811700529  0.2504214435085463  0.6261168400679509
  0.2500317689222549  0.7499257091551694  0.1242121095126296
  0.2513935195792114  0.7499500763063882  0.6254252911399749
  0.7508164990688831  0.2497465108009178  0.1251024100729229
  0.7413254041090707  0.2570101020620749  0.6261501354070750
  0.7494923820767957  0.7516041210631219  0.1240279222550987
  0.7408123244074556  0.7409743485436636  0.6279234389556198
  0.8724868517425900  0.3829811835159750  0.4879702493576004
  0.4075963262455654  0.6545897386528231  0.5009779431571423
  0.4903333221219399  0.5035936921798120  0.3746095010671444
  0.3740408285104065  0.3799344926276726  0.5005038223613506
  0.8961409788079485  0.6342887434723037  0.4987632251991660
  0.7448978212990290  0.7408937732135196  0.3719236282420955
  0.6516338313852175  0.4838138101025016  0.4997094313952449
 
  0.00000000E+00  0.00000000E+00  0.00000000E+00
  0.00000000E+00  0.00000000E+00  0.00000000E+00
  0.00000000E+00  0.00000000E+00  0.00000000E+00
  0.00000000E+00  0.00000000E+00  0.00000000E+00
  0.00000000E+00  0.00000000E+00  0.00000000E+00
  0.00000000E+00  0.00000000E+00  0.00000000E+00
  0.00000000E+00  0.00000000E+00  0.00000000E+00
  0.00000000E+00  0.00000000E+00  0.00000000E+00
  0.00000000E+00  0.00000000E+00  0.00000000E+00
  0.00000000E+00  0.00000000E+00  0.00000000E+00
  0.00000000E+00  0.00000000E+00  0.00000000E+00
  0.00000000E+00  0.00000000E+00  0.00000000E+00
  0.00000000E+00  0.00000000E+00  0.00000000E+00
  0.00000000E+00  0.00000000E+00  0.00000000E+00
  0.00000000E+00  0.00000000E+00  0.00000000E+00
  0.00000000E+00  0.00000000E+00  0.00000000E+00
  0.00000000E+00  0.00000000E+00  0.00000000E+00
  0.00000000E+00  0.00000000E+00  0.00000000E+00
  0.00000000E+00  0.00000000E+00  0.00000000E+00
  0.00000000E+00  0.00000000E+00  0.00000000E+00
  0.00000000E+00  0.00000000E+00  0.00000000E+00
  0.00000000E+00  0.00000000E+00  0.00000000E+00
  0.00000000E+00  0.00000000E+00  0.00000000E+00
  0.00000000E+00  0.00000000E+00  0.00000000E+00
  0.00000000E+00  0.00000000E+00  0.00000000E+00
  0.00000000E+00  0.00000000E+00  0.00000000E+00
  0.00000000E+00  0.00000000E+00  0.00000000E+00
  0.00000000E+00  0.00000000E+00  0.00000000E+00
  0.00000000E+00  0.00000000E+00  0.00000000E+00
  0.00000000E+00  0.00000000E+00  0.00000000E+00
  0.00000000E+00  0.00000000E+00  0.00000000E+00
  0.00000000E+00  0.00000000E+00  0.00000000E+00
  0.00000000E+00  0.00000000E+00  0.00000000E+00
  0.00000000E+00  0.00000000E+00  0.00000000E+00
  0.00000000E+00  0.00000000E+00  0.00000000E+00
  0.00000000E+00  0.00000000E+00  0.00000000E+00
  0.00000000E+00  0.00000000E+00  0.00000000E+00
  0.00000000E+00  0.00000000E+00  0.00000000E+00
  0.00000000E+00  0.00000000E+00  0.00000000E+00
  0.00000000E+00  0.00000000E+00  0.00000000E+00
  0.00000000E+00  0.00000000E+00  0.00000000E+00
  0.00000000E+00  0.00000000E+00  0.00000000E+00
  0.00000000E+00  0.00000000E+00  0.00000000E+00
  0.00000000E+00  0.00000000E+00  0.00000000E+00
  0.00000000E+00  0.00000000E+00  0.00000000E+00
  0.00000000E+00  0.00000000E+00  0.00000000E+00
  0.00000000E+00  0.00000000E+00  0.00000000E+00
  0.00000000E+00  0.00000000E+00  0.00000000E+00
  0.00000000E+00  0.00000000E+00  0.00000000E+00
  0.00000000E+00  0.00000000E+00  0.00000000E+00
  0.00000000E+00  0.00000000E+00  0.00000000E+00
  0.00000000E+00  0.00000000E+00  0.00000000E+00
  0.00000000E+00  0.00000000E+00  0.00000000E+00
  0.00000000E+00  0.00000000E+00  0.00000000E+00
  0.00000000E+00  0.00000000E+00  0.00000000E+00
  0.00000000E+00  0.00000000E+00  0.00000000E+00
  0.00000000E+00  0.00000000E+00  0.00000000E+00
  0.00000000E+00  0.00000000E+00  0.00000000E+00
  0.00000000E+00  0.00000000E+00  0.00000000E+00
  0.00000000E+00  0.00000000E+00  0.00000000E+00
  0.00000000E+00  0.00000000E+00  0.00000000E+00
  0.00000000E+00  0.00000000E+00  0.00000000E+00
  0.00000000E+00  0.00000000E+00  0.00000000E+00
  0.00000000E+00  0.00000000E+00  0.00000000E+00
  0.00000000E+00  0.00000000E+00  0.00000000E+00
  0.00000000E+00  0.00000000E+00  0.00000000E+00
  0.00000000E+00  0.00000000E+00  0.00000000E+00
  0.00000000E+00  0.00000000E+00  0.00000000E+00
  0.00000000E+00  0.00000000E+00  0.00000000E+00
  0.00000000E+00  0.00000000E+00  0.00000000E+00
  0.00000000E+00  0.00000000E+00  0.00000000E+00
  0.00000000E+00  0.00000000E+00  0.00000000E+00
  0.00000000E+00  0.00000000E+00  0.00000000E+00
  0.00000000E+00  0.00000000E+00  0.00000000E+00
  0.00000000E+00  0.00000000E+00  0.00000000E+00
  0.00000000E+00  0.00000000E+00  0.00000000E+00
  0.00000000E+00  0.00000000E+00  0.00000000E+00
  0.00000000E+00  0.00000000E+00  0.00000000E+00
  0.00000000E+00  0.00000000E+00  0.00000000E+00
  0.00000000E+00  0.00000000E+00  0.00000000E+00
  0.00000000E+00  0.00000000E+00  0.00000000E+00
  0.00000000E+00  0.00000000E+00  0.00000000E+00
  0.00000000E+00  0.00000000E+00  0.00000000E+00
  0.00000000E+00  0.00000000E+00  0.00000000E+00
  0.00000000E+00  0.00000000E+00  0.00000000E+00
  0.00000000E+00  0.00000000E+00  0.00000000E+00
  0.00000000E+00  0.00000000E+00  0.00000000E+00
  0.00000000E+00  0.00000000E+00  0.00000000E+00
  0.00000000E+00  0.00000000E+00  0.00000000E+00
  0.00000000E+00  0.00000000E+00  0.00000000E+00
  0.00000000E+00  0.00000000E+00  0.00000000E+00
  0.00000000E+00  0.00000000E+00  0.00000000E+00
  0.00000000E+00  0.00000000E+00  0.00000000E+00
  0.00000000E+00  0.00000000E+00  0.00000000E+00
  0.00000000E+00  0.00000000E+00  0.00000000E+00
  0.00000000E+00  0.00000000E+00  0.00000000E+00
  0.00000000E+00  0.00000000E+00  0.00000000E+00
  0.00000000E+00  0.00000000E+00  0.00000000E+00
  0.00000000E+00  0.00000000E+00  0.00000000E+00
  0.00000000E+00  0.00000000E+00  0.00000000E+00
  0.00000000E+00  0.00000000E+00  0.00000000E+00
  0.00000000E+00  0.00000000E+00  0.00000000E+00
  0.00000000E+00  0.00000000E+00  0.00000000E+00
  0.00000000E+00  0.00000000E+00  0.00000000E+00
  0.00000000E+00  0.00000000E+00  0.00000000E+00
  0.00000000E+00  0.00000000E+00  0.00000000E+00
  0.00000000E+00  0.00000000E+00  0.00000000E+00
  0.00000000E+00  0.00000000E+00  0.00000000E+00
  0.00000000E+00  0.00000000E+00  0.00000000E+00
  0.00000000E+00  0.00000000E+00  0.00000000E+00
  0.00000000E+00  0.00000000E+00  0.00000000E+00
  0.00000000E+00  0.00000000E+00  0.00000000E+00
  0.00000000E+00  0.00000000E+00  0.00000000E+00
  0.00000000E+00  0.00000000E+00  0.00000000E+00
  0.00000000E+00  0.00000000E+00  0.00000000E+00
  0.00000000E+00  0.00000000E+00  0.00000000E+00
  0.00000000E+00  0.00000000E+00  0.00000000E+00
  0.00000000E+00  0.00000000E+00  0.00000000E+00
  0.00000000E+00  0.00000000E+00  0.00000000E+00
  0.00000000E+00  0.00000000E+00  0.00000000E+00
  0.00000000E+00  0.00000000E+00  0.00000000E+00
  0.00000000E+00  0.00000000E+00  0.00000000E+00
  0.00000000E+00  0.00000000E+00  0.00000000E+00
  0.00000000E+00  0.00000000E+00  0.00000000E+00
  0.00000000E+00  0.00000000E+00  0.00000000E+00
  0.00000000E+00  0.00000000E+00  0.00000000E+00
  0.00000000E+00  0.00000000E+00  0.00000000E+00
  0.00000000E+00  0.00000000E+00  0.00000000E+00
  0.00000000E+00  0.00000000E+00  0.00000000E+00
  0.00000000E+00  0.00000000E+00  0.00000000E+00
  0.00000000E+00  0.00000000E+00  0.00000000E+00
  0.00000000E+00  0.00000000E+00  0.00000000E+00
  0.00000000E+00  0.00000000E+00  0.00000000E+00
  0.00000000E+00  0.00000000E+00  0.00000000E+00
  0.00000000E+00  0.00000000E+00  0.00000000E+00
  0.00000000E+00  0.00000000E+00  0.00000000E+00
  0.00000000E+00  0.00000000E+00  0.00000000E+00
  0.00000000E+00  0.00000000E+00  0.00000000E+00
  0.00000000E+00  0.00000000E+00  0.00000000E+00
  0.00000000E+00  0.00000000E+00  0.00000000E+00
  0.00000000E+00  0.00000000E+00  0.00000000E+00
  0.00000000E+00  0.00000000E+00  0.00000000E+00
  0.00000000E+00  0.00000000E+00  0.00000000E+00
  0.00000000E+00  0.00000000E+00  0.00000000E+00
  0.00000000E+00  0.00000000E+00  0.00000000E+00
  0.00000000E+00  0.00000000E+00  0.00000000E+00
  0.00000000E+00  0.00000000E+00  0.00000000E+00
  0.00000000E+00  0.00000000E+00  0.00000000E+00
  0.00000000E+00  0.00000000E+00  0.00000000E+00
  0.00000000E+00  0.00000000E+00  0.00000000E+00
  0.00000000E+00  0.00000000E+00  0.00000000E+00
  0.00000000E+00  0.00000000E+00  0.00000000E+00
  0.00000000E+00  0.00000000E+00  0.00000000E+00
  0.00000000E+00  0.00000000E+00  0.00000000E+00
  0.00000000E+00  0.00000000E+00  0.00000000E+00
  0.00000000E+00  0.00000000E+00  0.00000000E+00
  0.00000000E+00  0.00000000E+00  0.00000000E+00
  0.00000000E+00  0.00000000E+00  0.00000000E+00
