SrTiFeO                                 
   1.00000000000000     
    11.1989999999999998    0.0000000000000000    0.0000000000000000
     0.0000000000000000   11.1989999999999998    0.0000000000000000
     0.0000000000000000    0.0000000000000000   15.9830000000000005
   Sr   Ti   Fe   O 
    32    31     1    94
Direct
  0.0015106984716239  0.2504867871959722  0.1239165120903514
  0.0008946785809761  0.2487989251733613  0.6250576221077384
  0.9998935100334793  0.7498889961985729  0.1253402132326987
  0.9974529814821249  0.7511865305745630  0.6242443124717435
  0.4984056061429786  0.2494565906010056  0.1238660098347341
  0.4943780798171211  0.2469542294070163  0.6279730632356668
  0.5008802494285628  0.7494366803436219  0.1250138211720612
  0.5023193946491563  0.7532964555851226  0.6247564031511373
  0.0074154987653393  0.2492600278566849  0.3751130831857676
  0.9994443362220204  0.2498675315663382  0.8749051256267872
  0.9987232731161814  0.7513915030208485  0.3756847941714766
  0.0001450693113875  0.7498049495900058  0.8746946511473519
  0.4882051432360167  0.2464560629493144  0.3731566052236399
  0.5001857702696442  0.2506766052359030  0.8750298963284450
  0.5006859713627032  0.7526078952180015  0.3749483785184882
  0.5002639225377682  0.7498461476976988  0.8749866599572200
  0.2498536566289281  0.9995112527481587  0.1250291098939905
  0.2482583303810776  0.9995286535481122  0.6246375487365300
  0.2508599175487362  0.5006938551036632  0.1254361982077615
  0.2481047698327710  0.4989181570120025  0.6249247757988081
  0.7509927882912842  0.9983824858407142  0.1241999011814719
  0.7493921629568202  0.9971917339890319  0.6237702612556192
  0.7496493730791410  0.5020628436577611  0.1238578066995210
  0.7513356193158708  0.5052157867569933  0.6267314422783646
  0.2487243034293641  0.9985681012508733  0.3757289349696579
  0.2498425116775027  0.9997093281629911  0.8750295721648825
  0.2481652329863931  0.4996957030811126  0.3756547347874657
  0.2505955203636034  0.5002932178057241  0.8748366559098888
  0.7485177449829314  0.9907405069462626  0.3760058823389267
  0.7503100059938714  0.9999717325604142  0.8742437942604472
  0.7514357589458461  0.5135899494350815  0.3724091465087427
  0.7505516097618143  0.5012446395802533  0.8754021606249583
  0.9998619037112662  0.0003812122375723  0.9999811843588973
  0.9974663842234515  0.0002784176246959  0.4996751905440410
  0.0000485828270389  0.4997272534168203  0.9999722755364059
  0.9977400794255141  0.5025495902392410  0.4991609667424831
  0.5001947914458212  0.0001470509744102  0.9998524253786406
  0.4993282585101845  0.9990358027605875  0.4991557353084010
  0.5001262804831770  0.5000172278892484  0.9999348356249955
  0.2500377344131772  0.2497821052301342  0.9997372410278128
  0.2491661606639546  0.2492235672568037  0.5005948892801505
  0.2502902173387240  0.7495962460816329  0.0003332024587041
  0.2469665400588688  0.7516700827245961  0.5006530740055704
  0.7503284972367923  0.2496374087924114  0.9971486287811113
  0.7500528377918287  0.7502832048670950  0.9996854840020799
  0.2491533104401924  0.2499942961305163  0.2490138634252436
  0.2489644221283855  0.2500402782085219  0.7505386852441801
  0.2499943070844670  0.7499644329737265  0.2499224121023413
  0.2499221444489518  0.7497888926147690  0.7492849899458157
  0.7499601682684305  0.2500764595549578  0.2456065932003085
  0.7490520595528768  0.2505691236059001  0.7483794417900161
  0.7499090740383392  0.7510107766454142  0.2501185022123535
  0.7497172564290648  0.7506061590067834  0.7491327976780064
  0.9995958414408159  0.0002029527465691  0.2505925185765471
  0.9991152596539951  0.0002546227972786  0.7498845233026969
  0.0000880961017673  0.5000582422600153  0.2501878946397593
  0.9993225102206619  0.4994460200424283  0.7499946464180053
  0.4994823318195400  0.9997963790019365  0.2500562394048284
  0.5001731948198617  0.0005068471582965  0.7501235229040570
  0.5004784152174883  0.4988838609375300  0.2509123428404137
  0.5007635666113003  0.4993506438535248  0.7499833921090213
  0.7511406787046291  0.2510450060982983  0.4996117388558939
  0.4978863354365740  0.5073926348304189  0.5002418938092202
  0.7511317843538113  0.7501971200028048  0.5005623543308013
  0.1097024306406719  0.1405865480732214  0.2488928482536981
  0.1088439637423957  0.1413232009600283  0.7507913111217468
  0.1106247403134757  0.6398725073575066  0.2484187387019792
  0.1092427726725771  0.6399946079984775  0.7486334781586934
  0.6110620724378416  0.1414933730753530  0.2574850213103136
  0.6080638920943399  0.1416121473543345  0.7521763272664341
  0.6101874476712289  0.6390566912616935  0.2509774429772254
  0.6084948730544838  0.6408024219138992  0.7495846592591674
  0.3904354479874306  0.3590617689767256  0.2487795452990270
  0.3905759199935110  0.3587629681321702  0.7509312111555222
  0.3908999301210952  0.8588496590451224  0.2476679610853158
  0.3914579087005862  0.8595430750393706  0.7486003396594004
  0.8892415510685509  0.3585030531248639  0.2572137681030344
  0.8911774429111395  0.3586364404721598  0.7506501091237642
  0.8900782090870963  0.8605697757010665  0.2489410963482009
  0.8908576617219485  0.8595269158074985  0.7511911908605040
  0.3599228376997503  0.1102917585899657  0.2505051301160313
  0.3590139638534711  0.1093250856188867  0.7486881225734419
  0.3609698747556501  0.6083176754456979  0.2528361136483574
  0.3600503789449869  0.6083045494787264  0.7468206138060176
  0.8586435468604987  0.1108086152352067  0.2581056035157919
  0.8585650309217142  0.1086787155275360  0.7485208320048359
  0.8610111390760238  0.6104569228763959  0.2478165721220115
  0.8596164471233672  0.6092862501837485  0.7512176977585926
  0.1403923617153663  0.3899255129400404  0.2494560079874452
  0.1409228104254266  0.3910936721665067  0.7503779015675045
  0.1409211598620869  0.8898123881456753  0.2474873489142070
  0.1410735114565542  0.8903649775326639  0.7512821521864376
  0.6427599962458480  0.3884538986712769  0.2546437339211958
  0.6411770357856583  0.3920999528890323  0.7551805178372824
  0.6399414826648582  0.8907435675404752  0.2487707402605369
  0.6407209849813913  0.8917179425423978  0.7504523521636359
  0.3595029287353640  0.3905166038531985  0.0007932739327445
  0.3594461830323324  0.8907131519374464  0.0009290655735221
  0.3598101367860838  0.8897555098565274  0.5017939384170204
  0.8590710171317805  0.3906609355315524  0.9998772930935725
  0.8593064958967810  0.8907732745800609  0.0000566654628474
  0.8614301228310044  0.8918675934736651  0.5004255416407504
  0.1409774518569088  0.1090826410408752  0.0006280730542026
  0.1406980531206813  0.1099957844198754  0.4999197658372702
  0.1405969434346371  0.6089423696786250  0.0007928666000804
  0.1421317497390950  0.6085188589781396  0.5013476797094587
  0.6410647975608594  0.1090937590480126  0.9996474763817663
  0.6321774365128673  0.1227087239992859  0.4877512040991230
  0.6405864147437185  0.6090679245608682  0.0001726498078766
  0.1094061062857975  0.3588858329381169  0.9997452671988460
  0.1100014997962576  0.3602310874219656  0.4998707572140413
  0.1096435840783267  0.8592322115084992  0.0009002673518088
  0.1104213149357266  0.8588430643620482  0.5010593315994132
  0.6095971244420396  0.3589563113979287  0.9998458006526839
  0.6089498345477268  0.8596292472001837  0.0005981554271003
  0.6106386348817243  0.8644909121084566  0.4996142652402344
  0.3908605302802329  0.1408570527040205  0.9998007544470958
  0.3868586948644828  0.1379112388083449  0.5004460345078298
  0.3912067498524796  0.6403056718559259  0.0012479802194059
  0.8913390602204108  0.1411112746428896  0.0000838364957347
  0.8936417778026244  0.1396633534795321  0.4960639082437096
  0.8907891093136487  0.6403982970158971  0.0005665558606408
  0.9967243319797809  0.0027967130926631  0.1255318644369599
  0.0015041882809558  0.0005080780663749  0.6257094207928950
  0.9983158970704670  0.4960458675809065  0.1253744775139022
  0.9963627833480486  0.4958758060625858  0.6244140455345993
  0.5017951755650696  0.0043987048380597  0.1254898141889621
  0.5054772274032735  0.0043544722827397  0.6243542481951017
  0.5026861646110077  0.4981879144371829  0.1260822270217283
  0.5076920574428537  0.4895024258435498  0.6239892930621910
  0.0060885243134539  0.9954720543325117  0.3741346464140352
  0.9999824765870209  0.0006368925799593  0.8755635829961121
  0.0050031829302750  0.5041651883252781  0.3742788137382211
  0.0006498155908415  0.5003128638063000  0.8752388027880804
  0.4940224448573932  0.9945484930915792  0.3740503453975383
  0.4985765328303373  0.9994601101306282  0.8751386709653243
  0.4975801130079048  0.5016611445743390  0.8755562496401199
  0.2495827879130797  0.2508908113786820  0.3744787809381115
  0.2502502370400251  0.2493733555444224  0.8752508410909828
  0.2500234987526503  0.7511073913818507  0.3751526469796687
  0.2517881672869167  0.7479000149914201  0.8749556390561792
  0.7519344827732831  0.2480255966116095  0.8754084068540839
  0.7491000688967465  0.7498596983883450  0.8755805016898448
  0.2501912024390566  0.2494451192065502  0.1246525841731640
  0.2487833111986296  0.2510861596868323  0.6255926229149351
  0.2517928037201889  0.7474824766631665  0.1249657954930694
  0.2497745083735178  0.7506691037792462  0.6251609568774537
  0.7516814748424436  0.2478755448816357  0.1248487859022702
  0.7429100355948791  0.2545683497721583  0.6266843668416715
  0.7490570993412858  0.7498879056460734  0.1245039336105684
  0.7499599509549183  0.7505571384700165  0.6268630482401893
  0.8527739674061149  0.3943497987460899  0.4907752460734874
  0.3905008967648748  0.6412781491590948  0.5009998560757516
  0.5043511245734211  0.4925109184790483  0.3768478144411989
  0.3672189083574968  0.3847871877681843  0.5002407601952409
  0.8933265211111213  0.6407239469546215  0.4999214679184275
  0.7502900868763853  0.7507114505355447  0.3730760277783690
  0.6415928561856562  0.6036460425730057  0.5004399541222601
 
  0.00000000E+00  0.00000000E+00  0.00000000E+00
  0.00000000E+00  0.00000000E+00  0.00000000E+00
  0.00000000E+00  0.00000000E+00  0.00000000E+00
  0.00000000E+00  0.00000000E+00  0.00000000E+00
  0.00000000E+00  0.00000000E+00  0.00000000E+00
  0.00000000E+00  0.00000000E+00  0.00000000E+00
  0.00000000E+00  0.00000000E+00  0.00000000E+00
  0.00000000E+00  0.00000000E+00  0.00000000E+00
  0.00000000E+00  0.00000000E+00  0.00000000E+00
  0.00000000E+00  0.00000000E+00  0.00000000E+00
  0.00000000E+00  0.00000000E+00  0.00000000E+00
  0.00000000E+00  0.00000000E+00  0.00000000E+00
  0.00000000E+00  0.00000000E+00  0.00000000E+00
  0.00000000E+00  0.00000000E+00  0.00000000E+00
  0.00000000E+00  0.00000000E+00  0.00000000E+00
  0.00000000E+00  0.00000000E+00  0.00000000E+00
  0.00000000E+00  0.00000000E+00  0.00000000E+00
  0.00000000E+00  0.00000000E+00  0.00000000E+00
  0.00000000E+00  0.00000000E+00  0.00000000E+00
  0.00000000E+00  0.00000000E+00  0.00000000E+00
  0.00000000E+00  0.00000000E+00  0.00000000E+00
  0.00000000E+00  0.00000000E+00  0.00000000E+00
  0.00000000E+00  0.00000000E+00  0.00000000E+00
  0.00000000E+00  0.00000000E+00  0.00000000E+00
  0.00000000E+00  0.00000000E+00  0.00000000E+00
  0.00000000E+00  0.00000000E+00  0.00000000E+00
  0.00000000E+00  0.00000000E+00  0.00000000E+00
  0.00000000E+00  0.00000000E+00  0.00000000E+00
  0.00000000E+00  0.00000000E+00  0.00000000E+00
  0.00000000E+00  0.00000000E+00  0.00000000E+00
  0.00000000E+00  0.00000000E+00  0.00000000E+00
  0.00000000E+00  0.00000000E+00  0.00000000E+00
  0.00000000E+00  0.00000000E+00  0.00000000E+00
  0.00000000E+00  0.00000000E+00  0.00000000E+00
  0.00000000E+00  0.00000000E+00  0.00000000E+00
  0.00000000E+00  0.00000000E+00  0.00000000E+00
  0.00000000E+00  0.00000000E+00  0.00000000E+00
  0.00000000E+00  0.00000000E+00  0.00000000E+00
  0.00000000E+00  0.00000000E+00  0.00000000E+00
  0.00000000E+00  0.00000000E+00  0.00000000E+00
  0.00000000E+00  0.00000000E+00  0.00000000E+00
  0.00000000E+00  0.00000000E+00  0.00000000E+00
  0.00000000E+00  0.00000000E+00  0.00000000E+00
  0.00000000E+00  0.00000000E+00  0.00000000E+00
  0.00000000E+00  0.00000000E+00  0.00000000E+00
  0.00000000E+00  0.00000000E+00  0.00000000E+00
  0.00000000E+00  0.00000000E+00  0.00000000E+00
  0.00000000E+00  0.00000000E+00  0.00000000E+00
  0.00000000E+00  0.00000000E+00  0.00000000E+00
  0.00000000E+00  0.00000000E+00  0.00000000E+00
  0.00000000E+00  0.00000000E+00  0.00000000E+00
  0.00000000E+00  0.00000000E+00  0.00000000E+00
  0.00000000E+00  0.00000000E+00  0.00000000E+00
  0.00000000E+00  0.00000000E+00  0.00000000E+00
  0.00000000E+00  0.00000000E+00  0.00000000E+00
  0.00000000E+00  0.00000000E+00  0.00000000E+00
  0.00000000E+00  0.00000000E+00  0.00000000E+00
  0.00000000E+00  0.00000000E+00  0.00000000E+00
  0.00000000E+00  0.00000000E+00  0.00000000E+00
  0.00000000E+00  0.00000000E+00  0.00000000E+00
  0.00000000E+00  0.00000000E+00  0.00000000E+00
  0.00000000E+00  0.00000000E+00  0.00000000E+00
  0.00000000E+00  0.00000000E+00  0.00000000E+00
  0.00000000E+00  0.00000000E+00  0.00000000E+00
  0.00000000E+00  0.00000000E+00  0.00000000E+00
  0.00000000E+00  0.00000000E+00  0.00000000E+00
  0.00000000E+00  0.00000000E+00  0.00000000E+00
  0.00000000E+00  0.00000000E+00  0.00000000E+00
  0.00000000E+00  0.00000000E+00  0.00000000E+00
  0.00000000E+00  0.00000000E+00  0.00000000E+00
  0.00000000E+00  0.00000000E+00  0.00000000E+00
  0.00000000E+00  0.00000000E+00  0.00000000E+00
  0.00000000E+00  0.00000000E+00  0.00000000E+00
  0.00000000E+00  0.00000000E+00  0.00000000E+00
  0.00000000E+00  0.00000000E+00  0.00000000E+00
  0.00000000E+00  0.00000000E+00  0.00000000E+00
  0.00000000E+00  0.00000000E+00  0.00000000E+00
  0.00000000E+00  0.00000000E+00  0.00000000E+00
  0.00000000E+00  0.00000000E+00  0.00000000E+00
  0.00000000E+00  0.00000000E+00  0.00000000E+00
  0.00000000E+00  0.00000000E+00  0.00000000E+00
  0.00000000E+00  0.00000000E+00  0.00000000E+00
  0.00000000E+00  0.00000000E+00  0.00000000E+00
  0.00000000E+00  0.00000000E+00  0.00000000E+00
  0.00000000E+00  0.00000000E+00  0.00000000E+00
  0.00000000E+00  0.00000000E+00  0.00000000E+00
  0.00000000E+00  0.00000000E+00  0.00000000E+00
  0.00000000E+00  0.00000000E+00  0.00000000E+00
  0.00000000E+00  0.00000000E+00  0.00000000E+00
  0.00000000E+00  0.00000000E+00  0.00000000E+00
  0.00000000E+00  0.00000000E+00  0.00000000E+00
  0.00000000E+00  0.00000000E+00  0.00000000E+00
  0.00000000E+00  0.00000000E+00  0.00000000E+00
  0.00000000E+00  0.00000000E+00  0.00000000E+00
  0.00000000E+00  0.00000000E+00  0.00000000E+00
  0.00000000E+00  0.00000000E+00  0.00000000E+00
  0.00000000E+00  0.00000000E+00  0.00000000E+00
  0.00000000E+00  0.00000000E+00  0.00000000E+00
  0.00000000E+00  0.00000000E+00  0.00000000E+00
  0.00000000E+00  0.00000000E+00  0.00000000E+00
  0.00000000E+00  0.00000000E+00  0.00000000E+00
  0.00000000E+00  0.00000000E+00  0.00000000E+00
  0.00000000E+00  0.00000000E+00  0.00000000E+00
  0.00000000E+00  0.00000000E+00  0.00000000E+00
  0.00000000E+00  0.00000000E+00  0.00000000E+00
  0.00000000E+00  0.00000000E+00  0.00000000E+00
  0.00000000E+00  0.00000000E+00  0.00000000E+00
  0.00000000E+00  0.00000000E+00  0.00000000E+00
  0.00000000E+00  0.00000000E+00  0.00000000E+00
  0.00000000E+00  0.00000000E+00  0.00000000E+00
  0.00000000E+00  0.00000000E+00  0.00000000E+00
  0.00000000E+00  0.00000000E+00  0.00000000E+00
  0.00000000E+00  0.00000000E+00  0.00000000E+00
  0.00000000E+00  0.00000000E+00  0.00000000E+00
  0.00000000E+00  0.00000000E+00  0.00000000E+00
  0.00000000E+00  0.00000000E+00  0.00000000E+00
  0.00000000E+00  0.00000000E+00  0.00000000E+00
  0.00000000E+00  0.00000000E+00  0.00000000E+00
  0.00000000E+00  0.00000000E+00  0.00000000E+00
  0.00000000E+00  0.00000000E+00  0.00000000E+00
  0.00000000E+00  0.00000000E+00  0.00000000E+00
  0.00000000E+00  0.00000000E+00  0.00000000E+00
  0.00000000E+00  0.00000000E+00  0.00000000E+00
  0.00000000E+00  0.00000000E+00  0.00000000E+00
  0.00000000E+00  0.00000000E+00  0.00000000E+00
  0.00000000E+00  0.00000000E+00  0.00000000E+00
  0.00000000E+00  0.00000000E+00  0.00000000E+00
  0.00000000E+00  0.00000000E+00  0.00000000E+00
  0.00000000E+00  0.00000000E+00  0.00000000E+00
  0.00000000E+00  0.00000000E+00  0.00000000E+00
  0.00000000E+00  0.00000000E+00  0.00000000E+00
  0.00000000E+00  0.00000000E+00  0.00000000E+00
  0.00000000E+00  0.00000000E+00  0.00000000E+00
  0.00000000E+00  0.00000000E+00  0.00000000E+00
  0.00000000E+00  0.00000000E+00  0.00000000E+00
  0.00000000E+00  0.00000000E+00  0.00000000E+00
  0.00000000E+00  0.00000000E+00  0.00000000E+00
  0.00000000E+00  0.00000000E+00  0.00000000E+00
  0.00000000E+00  0.00000000E+00  0.00000000E+00
  0.00000000E+00  0.00000000E+00  0.00000000E+00
  0.00000000E+00  0.00000000E+00  0.00000000E+00
  0.00000000E+00  0.00000000E+00  0.00000000E+00
  0.00000000E+00  0.00000000E+00  0.00000000E+00
  0.00000000E+00  0.00000000E+00  0.00000000E+00
  0.00000000E+00  0.00000000E+00  0.00000000E+00
  0.00000000E+00  0.00000000E+00  0.00000000E+00
  0.00000000E+00  0.00000000E+00  0.00000000E+00
  0.00000000E+00  0.00000000E+00  0.00000000E+00
  0.00000000E+00  0.00000000E+00  0.00000000E+00
  0.00000000E+00  0.00000000E+00  0.00000000E+00
  0.00000000E+00  0.00000000E+00  0.00000000E+00
  0.00000000E+00  0.00000000E+00  0.00000000E+00
  0.00000000E+00  0.00000000E+00  0.00000000E+00
  0.00000000E+00  0.00000000E+00  0.00000000E+00
  0.00000000E+00  0.00000000E+00  0.00000000E+00
  0.00000000E+00  0.00000000E+00  0.00000000E+00
  0.00000000E+00  0.00000000E+00  0.00000000E+00
  0.00000000E+00  0.00000000E+00  0.00000000E+00
