Sr   Ti   Fe   O                        
   1.00000000000000     
    11.1989999999999998    0.0000000000000000    0.0000000000000000
     0.0000000000000000   11.1989999999999998    0.0000000000000000
     0.0000000000000000    0.0000000000000000   15.9830000000000005
   Sr   Ti   Fe   O 
    32    30     2    94
Direct
  0.9980260056776068  0.2507156603802719  0.1253696313105118
  0.9992875986557510  0.2515895961300773  0.6224977411192326
  0.9980761250001794  0.7507835771287650  0.1249596066195426
  0.9956441447108954  0.7499595402773177  0.6278672310397504
  0.4996899166313002  0.2517782772347684  0.1248781641534479
  0.4956690049381928  0.2379511937186997  0.6276900214667767
  0.4988826292379686  0.7492018830889374  0.1231905872229038
  0.5037489531571570  0.7584859251692667  0.6318729262737555
  0.9992875986557510  0.2515895961300773  0.3775022588807675
  0.9980260056776068  0.2507156603802719  0.8746303686894812
  0.9956441447108954  0.7499595402773177  0.3721327689602492
  0.9980761250001794  0.7507835771287650  0.8750403933804574
  0.4956690049381928  0.2379511937186997  0.3723099785332161
  0.4996899166313002  0.2517782772347684  0.8751218358465521
  0.5037489531571570  0.7584859251692667  0.3681270737262446
  0.4988826292379686  0.7492018830889374  0.8768094127770965
  0.2487276823893455  0.9990091147908049  0.1251544206175379
  0.2515985032824578  0.0004345927349073  0.6251701444622023
  0.2492254960490503  0.5000302490596452  0.1227872965672283
  0.2471518227597213  0.4952966253461673  0.6301798773941070
  0.7499503265247857  0.0010127430335790  0.1259590197560895
  0.7490865333567077  0.0049233279909517  0.6228208228823298
  0.7481022979083256  0.5005927135802219  0.1246991094789421
  0.7631350897061280  0.4980395898643755  0.6295812156275125
  0.2515985032824578  0.0004345927349073  0.3748298555377911
  0.2487276823893455  0.9990091147908049  0.8748455793824620
  0.2471518227597213  0.4952966253461673  0.3698201226058931
  0.2492254960490503  0.5000302490596452  0.8772127034327715
  0.7490865333567077  0.0049233279909517  0.3771791771176700
  0.7499503265247857  0.0010127430335790  0.8740409802439105
  0.7631350897061280  0.4980395898643755  0.3704187843724881
  0.7481022979083256  0.5005927135802219  0.8753008905210580
  0.9988987951422841  0.0004454793764269  0.0000000000000000
  0.9966345486963655  0.0045984590668295  0.5000000000000000
  0.9989408698173089  0.5000144074148890  0.0000000000000000
  0.0022736877716909  0.5012671753658793  0.5000000000000000
  0.4999446148873596  0.0003681449663767  0.0000000000000000
  0.5035309752423651  0.9946957906255932  0.5000000000000000
  0.4991385139932063  0.4995098712289227  0.0000000000000000
  0.2495835277763350  0.2493741946832303  0.0000000000000000
  0.2501537052361122  0.2454108814554341  0.5000000000000000
  0.2482929490889231  0.7511332794651006  0.0000000000000000
  0.2386266419461690  0.7546789009565192  0.5000000000000000
  0.7494504084159613  0.2505106733458761  0.0000000000000000
  0.7493740847807789  0.7512208056921158  0.0000000000000000
  0.2492826095333612  0.2492837902353230  0.2494198105623925
  0.2492826095333612  0.2492837902353230  0.7505801894376146
  0.2498331899190799  0.7489949860568599  0.2492975855080623
  0.2498331899190799  0.7489949860568599  0.7507024144919376
  0.7479231345020890  0.2516729066099831  0.2525633373505268
  0.7479231345020890  0.2516729066099831  0.7474366626494726
  0.7494075850140112  0.7497666294667569  0.2510444555008395
  0.7494075850140112  0.7497666294667569  0.7489555444991602
  0.9995346789171599  0.0008012639515623  0.2511489529560849
  0.9995346789171599  0.0008012639515623  0.7488510470439153
  0.0010910532289599  0.5003401136920880  0.2486257231014205
  0.0010910532289599  0.5003401136920880  0.7513742768985792
  0.4998801619154867  0.9995156668938613  0.2481948294431207
  0.4998801619154867  0.9995156668938613  0.7518051705568793
  0.4984141199742148  0.5021267626410066  0.2504166589146483
  0.4984141199742148  0.5021267626410066  0.7495833410853514
  0.4971410235341354  0.4990527761561597  0.5000000000000000
  0.7538730456070611  0.2519805765058182  0.5000000000000000
  0.7599182204441541  0.7569029981027362  0.5000000000000000
  0.1091755205687903  0.1404139899653045  0.2487952434581455
  0.1091755205687903  0.1404139899653045  0.7512047565418541
  0.1099284999595061  0.6409647173495391  0.2483666434593057
  0.1099284999595061  0.6409647173495391  0.7516333565406941
  0.6082843617794658  0.1401650656397055  0.2483790946203735
  0.6082843617794658  0.1401650656397055  0.7516209053796267
  0.6083919345710761  0.6409487748077948  0.2463775886628027
  0.6083919345710761  0.6409487748077948  0.7536224113371978
  0.3897996563902262  0.3601583628325322  0.2538192318357341
  0.3897996563902262  0.3601583628325322  0.7461807681642653
  0.3894815206020528  0.8599544002193458  0.2474931809812216
  0.3894815206020528  0.8599544002193458  0.7525068190187787
  0.8891212099913642  0.3619472920986975  0.2523828967250212
  0.8891212099913642  0.3619472920986975  0.7476171032749785
  0.8883221783028800  0.8610190013156453  0.2518400137030318
  0.8883221783028800  0.8610190013156453  0.7481599862969679
  0.3601063086236040  0.1098795849048096  0.2501635621482567
  0.3601063086236040  0.1098795849048096  0.7498364378517434
  0.3576113694304237  0.6102170127021759  0.2430795839878011
  0.3576113694304237  0.6102170127021759  0.7569204160121995
  0.8588820156970680  0.1117703655444920  0.2533941184177434
  0.8588820156970680  0.1117703655444920  0.7466058815822637
  0.8619417223675286  0.6117207898660540  0.2467624153518116
  0.8619417223675286  0.6117207898660540  0.7532375846481957
  0.1399945298564868  0.3894694788929752  0.2479151200222437
  0.1399945298564868  0.3894694788929752  0.7520848799777562
  0.1400213384324323  0.8894144716250002  0.2527332655953389
  0.1400213384324323  0.8894144716250002  0.7472667344046614
  0.6368750505367387  0.3935440397731120  0.2510114723353875
  0.6368750505367387  0.3935440397731120  0.7489885276646125
  0.6396365930250663  0.8901380321501883  0.2523759205235274
  0.6396365930250663  0.8901380321501883  0.7476240794764727
  0.3586369690499622  0.3900619966359043  0.0000000000000000
  0.3587422994531769  0.8911324731893344  0.0000000000000000
  0.3649412600171422  0.8730988159451266  0.5000000000000000
  0.8586609811762776  0.3913957544845025  0.0000000000000000
  0.8583354545653959  0.8920831102169008  0.0000000000000000
  0.8587786754583168  0.8944592368391058  0.5000000000000000
  0.1404774664479321  0.1090128835084380  0.0000000000000000
  0.1423644983654267  0.1050913513016501  0.5000000000000000
  0.1392687592072749  0.6098041903703385  0.0000000000000000
  0.1629293462975849  0.5999250798838928  0.5000000000000000
  0.6409846061147609  0.1093544558945536  0.0000000000000000
  0.6302535781593694  0.1073029566572908  0.5000000000000000
  0.6390045188637123  0.6100839477759598  0.0000000000000000
  0.1092347277346081  0.3588560485808790  0.0000000000000000
  0.1207561110353929  0.3599983736279568  0.5000000000000000
  0.1072793417620595  0.8603836559941296  0.0000000000000000
  0.1058125394016981  0.8523008513276423  0.5000000000000000
  0.6088284395340341  0.3594380762888852  0.0000000000000000
  0.6081845289032826  0.8594628067688358  0.0000000000000000
  0.6073788435524435  0.8482362120247884  0.5000000000000000
  0.3910080157410538  0.1406868638040318  0.0000000000000000
  0.3837923264084482  0.1269716487368886  0.5000000000000000
  0.3884669163556654  0.6402525599404957  0.0000000000000000
  0.8907451436793826  0.1416306244440399  0.0000000000000000
  0.8956326652145445  0.1365946168642973  0.5000000000000000
  0.8897047263178706  0.6410150004669396  0.0000000000000000
  0.9982355483037476  0.9998149206104054  0.1258176081305456
  0.0028491988924992  0.9990494318135310  0.6250241344742888
  0.0000105570301087  0.4985498377925569  0.1243847232893325
  0.0063892090576935  0.5041934156294199  0.6266280971622710
  0.5005794404310201  0.9993676794055179  0.1245766731401013
  0.4977358275191835  0.9974473499346644  0.6263070527731971
  0.4983404636787259  0.4975161619299550  0.1246378071106201
  0.4837908370843113  0.5209661082410081  0.6227934879581698
  0.0028491988924992  0.9990494318135310  0.3749758655257109
  0.9982355483037476  0.9998149206104054  0.8741823918694545
  0.0063892090576935  0.5041934156294199  0.3733719028377291
  0.0000105570301087  0.4985498377925569  0.8756152767106675
  0.4977358275191835  0.9974473499346644  0.3736929472268031
  0.5005794404310201  0.9993676794055179  0.8754233268598985
  0.4983404636787259  0.4975161619299550  0.8753621928893802
  0.2489633520507495  0.2463648762822438  0.3743363235555094
  0.2518044683665090  0.2497755095139970  0.8749868472732981
  0.2590284996709377  0.7413467343969034  0.3760051338077153
  0.2466609044820980  0.7534478414510353  0.8758117141241688
  0.7499204813754116  0.2521401292428967  0.8745058308782754
  0.7495152270615343  0.7527842572249932  0.8751754403835280
  0.2518044683665090  0.2497755095139970  0.1250131527267016
  0.2489633520507495  0.2463648762822438  0.6256636764444908
  0.2466609044820980  0.7534478414510353  0.1241882858758319
  0.2590284996709377  0.7413467343969034  0.6239948661922922
  0.7499204813754116  0.2521401292428967  0.1254941691217249
  0.7375625387793304  0.2571889510758392  0.6257418999824911
  0.7495152270615343  0.7527842572249932  0.1248245596164722
  0.7465207159604768  0.7391506904660609  0.6245080077348962
  0.7375625387793304  0.2571889510758392  0.3742581000175089
  0.8794212092846825  0.3890862902028474  0.5000000000000000
  0.4837908370843113  0.5209661082410081  0.3772065120418300
  0.3761371248415078  0.3735082086845540  0.5000000000000000
  0.8996060973393192  0.6429332959946100  0.5000000000000000
  0.7465207159604768  0.7391506904660609  0.3754919922651036
  0.6596887019790270  0.5075503976782261  0.5000000000000000
 
  0.00000000E+00  0.00000000E+00  0.00000000E+00
  0.00000000E+00  0.00000000E+00  0.00000000E+00
  0.00000000E+00  0.00000000E+00  0.00000000E+00
  0.00000000E+00  0.00000000E+00  0.00000000E+00
  0.00000000E+00  0.00000000E+00  0.00000000E+00
  0.00000000E+00  0.00000000E+00  0.00000000E+00
  0.00000000E+00  0.00000000E+00  0.00000000E+00
  0.00000000E+00  0.00000000E+00  0.00000000E+00
  0.00000000E+00  0.00000000E+00  0.00000000E+00
  0.00000000E+00  0.00000000E+00  0.00000000E+00
  0.00000000E+00  0.00000000E+00  0.00000000E+00
  0.00000000E+00  0.00000000E+00  0.00000000E+00
  0.00000000E+00  0.00000000E+00  0.00000000E+00
  0.00000000E+00  0.00000000E+00  0.00000000E+00
  0.00000000E+00  0.00000000E+00  0.00000000E+00
  0.00000000E+00  0.00000000E+00  0.00000000E+00
  0.00000000E+00  0.00000000E+00  0.00000000E+00
  0.00000000E+00  0.00000000E+00  0.00000000E+00
  0.00000000E+00  0.00000000E+00  0.00000000E+00
  0.00000000E+00  0.00000000E+00  0.00000000E+00
  0.00000000E+00  0.00000000E+00  0.00000000E+00
  0.00000000E+00  0.00000000E+00  0.00000000E+00
  0.00000000E+00  0.00000000E+00  0.00000000E+00
  0.00000000E+00  0.00000000E+00  0.00000000E+00
  0.00000000E+00  0.00000000E+00  0.00000000E+00
  0.00000000E+00  0.00000000E+00  0.00000000E+00
  0.00000000E+00  0.00000000E+00  0.00000000E+00
  0.00000000E+00  0.00000000E+00  0.00000000E+00
  0.00000000E+00  0.00000000E+00  0.00000000E+00
  0.00000000E+00  0.00000000E+00  0.00000000E+00
  0.00000000E+00  0.00000000E+00  0.00000000E+00
  0.00000000E+00  0.00000000E+00  0.00000000E+00
  0.00000000E+00  0.00000000E+00  0.00000000E+00
  0.00000000E+00  0.00000000E+00  0.00000000E+00
  0.00000000E+00  0.00000000E+00  0.00000000E+00
  0.00000000E+00  0.00000000E+00  0.00000000E+00
  0.00000000E+00  0.00000000E+00  0.00000000E+00
  0.00000000E+00  0.00000000E+00  0.00000000E+00
  0.00000000E+00  0.00000000E+00  0.00000000E+00
  0.00000000E+00  0.00000000E+00  0.00000000E+00
  0.00000000E+00  0.00000000E+00  0.00000000E+00
  0.00000000E+00  0.00000000E+00  0.00000000E+00
  0.00000000E+00  0.00000000E+00  0.00000000E+00
  0.00000000E+00  0.00000000E+00  0.00000000E+00
  0.00000000E+00  0.00000000E+00  0.00000000E+00
  0.00000000E+00  0.00000000E+00  0.00000000E+00
  0.00000000E+00  0.00000000E+00  0.00000000E+00
  0.00000000E+00  0.00000000E+00  0.00000000E+00
  0.00000000E+00  0.00000000E+00  0.00000000E+00
  0.00000000E+00  0.00000000E+00  0.00000000E+00
  0.00000000E+00  0.00000000E+00  0.00000000E+00
  0.00000000E+00  0.00000000E+00  0.00000000E+00
  0.00000000E+00  0.00000000E+00  0.00000000E+00
  0.00000000E+00  0.00000000E+00  0.00000000E+00
  0.00000000E+00  0.00000000E+00  0.00000000E+00
  0.00000000E+00  0.00000000E+00  0.00000000E+00
  0.00000000E+00  0.00000000E+00  0.00000000E+00
  0.00000000E+00  0.00000000E+00  0.00000000E+00
  0.00000000E+00  0.00000000E+00  0.00000000E+00
  0.00000000E+00  0.00000000E+00  0.00000000E+00
  0.00000000E+00  0.00000000E+00  0.00000000E+00
  0.00000000E+00  0.00000000E+00  0.00000000E+00
  0.00000000E+00  0.00000000E+00  0.00000000E+00
  0.00000000E+00  0.00000000E+00  0.00000000E+00
  0.00000000E+00  0.00000000E+00  0.00000000E+00
  0.00000000E+00  0.00000000E+00  0.00000000E+00
  0.00000000E+00  0.00000000E+00  0.00000000E+00
  0.00000000E+00  0.00000000E+00  0.00000000E+00
  0.00000000E+00  0.00000000E+00  0.00000000E+00
  0.00000000E+00  0.00000000E+00  0.00000000E+00
  0.00000000E+00  0.00000000E+00  0.00000000E+00
  0.00000000E+00  0.00000000E+00  0.00000000E+00
  0.00000000E+00  0.00000000E+00  0.00000000E+00
  0.00000000E+00  0.00000000E+00  0.00000000E+00
  0.00000000E+00  0.00000000E+00  0.00000000E+00
  0.00000000E+00  0.00000000E+00  0.00000000E+00
  0.00000000E+00  0.00000000E+00  0.00000000E+00
  0.00000000E+00  0.00000000E+00  0.00000000E+00
  0.00000000E+00  0.00000000E+00  0.00000000E+00
  0.00000000E+00  0.00000000E+00  0.00000000E+00
  0.00000000E+00  0.00000000E+00  0.00000000E+00
  0.00000000E+00  0.00000000E+00  0.00000000E+00
  0.00000000E+00  0.00000000E+00  0.00000000E+00
  0.00000000E+00  0.00000000E+00  0.00000000E+00
  0.00000000E+00  0.00000000E+00  0.00000000E+00
  0.00000000E+00  0.00000000E+00  0.00000000E+00
  0.00000000E+00  0.00000000E+00  0.00000000E+00
  0.00000000E+00  0.00000000E+00  0.00000000E+00
  0.00000000E+00  0.00000000E+00  0.00000000E+00
  0.00000000E+00  0.00000000E+00  0.00000000E+00
  0.00000000E+00  0.00000000E+00  0.00000000E+00
  0.00000000E+00  0.00000000E+00  0.00000000E+00
  0.00000000E+00  0.00000000E+00  0.00000000E+00
  0.00000000E+00  0.00000000E+00  0.00000000E+00
  0.00000000E+00  0.00000000E+00  0.00000000E+00
  0.00000000E+00  0.00000000E+00  0.00000000E+00
  0.00000000E+00  0.00000000E+00  0.00000000E+00
  0.00000000E+00  0.00000000E+00  0.00000000E+00
  0.00000000E+00  0.00000000E+00  0.00000000E+00
  0.00000000E+00  0.00000000E+00  0.00000000E+00
  0.00000000E+00  0.00000000E+00  0.00000000E+00
  0.00000000E+00  0.00000000E+00  0.00000000E+00
  0.00000000E+00  0.00000000E+00  0.00000000E+00
  0.00000000E+00  0.00000000E+00  0.00000000E+00
  0.00000000E+00  0.00000000E+00  0.00000000E+00
  0.00000000E+00  0.00000000E+00  0.00000000E+00
  0.00000000E+00  0.00000000E+00  0.00000000E+00
  0.00000000E+00  0.00000000E+00  0.00000000E+00
  0.00000000E+00  0.00000000E+00  0.00000000E+00
  0.00000000E+00  0.00000000E+00  0.00000000E+00
  0.00000000E+00  0.00000000E+00  0.00000000E+00
  0.00000000E+00  0.00000000E+00  0.00000000E+00
  0.00000000E+00  0.00000000E+00  0.00000000E+00
  0.00000000E+00  0.00000000E+00  0.00000000E+00
  0.00000000E+00  0.00000000E+00  0.00000000E+00
  0.00000000E+00  0.00000000E+00  0.00000000E+00
  0.00000000E+00  0.00000000E+00  0.00000000E+00
  0.00000000E+00  0.00000000E+00  0.00000000E+00
  0.00000000E+00  0.00000000E+00  0.00000000E+00
  0.00000000E+00  0.00000000E+00  0.00000000E+00
  0.00000000E+00  0.00000000E+00  0.00000000E+00
  0.00000000E+00  0.00000000E+00  0.00000000E+00
  0.00000000E+00  0.00000000E+00  0.00000000E+00
  0.00000000E+00  0.00000000E+00  0.00000000E+00
  0.00000000E+00  0.00000000E+00  0.00000000E+00
  0.00000000E+00  0.00000000E+00  0.00000000E+00
  0.00000000E+00  0.00000000E+00  0.00000000E+00
  0.00000000E+00  0.00000000E+00  0.00000000E+00
  0.00000000E+00  0.00000000E+00  0.00000000E+00
  0.00000000E+00  0.00000000E+00  0.00000000E+00
  0.00000000E+00  0.00000000E+00  0.00000000E+00
  0.00000000E+00  0.00000000E+00  0.00000000E+00
  0.00000000E+00  0.00000000E+00  0.00000000E+00
  0.00000000E+00  0.00000000E+00  0.00000000E+00
  0.00000000E+00  0.00000000E+00  0.00000000E+00
  0.00000000E+00  0.00000000E+00  0.00000000E+00
  0.00000000E+00  0.00000000E+00  0.00000000E+00
  0.00000000E+00  0.00000000E+00  0.00000000E+00
  0.00000000E+00  0.00000000E+00  0.00000000E+00
  0.00000000E+00  0.00000000E+00  0.00000000E+00
  0.00000000E+00  0.00000000E+00  0.00000000E+00
  0.00000000E+00  0.00000000E+00  0.00000000E+00
  0.00000000E+00  0.00000000E+00  0.00000000E+00
  0.00000000E+00  0.00000000E+00  0.00000000E+00
  0.00000000E+00  0.00000000E+00  0.00000000E+00
  0.00000000E+00  0.00000000E+00  0.00000000E+00
  0.00000000E+00  0.00000000E+00  0.00000000E+00
  0.00000000E+00  0.00000000E+00  0.00000000E+00
  0.00000000E+00  0.00000000E+00  0.00000000E+00
  0.00000000E+00  0.00000000E+00  0.00000000E+00
  0.00000000E+00  0.00000000E+00  0.00000000E+00
  0.00000000E+00  0.00000000E+00  0.00000000E+00
  0.00000000E+00  0.00000000E+00  0.00000000E+00
  0.00000000E+00  0.00000000E+00  0.00000000E+00
  0.00000000E+00  0.00000000E+00  0.00000000E+00
  0.00000000E+00  0.00000000E+00  0.00000000E+00
  0.00000000E+00  0.00000000E+00  0.00000000E+00
  0.00000000E+00  0.00000000E+00  0.00000000E+00
