SrTiFeO                                 
   1.00000000000000     
    11.1989999999999998    0.0000000000000000    0.0000000000000000
     0.0000000000000000   11.1989999999999998    0.0000000000000000
     0.0000000000000000    0.0000000000000000   15.9830000000000005
   Sr   Ti   Fe   O 
    32    30     2    94
Direct
  0.9991300702111646  0.2498527843919845  0.1251697255178355
  0.9975941041654720  0.2513273909627060  0.6242551864805314
  0.9985763238436487  0.7501858663289476  0.1250642692646402
  0.9947195224435408  0.7478120332840500  0.6266322188997665
  0.4995951517695997  0.2511744735357743  0.1251074687558221
  0.5053285351148431  0.2420244198844356  0.6257066890398919
  0.4991107783058654  0.7497074293822640  0.1231314920116693
  0.5035878640690361  0.7578268484811366  0.6314045336190663
  0.9975941041654720  0.2513273909627060  0.3757448135194686
  0.9991300702111646  0.2498527843919845  0.8748302744821650
  0.9947195224435408  0.7478120332840500  0.3733677811002346
  0.9985763238436487  0.7501858663289476  0.8749357307353592
  0.5053285351148431  0.2420244198844356  0.3742933109601083
  0.4995951517695997  0.2511744735357743  0.8748925312441778
  0.5035878640690361  0.7578268484811366  0.3685954663809337
  0.4991107783058654  0.7497074293822640  0.8768685079883304
  0.2493921287340665  0.9988408154980476  0.1252152592049923
  0.2526856017366751  0.0018714633421204  0.6262386929258481
  0.2492048887146662  0.4997851870118777  0.1231506448946311
  0.2441616202134232  0.4978850926735094  0.6300130278518207
  0.7497223782245004  0.9992204392823543  0.1250539853528379
  0.7510965387822282  0.0062553267072665  0.6246371515440984
  0.7483547791161378  0.5000179092880103  0.1252244325083917
  0.7572354383146748  0.4937835388367781  0.6258228432048255
  0.2526856017366751  0.0018714633421204  0.3737613070741519
  0.2493921287340665  0.9988408154980476  0.8747847407950077
  0.2441616202134232  0.4978850926735094  0.3699869721481799
  0.2492048887146662  0.4997851870118777  0.8768493551053693
  0.7510965387822282  0.0062553267072665  0.3753628484559017
  0.7497223782245004  0.9992204392823543  0.8749460146471619
  0.7572354383146748  0.4937835388367781  0.3741771567951751
  0.7483547791161378  0.5000179092880103  0.8747755674916085
 -0.0002465546447618  0.9993991130286589  0.0000000000000000
  0.9981201756000313  0.0065065573713850  0.5000000000000000
  0.9990493965109821  0.4998863239076569  0.0000000000000000
  0.9993479271838986  0.4997802548123637  0.5000000000000000
  0.5001263096132728  0.0002168892390859  0.0000000000000000
  0.5035457584165202  0.9967107468390316  0.5000000000000000
  0.4995350375844793  0.4989278107618369  0.0000000000000000
  0.2500559584272498  0.2496931574170710  0.0000000000000000
  0.2473772215621947  0.2465236051665303  0.5000000000000000
  0.2487085575082822  0.7503211089642506  0.0000000000000000
  0.2379528722841366  0.7568027630845731  0.5000000000000000
  0.7495180182968382  0.2502284028404028  0.0000000000000000
  0.7499600569191184  0.7504224241520185  0.0000000000000000
  0.2503381475573949  0.2498223326287040  0.2500805590636729
  0.2503381475573949  0.2498223326287040  0.7499194409363273
  0.2501662628249526  0.7489382084335169  0.2496998282810471
  0.2501662628249526  0.7489382084335169  0.7503001717189530
  0.7499020501752283  0.2498363822649865  0.2507196803168832
  0.7499020501752283  0.2498363822649865  0.7492803196831171
  0.7492726237387655  0.7488007516216870  0.2515345104651039
  0.7492726237387655  0.7488007516216870  0.7484654895348966
  0.0005022886179976  0.9998742880000806  0.2506795414829741
  0.0005022886179976  0.9998742880000806  0.7493204585170260
  0.9999576547435399  0.5001413369576659  0.2489354500824864
  0.9999576547435399  0.5001413369576659  0.7510645499175138
  0.5001282817592497  0.9999448797869908  0.2487248153245230
  0.5001282817592497  0.9999448797869908  0.7512751846754773
  0.4994626237471984  0.5019186941397398  0.2505228804726501
  0.4994626237471984  0.5019186941397398  0.7494771195273500
  0.4921583660699888  0.4884906903794974  0.5000000000000000
  0.7522190450681846  0.2508957765056605  0.5000000000000000
  0.7589393814376513  0.7628864280231125  0.5000000000000000
  0.1103947442177518  0.1397647524279388  0.2484467750738925
  0.1103947442177518  0.1397647524279388  0.7515532249261080
  0.1094445687122902  0.6410195489571155  0.2501948328830581
  0.1094445687122902  0.6410195489571155  0.7498051671169421
  0.6087678066048827  0.1397180930469238  0.2478852475648645
  0.6087678066048827  0.1397180930469238  0.7521147524351350
  0.6083419691100712  0.6410899519711375  0.2445860978365101
  0.6083419691100712  0.6410899519711375  0.7554139021634902
  0.3911030598572584  0.3605943995055630  0.2560647295961143
  0.3911030598572584  0.3605943995055630  0.7439352704038856
  0.3895575486198884  0.8597721377212305  0.2478800501868664
  0.3895575486198884  0.8597721377212305  0.7521199498131339
  0.8897705556617175  0.3612207260048678  0.2500817789149206
  0.8897705556617175  0.3612207260048678  0.7499182210850794
  0.8891351086316287  0.8589276916643332  0.2535919391521334
  0.8891351086316287  0.8589276916643332  0.7464080608478668
  0.3601727462092743  0.1100172818437272  0.2490132084556206
  0.3601727462092743  0.1100172818437272  0.7509867915443791
  0.3579723106449928  0.6087896457084122  0.2452480899769410
  0.3579723106449928  0.6087896457084122  0.7547519100230586
  0.8605769992270902  0.1092183563019779  0.2473956425232564
  0.8605769992270902  0.1092183563019779  0.7526043574767431
  0.8597758814591370  0.6093552925148985  0.2488716899583940
  0.8597758814591370  0.6093552925148985  0.7511283100416060
  0.1399217888673917  0.3896350046816303  0.2480141610210446
  0.1399217888673917  0.3896350046816303  0.7519858389789548
  0.1412070993336112  0.8887440834743037  0.2535462663807317
  0.1412070993336112  0.8887440834743037  0.7464537336192685
  0.6381775140229156  0.3923272898415384  0.2538032958181105
  0.6381775140229156  0.3923272898415384  0.7461967041818900
  0.6399766332958134  0.8898730065329934  0.2527538948702910
  0.6399766332958134  0.8898730065329934  0.7472461051297088
  0.3588389254637097  0.3904790085521180  0.0000000000000000
  0.3591399452148188  0.8902779838352708  0.0000000000000000
  0.3589270739544462  0.8828818842420642  0.5000000000000000
  0.8591653062284301  0.3912285311548417  0.0000000000000000
  0.8590339035239849  0.8914765221346743  0.0000000000000000
  0.8578046347859751  0.8978451536426474  0.5000000000000000
  0.1408477051792051  0.1092981770831198  0.0000000000000000
  0.1478786967005312  0.1021330949350415  0.5000000000000000
  0.1401711991354476  0.6093163692623113  0.0000000000000000
  0.1536197487320229  0.6044366106264902  0.5000000000000000
  0.6410074855682324  0.1088941994105443  0.0000000000000000
  0.6355703373669611  0.1013474442678712  0.5000000000000000
  0.6394870753577871  0.6096512012054178  0.0000000000000000
  0.1092683899472318  0.3589102826824692  0.0000000000000000
  0.1097537376467809  0.3554154685839199  0.5000000000000000
  0.1086453090925000  0.8589547260617892  0.0000000000000000
  0.1034624380291420  0.8523094646020847  0.5000000000000000
  0.6085436391707193  0.3591822693388465  0.0000000000000000
  0.6091684293287559  0.8592205154118234  0.0000000000000000
  0.6036802626624785  0.8481905396711895  0.5000000000000000
  0.3911099671720120  0.1404553925176600  0.0000000000000000
  0.3919909760061807  0.1428055759167153  0.5000000000000000
  0.3895881840833758  0.6398177753649730  0.0000000000000000
  0.8911224315899366  0.1404976810269201  0.0000000000000000
  0.9011011861311874  0.1402145034806942  0.5000000000000000
  0.8901847367861767  0.6408670059320415  0.0000000000000000
  0.0014000508249392  0.9962339659395807  0.1253692753862288
  0.0021930080623033  0.0010765204035708  0.6254124489013231
  0.0003021880444563  0.5004572693776113  0.1245201955326683
  0.0035273350690926  0.5023731534811031  0.6263529978871429
  0.5007468707893884  0.9984582359635695  0.1245613229197733
  0.4968689883788123  0.9996368015803845  0.6261567970180578
  0.4989865737350903  0.4958994998707946  0.1252506244267251
  0.4960664941106572  0.5244511659142899  0.6208759455546921
  0.0021930080623033  0.0010765204035708  0.3745875510986768
  0.0014000508249392  0.9962339659395807  0.8746307246137717
  0.0035273350690926  0.5023731534811031  0.3736470021128571
  0.0003021880444563  0.5004572693776113  0.8754798044673315
  0.4968689883788123  0.9996368015803845  0.3738432029819425
  0.5007468707893884  0.9984582359635695  0.8754386770802270
  0.4989865737350903  0.4958994998707946  0.8747493755732748
  0.2481313711080795  0.2476590266182657  0.3748437501584699
  0.2529802020251032  0.2514945298772970  0.8748534349206468
  0.2607704322840783  0.7407567768779949  0.3770662688705729
  0.2475972929341358  0.7516142970704309  0.8751789175176142
  0.7487113086006754  0.2527898048504060  0.8755548201378194
  0.7513206031053562  0.7524708199905901  0.8749096293861989
  0.2529802020251032  0.2514945298772970  0.1251465650793531
  0.2481313711080795  0.2476590266182657  0.6251562498415303
  0.2475972929341358  0.7516142970704309  0.1248210824823865
  0.2607704322840783  0.7407567768779949  0.6229337311294268
  0.7487113086006754  0.2527898048504060  0.1244451798621806
  0.7490071929411094  0.2470255993126708  0.6292447205780572
  0.7513206031053562  0.7524708199905901  0.1250903706138008
  0.7424302219378430  0.7362604316209601  0.6233796838173781
  0.7490071929411094  0.2470255993126708  0.3707552794219423
  0.8693690867460550  0.3958193771264281  0.5000000000000000
  0.4960664941106572  0.5244511659142899  0.3791240544453082
  0.3501293646465389  0.3979592726175646  0.5000000000000000
  0.8893590867474575  0.6406554741918729  0.5000000000000000
  0.7424302219378430  0.7362604316209601  0.3766203161826214
  0.6245389584623724  0.3906203352819369  0.5000000000000000
 
  0.00000000E+00  0.00000000E+00  0.00000000E+00
  0.00000000E+00  0.00000000E+00  0.00000000E+00
  0.00000000E+00  0.00000000E+00  0.00000000E+00
  0.00000000E+00  0.00000000E+00  0.00000000E+00
  0.00000000E+00  0.00000000E+00  0.00000000E+00
  0.00000000E+00  0.00000000E+00  0.00000000E+00
  0.00000000E+00  0.00000000E+00  0.00000000E+00
  0.00000000E+00  0.00000000E+00  0.00000000E+00
  0.00000000E+00  0.00000000E+00  0.00000000E+00
  0.00000000E+00  0.00000000E+00  0.00000000E+00
  0.00000000E+00  0.00000000E+00  0.00000000E+00
  0.00000000E+00  0.00000000E+00  0.00000000E+00
  0.00000000E+00  0.00000000E+00  0.00000000E+00
  0.00000000E+00  0.00000000E+00  0.00000000E+00
  0.00000000E+00  0.00000000E+00  0.00000000E+00
  0.00000000E+00  0.00000000E+00  0.00000000E+00
  0.00000000E+00  0.00000000E+00  0.00000000E+00
  0.00000000E+00  0.00000000E+00  0.00000000E+00
  0.00000000E+00  0.00000000E+00  0.00000000E+00
  0.00000000E+00  0.00000000E+00  0.00000000E+00
  0.00000000E+00  0.00000000E+00  0.00000000E+00
  0.00000000E+00  0.00000000E+00  0.00000000E+00
  0.00000000E+00  0.00000000E+00  0.00000000E+00
  0.00000000E+00  0.00000000E+00  0.00000000E+00
  0.00000000E+00  0.00000000E+00  0.00000000E+00
  0.00000000E+00  0.00000000E+00  0.00000000E+00
  0.00000000E+00  0.00000000E+00  0.00000000E+00
  0.00000000E+00  0.00000000E+00  0.00000000E+00
  0.00000000E+00  0.00000000E+00  0.00000000E+00
  0.00000000E+00  0.00000000E+00  0.00000000E+00
  0.00000000E+00  0.00000000E+00  0.00000000E+00
  0.00000000E+00  0.00000000E+00  0.00000000E+00
  0.00000000E+00  0.00000000E+00  0.00000000E+00
  0.00000000E+00  0.00000000E+00  0.00000000E+00
  0.00000000E+00  0.00000000E+00  0.00000000E+00
  0.00000000E+00  0.00000000E+00  0.00000000E+00
  0.00000000E+00  0.00000000E+00  0.00000000E+00
  0.00000000E+00  0.00000000E+00  0.00000000E+00
  0.00000000E+00  0.00000000E+00  0.00000000E+00
  0.00000000E+00  0.00000000E+00  0.00000000E+00
  0.00000000E+00  0.00000000E+00  0.00000000E+00
  0.00000000E+00  0.00000000E+00  0.00000000E+00
  0.00000000E+00  0.00000000E+00  0.00000000E+00
  0.00000000E+00  0.00000000E+00  0.00000000E+00
  0.00000000E+00  0.00000000E+00  0.00000000E+00
  0.00000000E+00  0.00000000E+00  0.00000000E+00
  0.00000000E+00  0.00000000E+00  0.00000000E+00
  0.00000000E+00  0.00000000E+00  0.00000000E+00
  0.00000000E+00  0.00000000E+00  0.00000000E+00
  0.00000000E+00  0.00000000E+00  0.00000000E+00
  0.00000000E+00  0.00000000E+00  0.00000000E+00
  0.00000000E+00  0.00000000E+00  0.00000000E+00
  0.00000000E+00  0.00000000E+00  0.00000000E+00
  0.00000000E+00  0.00000000E+00  0.00000000E+00
  0.00000000E+00  0.00000000E+00  0.00000000E+00
  0.00000000E+00  0.00000000E+00  0.00000000E+00
  0.00000000E+00  0.00000000E+00  0.00000000E+00
  0.00000000E+00  0.00000000E+00  0.00000000E+00
  0.00000000E+00  0.00000000E+00  0.00000000E+00
  0.00000000E+00  0.00000000E+00  0.00000000E+00
  0.00000000E+00  0.00000000E+00  0.00000000E+00
  0.00000000E+00  0.00000000E+00  0.00000000E+00
  0.00000000E+00  0.00000000E+00  0.00000000E+00
  0.00000000E+00  0.00000000E+00  0.00000000E+00
  0.00000000E+00  0.00000000E+00  0.00000000E+00
  0.00000000E+00  0.00000000E+00  0.00000000E+00
  0.00000000E+00  0.00000000E+00  0.00000000E+00
  0.00000000E+00  0.00000000E+00  0.00000000E+00
  0.00000000E+00  0.00000000E+00  0.00000000E+00
  0.00000000E+00  0.00000000E+00  0.00000000E+00
  0.00000000E+00  0.00000000E+00  0.00000000E+00
  0.00000000E+00  0.00000000E+00  0.00000000E+00
  0.00000000E+00  0.00000000E+00  0.00000000E+00
  0.00000000E+00  0.00000000E+00  0.00000000E+00
  0.00000000E+00  0.00000000E+00  0.00000000E+00
  0.00000000E+00  0.00000000E+00  0.00000000E+00
  0.00000000E+00  0.00000000E+00  0.00000000E+00
  0.00000000E+00  0.00000000E+00  0.00000000E+00
  0.00000000E+00  0.00000000E+00  0.00000000E+00
  0.00000000E+00  0.00000000E+00  0.00000000E+00
  0.00000000E+00  0.00000000E+00  0.00000000E+00
  0.00000000E+00  0.00000000E+00  0.00000000E+00
  0.00000000E+00  0.00000000E+00  0.00000000E+00
  0.00000000E+00  0.00000000E+00  0.00000000E+00
  0.00000000E+00  0.00000000E+00  0.00000000E+00
  0.00000000E+00  0.00000000E+00  0.00000000E+00
  0.00000000E+00  0.00000000E+00  0.00000000E+00
  0.00000000E+00  0.00000000E+00  0.00000000E+00
  0.00000000E+00  0.00000000E+00  0.00000000E+00
  0.00000000E+00  0.00000000E+00  0.00000000E+00
  0.00000000E+00  0.00000000E+00  0.00000000E+00
  0.00000000E+00  0.00000000E+00  0.00000000E+00
  0.00000000E+00  0.00000000E+00  0.00000000E+00
  0.00000000E+00  0.00000000E+00  0.00000000E+00
  0.00000000E+00  0.00000000E+00  0.00000000E+00
  0.00000000E+00  0.00000000E+00  0.00000000E+00
  0.00000000E+00  0.00000000E+00  0.00000000E+00
  0.00000000E+00  0.00000000E+00  0.00000000E+00
  0.00000000E+00  0.00000000E+00  0.00000000E+00
  0.00000000E+00  0.00000000E+00  0.00000000E+00
  0.00000000E+00  0.00000000E+00  0.00000000E+00
  0.00000000E+00  0.00000000E+00  0.00000000E+00
  0.00000000E+00  0.00000000E+00  0.00000000E+00
  0.00000000E+00  0.00000000E+00  0.00000000E+00
  0.00000000E+00  0.00000000E+00  0.00000000E+00
  0.00000000E+00  0.00000000E+00  0.00000000E+00
  0.00000000E+00  0.00000000E+00  0.00000000E+00
  0.00000000E+00  0.00000000E+00  0.00000000E+00
  0.00000000E+00  0.00000000E+00  0.00000000E+00
  0.00000000E+00  0.00000000E+00  0.00000000E+00
  0.00000000E+00  0.00000000E+00  0.00000000E+00
  0.00000000E+00  0.00000000E+00  0.00000000E+00
  0.00000000E+00  0.00000000E+00  0.00000000E+00
  0.00000000E+00  0.00000000E+00  0.00000000E+00
  0.00000000E+00  0.00000000E+00  0.00000000E+00
  0.00000000E+00  0.00000000E+00  0.00000000E+00
  0.00000000E+00  0.00000000E+00  0.00000000E+00
  0.00000000E+00  0.00000000E+00  0.00000000E+00
  0.00000000E+00  0.00000000E+00  0.00000000E+00
  0.00000000E+00  0.00000000E+00  0.00000000E+00
  0.00000000E+00  0.00000000E+00  0.00000000E+00
  0.00000000E+00  0.00000000E+00  0.00000000E+00
  0.00000000E+00  0.00000000E+00  0.00000000E+00
  0.00000000E+00  0.00000000E+00  0.00000000E+00
  0.00000000E+00  0.00000000E+00  0.00000000E+00
  0.00000000E+00  0.00000000E+00  0.00000000E+00
  0.00000000E+00  0.00000000E+00  0.00000000E+00
  0.00000000E+00  0.00000000E+00  0.00000000E+00
  0.00000000E+00  0.00000000E+00  0.00000000E+00
  0.00000000E+00  0.00000000E+00  0.00000000E+00
  0.00000000E+00  0.00000000E+00  0.00000000E+00
  0.00000000E+00  0.00000000E+00  0.00000000E+00
  0.00000000E+00  0.00000000E+00  0.00000000E+00
  0.00000000E+00  0.00000000E+00  0.00000000E+00
  0.00000000E+00  0.00000000E+00  0.00000000E+00
  0.00000000E+00  0.00000000E+00  0.00000000E+00
  0.00000000E+00  0.00000000E+00  0.00000000E+00
  0.00000000E+00  0.00000000E+00  0.00000000E+00
  0.00000000E+00  0.00000000E+00  0.00000000E+00
  0.00000000E+00  0.00000000E+00  0.00000000E+00
  0.00000000E+00  0.00000000E+00  0.00000000E+00
  0.00000000E+00  0.00000000E+00  0.00000000E+00
  0.00000000E+00  0.00000000E+00  0.00000000E+00
  0.00000000E+00  0.00000000E+00  0.00000000E+00
  0.00000000E+00  0.00000000E+00  0.00000000E+00
  0.00000000E+00  0.00000000E+00  0.00000000E+00
  0.00000000E+00  0.00000000E+00  0.00000000E+00
  0.00000000E+00  0.00000000E+00  0.00000000E+00
  0.00000000E+00  0.00000000E+00  0.00000000E+00
  0.00000000E+00  0.00000000E+00  0.00000000E+00
  0.00000000E+00  0.00000000E+00  0.00000000E+00
  0.00000000E+00  0.00000000E+00  0.00000000E+00
  0.00000000E+00  0.00000000E+00  0.00000000E+00
  0.00000000E+00  0.00000000E+00  0.00000000E+00
  0.00000000E+00  0.00000000E+00  0.00000000E+00
  0.00000000E+00  0.00000000E+00  0.00000000E+00
  0.00000000E+00  0.00000000E+00  0.00000000E+00
  0.00000000E+00  0.00000000E+00  0.00000000E+00
