Sr   Ti   Fe   O                        
   1.00000000000000     
    11.1989999999999998    0.0000000000000000    0.0000000000000000
     0.0000000000000000   11.1989999999999998    0.0000000000000000
     0.0000000000000000    0.0000000000000000   15.9830000000000005
   Sr   Ti   Fe   O 
    32    30     2    94
Direct
  0.9995642656436385  0.2510465861522523  0.1247659356595830
  0.0042504927130229  0.2515135877641971  0.6256289637380247
  0.9982922686095970  0.7496354564730078  0.1251550425750378
  0.9919782763456366  0.7485315577446289  0.6273238907971764
  0.4991261676478148  0.2527146548570093  0.1250571537340310
  0.4956534721215119  0.2438227544486346  0.6270202556108319
  0.4987155597148441  0.7487590144611015  0.1236851575125065
  0.5052607096056039  0.7568715767361288  0.6310303347595111
  0.0042504927130229  0.2515135877641971  0.3743710362619758
  0.9995642656436385  0.2510465861522523  0.8752340643404174
  0.9919782763456366  0.7485315577446289  0.3726761092028240
  0.9982922686095970  0.7496354564730078  0.8748449574249620
  0.4956534721215119  0.2438227544486346  0.3729797443891676
  0.4991261676478148  0.2527146548570093  0.8749428462659681
  0.5052607096056039  0.7568715767361288  0.3689696652404893
  0.4987155597148441  0.7487590144611015  0.8763148424874935
  0.2487305720909534  0.9991526957347270  0.1252888358026250
  0.2515400643835425  0.0032044974837639  0.6251143997032514
  0.2503442449670858  0.4991894770180797  0.1228855768679444
  0.2506636350512605  0.4952816586955705  0.6291297771127935
  0.7502717330243462  0.9996515713459081  0.1254654383725362
  0.7483066553077192  0.9973462637242542  0.6235270939018852
  0.7472661053056538  0.5012747423131709  0.1247896177319559
  0.7591183551903505  0.5004605332518333  0.6293526033349143
  0.2515400643835425  0.0032044974837639  0.3748856002967480
  0.2487305720909534  0.9991526957347270  0.8747111641973752
  0.2506636350512605  0.4952816586955705  0.3708702228872063
  0.2503442449670858  0.4991894770180797  0.8771144231320567
  0.7483066553077192  0.9973462637242542  0.3764729060981156
  0.7502717330243462  0.9996515713459081  0.8745345616274642
  0.7591183551903505  0.5004605332518333  0.3706473966650853
  0.7472661053056538  0.5012747423131709  0.8752103822680439
 -0.0006581457577965  0.9999067597947729 -0.0000000000000000
  0.9970544291203084  0.0003725589199660  0.5000000000000000
  0.9994925724931693  0.4999876353269871 -0.0000000000000000
  1.0055710123435431  0.5011004589387095  0.5000000000000000
  0.4999855162750593  0.0004887089617263 -0.0000000000000000
  0.5011250338484119  0.9982214459296408  0.5000000000000000
  0.4994073228038230  0.4995394079856263 -0.0000000000000000
  0.2501250235801654  0.2493498194585446 -0.0000000000000000
  0.2496715085104434  0.2489552612341238  0.5000000000000000
  0.2484761178919317  0.7511224007019028 -0.0000000000000000
  0.2384414943396983  0.7554704370417005  0.5000000000000000
  0.7496362659712970  0.2500260266348581 -0.0000000000000000
  0.7494804405981027  0.7509950967633736 -0.0000000000000000
  0.2496244384320725  0.2494363483138280  0.2491009810234690
  0.2496244384320725  0.2494363483138280  0.7508990189765319
  0.2501381681731804  0.7488626195956932  0.2498530084888214
  0.2501381681731804  0.7488626195956932  0.7501469915111790
  0.7484710585566210  0.2514796860927476  0.2504158135640392
  0.7484710585566210  0.2514796860927476  0.7495841864359614
  0.7491791642297645  0.7495195394966644  0.2501896781995449
  0.7491791642297645  0.7495195394966644  0.7498103218004546
 -0.0004558550370148  0.0004846667613674  0.2510666078376916
 -0.0004558550370148  0.0004846667613674  0.7489333921623084
  0.0012429572116039  0.5001966377554985  0.2491355241618072
  0.0012429572116039  0.5001966377554985  0.7508644758381923
  0.4998443036854480  0.0006408107386262  0.2487876274502284
  0.4998443036854480  0.0006408107386262  0.7512123725497639
  0.4982351042689413  0.5021834937432168  0.2525026688984969
  0.4982351042689413  0.5021834937432168  0.7474973311015023
  0.7608374571478640  0.2527839334941715  0.5000000000000000
  0.4986454097967467  0.4890792992146965  0.5000000000000000
  0.7557243877918535  0.7496113241258864  0.5000000000000000
  0.1089095551831159  0.1399457016285068  0.2478954284185133
  0.1089095551831159  0.1399457016285068  0.7521045715814869
  0.1099936047538874  0.6411175705745644  0.2508528967097939
  0.1099936047538874  0.6411175705745644  0.7491471032902058
  0.6086928753336930  0.1417073577735550  0.2505318170237451
  0.6086928753336930  0.1417073577735550  0.7494681829762539
  0.6090231246832870  0.6407612311278807  0.2447169272688869
  0.6090231246832870  0.6407612311278807  0.7552830727311131
  0.3889301846121088  0.3597160641703837  0.2523718566789713
  0.3889301846121088  0.3597160641703837  0.7476281433210288
  0.3899645273163845  0.8602975473221565  0.2496235277129080
  0.3899645273163845  0.8602975473221565  0.7503764722870919
  0.8887873589442735  0.3612005317424979  0.2513940361476293
  0.8887873589442735  0.3612005317424979  0.7486059638523709
  0.8883473096772830  0.8616499659017706  0.2513989267656655
  0.8883473096772830  0.8616499659017706  0.7486010732343347
  0.3595247892951002  0.1097719668495180  0.2494989702476537
  0.3595247892951002  0.1097719668495180  0.7505010297523466
  0.3572263318088691  0.6109661706351868  0.2418487776499730
  0.3572263318088691  0.6109661706351868  0.7581512223500273
  0.8579568765806058  0.1116973795436462  0.2545268049620898
  0.8579568765806058  0.1116973795436462  0.7454731950379101
  0.8629196484501908  0.6121014589217294  0.2460760644936630
  0.8629196484501908  0.6121014589217294  0.7539239355063369
  0.1395864369480385  0.3889512775924479  0.2479331934228560
  0.1395864369480385  0.3889512775924479  0.7520668065771438
  0.1399819209462652  0.8893715250853895  0.2551494346982563
  0.1399819209462652  0.8893715250853895  0.7448505653017446
  0.6376205237843500  0.3913448989455547  0.2511081039050814
  0.6376205237843500  0.3913448989455547  0.7488918960949106
  0.6390984533123726  0.8908071021614323  0.2515743324332620
  0.6390984533123726  0.8908071021614323  0.7484256675667380
  0.3587703300694665  0.3896347208919209 -0.0000000000000000
  0.3589462742798047  0.8913040683798034 -0.0000000000000000
  0.3629628532400351  0.8778261758515874  0.5000000000000000
  0.8589763784133231  0.3906496115256243 -0.0000000000000000
  0.8588427832189108  0.8921627397754803 -0.0000000000000000
  0.8621114491459713  0.8995452678195633  0.5000000000000000
  0.1406526083224536  0.1086841009259245 -0.0000000000000000
  0.1390308205839877  0.1062619853773725  0.5000000000000000
  0.1400145263376374  0.6099590473390082 -0.0000000000000000
  0.1606645355745061  0.5999386685221312  0.5000000000000000
  0.6417411024235746  0.1091847613278296 -0.0000000000000000
  0.6299195776197783  0.1289647740592480  0.5000000000000000
  0.6396316477216560  0.6101919028648976 -0.0000000000000000
  0.1094404218250322  0.3588815913360082 -0.0000000000000000
  0.1143960214708510  0.3567432073183309  0.5000000000000000
  0.1073929619596947  0.8601212992147952 -0.0000000000000000
  0.1046947540668053  0.8521848304681302  0.5000000000000000
  0.6101454461125935  0.3586132313042421 -0.0000000000000000
  0.6083102476036538  0.8599577421854415 -0.0000000000000000
  0.6059952134609180  0.8646652606976080  0.5000000000000000
  0.3914439380849113  0.1408901510190942 -0.0000000000000000
  0.3828969473499720  0.1310708213494190  0.5000000000000000
  0.3882175549278468  0.6409246979266389 -0.0000000000000000
  0.8910143193550617  0.1413681038135865 -0.0000000000000000
  0.8876119829247031  0.1419941440575639  0.5000000000000000
  0.8902254369587946  0.6406076641871175 -0.0000000000000000
 -0.0012154405130188  0.9993488376176264  0.1260414333775377
  0.0012897245772393  0.0019141586911145  0.6245213413377311
  0.0012309705660214  0.4989820015925236  0.1245050696179848
  0.0050033169952236  0.4997467194375013  0.6264046553536606
  0.5007292297074715  0.0007323036170079  0.1249728826039821
  0.4986341717889756  0.0023483996133621  0.6256712702757393
  0.4988027688952667  0.4969707385162304  0.1238359830417605
  0.4857408960697198  0.5190228811168648  0.6262961467796867
  0.0012897245772393  0.0019141586911145  0.3754786586622691
 -0.0012154405130188  0.9993488376176264  0.8739585666224622
  0.0050033169952236  0.4997467194375013  0.3735953446463387
  0.0012309705660214  0.4989820015925236  0.8754949303820151
  0.4986341717889756  0.0023483996133621  0.3743287297242613
  0.5007292297074715  0.0007323036170079  0.8750271173960171
  0.4988027688952667  0.4969707385162304  0.8761640169582398
  0.2474187912495724  0.2458650334919762  0.3735084847101283
  0.2512652542645871  0.2495966337853643  0.8753869965704124
  0.2632296586587107  0.7386421969178292  0.3779962423267502
  0.2456325522946585  0.7552028635152143  0.8750792213973532
  0.7502853812904470  0.2502861024059147  0.8739496757473760
  0.7502025891099727  0.7531960075503984  0.8758788916639668
  0.2512652542645871  0.2495966337853643  0.1246130034295878
  0.2474187912495724  0.2458650334919762  0.6264915152898721
  0.2456325522946585  0.7552028635152143  0.1249207786026465
  0.2632296586587107  0.7386421969178292  0.6220037576732497
  0.7502853812904470  0.2502861024059147  0.1260503242526240
  0.7407140092418536  0.2602130991702869  0.6219195925719815
  0.7502025891099727  0.7531960075503984  0.1241211083360332
  0.7454209741550960  0.7406549408359183  0.6274453626175776
  0.7407140092418536  0.2602130991702869  0.3780804074280184
  0.8767640055837927  0.3813565573145990  0.5000000000000000
  0.4857408960697198  0.5190228811168648  0.3737038532203129
  0.3623037726691695  0.3804753411565425  0.5000000000000000
  0.9049044632524225  0.6364353028786709  0.5000000000000000
  0.7454209741550960  0.7406549408359183  0.3725546373824226
  0.6625896155265124  0.4841751706665497  0.5000000000000000
 
  0.00000000E+00  0.00000000E+00  0.00000000E+00
  0.00000000E+00  0.00000000E+00  0.00000000E+00
  0.00000000E+00  0.00000000E+00  0.00000000E+00
  0.00000000E+00  0.00000000E+00  0.00000000E+00
  0.00000000E+00  0.00000000E+00  0.00000000E+00
  0.00000000E+00  0.00000000E+00  0.00000000E+00
  0.00000000E+00  0.00000000E+00  0.00000000E+00
  0.00000000E+00  0.00000000E+00  0.00000000E+00
  0.00000000E+00  0.00000000E+00  0.00000000E+00
  0.00000000E+00  0.00000000E+00  0.00000000E+00
  0.00000000E+00  0.00000000E+00  0.00000000E+00
  0.00000000E+00  0.00000000E+00  0.00000000E+00
  0.00000000E+00  0.00000000E+00  0.00000000E+00
  0.00000000E+00  0.00000000E+00  0.00000000E+00
  0.00000000E+00  0.00000000E+00  0.00000000E+00
  0.00000000E+00  0.00000000E+00  0.00000000E+00
  0.00000000E+00  0.00000000E+00  0.00000000E+00
  0.00000000E+00  0.00000000E+00  0.00000000E+00
  0.00000000E+00  0.00000000E+00  0.00000000E+00
  0.00000000E+00  0.00000000E+00  0.00000000E+00
  0.00000000E+00  0.00000000E+00  0.00000000E+00
  0.00000000E+00  0.00000000E+00  0.00000000E+00
  0.00000000E+00  0.00000000E+00  0.00000000E+00
  0.00000000E+00  0.00000000E+00  0.00000000E+00
  0.00000000E+00  0.00000000E+00  0.00000000E+00
  0.00000000E+00  0.00000000E+00  0.00000000E+00
  0.00000000E+00  0.00000000E+00  0.00000000E+00
  0.00000000E+00  0.00000000E+00  0.00000000E+00
  0.00000000E+00  0.00000000E+00  0.00000000E+00
  0.00000000E+00  0.00000000E+00  0.00000000E+00
  0.00000000E+00  0.00000000E+00  0.00000000E+00
  0.00000000E+00  0.00000000E+00  0.00000000E+00
  0.00000000E+00  0.00000000E+00  0.00000000E+00
  0.00000000E+00  0.00000000E+00  0.00000000E+00
  0.00000000E+00  0.00000000E+00  0.00000000E+00
  0.00000000E+00  0.00000000E+00  0.00000000E+00
  0.00000000E+00  0.00000000E+00  0.00000000E+00
  0.00000000E+00  0.00000000E+00  0.00000000E+00
  0.00000000E+00  0.00000000E+00  0.00000000E+00
  0.00000000E+00  0.00000000E+00  0.00000000E+00
  0.00000000E+00  0.00000000E+00  0.00000000E+00
  0.00000000E+00  0.00000000E+00  0.00000000E+00
  0.00000000E+00  0.00000000E+00  0.00000000E+00
  0.00000000E+00  0.00000000E+00  0.00000000E+00
  0.00000000E+00  0.00000000E+00  0.00000000E+00
  0.00000000E+00  0.00000000E+00  0.00000000E+00
  0.00000000E+00  0.00000000E+00  0.00000000E+00
  0.00000000E+00  0.00000000E+00  0.00000000E+00
  0.00000000E+00  0.00000000E+00  0.00000000E+00
  0.00000000E+00  0.00000000E+00  0.00000000E+00
  0.00000000E+00  0.00000000E+00  0.00000000E+00
  0.00000000E+00  0.00000000E+00  0.00000000E+00
  0.00000000E+00  0.00000000E+00  0.00000000E+00
  0.00000000E+00  0.00000000E+00  0.00000000E+00
  0.00000000E+00  0.00000000E+00  0.00000000E+00
  0.00000000E+00  0.00000000E+00  0.00000000E+00
  0.00000000E+00  0.00000000E+00  0.00000000E+00
  0.00000000E+00  0.00000000E+00  0.00000000E+00
  0.00000000E+00  0.00000000E+00  0.00000000E+00
  0.00000000E+00  0.00000000E+00  0.00000000E+00
  0.00000000E+00  0.00000000E+00  0.00000000E+00
  0.00000000E+00  0.00000000E+00  0.00000000E+00
  0.00000000E+00  0.00000000E+00  0.00000000E+00
  0.00000000E+00  0.00000000E+00  0.00000000E+00
  0.00000000E+00  0.00000000E+00  0.00000000E+00
  0.00000000E+00  0.00000000E+00  0.00000000E+00
  0.00000000E+00  0.00000000E+00  0.00000000E+00
  0.00000000E+00  0.00000000E+00  0.00000000E+00
  0.00000000E+00  0.00000000E+00  0.00000000E+00
  0.00000000E+00  0.00000000E+00  0.00000000E+00
  0.00000000E+00  0.00000000E+00  0.00000000E+00
  0.00000000E+00  0.00000000E+00  0.00000000E+00
  0.00000000E+00  0.00000000E+00  0.00000000E+00
  0.00000000E+00  0.00000000E+00  0.00000000E+00
  0.00000000E+00  0.00000000E+00  0.00000000E+00
  0.00000000E+00  0.00000000E+00  0.00000000E+00
  0.00000000E+00  0.00000000E+00  0.00000000E+00
  0.00000000E+00  0.00000000E+00  0.00000000E+00
  0.00000000E+00  0.00000000E+00  0.00000000E+00
  0.00000000E+00  0.00000000E+00  0.00000000E+00
  0.00000000E+00  0.00000000E+00  0.00000000E+00
  0.00000000E+00  0.00000000E+00  0.00000000E+00
  0.00000000E+00  0.00000000E+00  0.00000000E+00
  0.00000000E+00  0.00000000E+00  0.00000000E+00
  0.00000000E+00  0.00000000E+00  0.00000000E+00
  0.00000000E+00  0.00000000E+00  0.00000000E+00
  0.00000000E+00  0.00000000E+00  0.00000000E+00
  0.00000000E+00  0.00000000E+00  0.00000000E+00
  0.00000000E+00  0.00000000E+00  0.00000000E+00
  0.00000000E+00  0.00000000E+00  0.00000000E+00
  0.00000000E+00  0.00000000E+00  0.00000000E+00
  0.00000000E+00  0.00000000E+00  0.00000000E+00
  0.00000000E+00  0.00000000E+00  0.00000000E+00
  0.00000000E+00  0.00000000E+00  0.00000000E+00
  0.00000000E+00  0.00000000E+00  0.00000000E+00
  0.00000000E+00  0.00000000E+00  0.00000000E+00
  0.00000000E+00  0.00000000E+00  0.00000000E+00
  0.00000000E+00  0.00000000E+00  0.00000000E+00
  0.00000000E+00  0.00000000E+00  0.00000000E+00
  0.00000000E+00  0.00000000E+00  0.00000000E+00
  0.00000000E+00  0.00000000E+00  0.00000000E+00
  0.00000000E+00  0.00000000E+00  0.00000000E+00
  0.00000000E+00  0.00000000E+00  0.00000000E+00
  0.00000000E+00  0.00000000E+00  0.00000000E+00
  0.00000000E+00  0.00000000E+00  0.00000000E+00
  0.00000000E+00  0.00000000E+00  0.00000000E+00
  0.00000000E+00  0.00000000E+00  0.00000000E+00
  0.00000000E+00  0.00000000E+00  0.00000000E+00
  0.00000000E+00  0.00000000E+00  0.00000000E+00
  0.00000000E+00  0.00000000E+00  0.00000000E+00
  0.00000000E+00  0.00000000E+00  0.00000000E+00
  0.00000000E+00  0.00000000E+00  0.00000000E+00
  0.00000000E+00  0.00000000E+00  0.00000000E+00
  0.00000000E+00  0.00000000E+00  0.00000000E+00
  0.00000000E+00  0.00000000E+00  0.00000000E+00
  0.00000000E+00  0.00000000E+00  0.00000000E+00
  0.00000000E+00  0.00000000E+00  0.00000000E+00
  0.00000000E+00  0.00000000E+00  0.00000000E+00
  0.00000000E+00  0.00000000E+00  0.00000000E+00
  0.00000000E+00  0.00000000E+00  0.00000000E+00
  0.00000000E+00  0.00000000E+00  0.00000000E+00
  0.00000000E+00  0.00000000E+00  0.00000000E+00
  0.00000000E+00  0.00000000E+00  0.00000000E+00
  0.00000000E+00  0.00000000E+00  0.00000000E+00
  0.00000000E+00  0.00000000E+00  0.00000000E+00
  0.00000000E+00  0.00000000E+00  0.00000000E+00
  0.00000000E+00  0.00000000E+00  0.00000000E+00
  0.00000000E+00  0.00000000E+00  0.00000000E+00
  0.00000000E+00  0.00000000E+00  0.00000000E+00
  0.00000000E+00  0.00000000E+00  0.00000000E+00
  0.00000000E+00  0.00000000E+00  0.00000000E+00
  0.00000000E+00  0.00000000E+00  0.00000000E+00
  0.00000000E+00  0.00000000E+00  0.00000000E+00
  0.00000000E+00  0.00000000E+00  0.00000000E+00
  0.00000000E+00  0.00000000E+00  0.00000000E+00
  0.00000000E+00  0.00000000E+00  0.00000000E+00
  0.00000000E+00  0.00000000E+00  0.00000000E+00
  0.00000000E+00  0.00000000E+00  0.00000000E+00
  0.00000000E+00  0.00000000E+00  0.00000000E+00
  0.00000000E+00  0.00000000E+00  0.00000000E+00
  0.00000000E+00  0.00000000E+00  0.00000000E+00
  0.00000000E+00  0.00000000E+00  0.00000000E+00
  0.00000000E+00  0.00000000E+00  0.00000000E+00
  0.00000000E+00  0.00000000E+00  0.00000000E+00
  0.00000000E+00  0.00000000E+00  0.00000000E+00
  0.00000000E+00  0.00000000E+00  0.00000000E+00
  0.00000000E+00  0.00000000E+00  0.00000000E+00
  0.00000000E+00  0.00000000E+00  0.00000000E+00
  0.00000000E+00  0.00000000E+00  0.00000000E+00
  0.00000000E+00  0.00000000E+00  0.00000000E+00
  0.00000000E+00  0.00000000E+00  0.00000000E+00
  0.00000000E+00  0.00000000E+00  0.00000000E+00
  0.00000000E+00  0.00000000E+00  0.00000000E+00
  0.00000000E+00  0.00000000E+00  0.00000000E+00
  0.00000000E+00  0.00000000E+00  0.00000000E+00
  0.00000000E+00  0.00000000E+00  0.00000000E+00
  0.00000000E+00  0.00000000E+00  0.00000000E+00
  0.00000000E+00  0.00000000E+00  0.00000000E+00
