SrTiFeO                                 
   1.00000000000000     
    11.1989999999999998    0.0000000000000000    0.0000000000000000
     0.0000000000000000   11.1989999999999998    0.0000000000000000
     0.0000000000000000    0.0000000000000000   15.9830000000000005
   Sr   Ti   Fe   O 
    32    30     2    94
Direct
  0.9997846677991165  0.2505598819209715  0.1248481068788456
  0.0028225345841187  0.2505453354819792  0.6270168429194684
  0.9997027115867829  0.7493912440340681  0.1249892084052063
  0.9917937287475355  0.7502878723177453  0.6269883460435793
  0.5010827003482577  0.2512502694356816  0.1242678681676785
  0.4953025379581344  0.2477919856654103  0.6271881526993102
  0.4995904306736232  0.7487723615228468  0.1244769299866215
  0.5089032816207297  0.7522641849094905  0.6265450191161684
  0.0028225345841187  0.2505453354819792  0.3729831570805315
  0.9997846677991165  0.2505598819209715  0.8751518931211544
  0.9917937287475355  0.7502878723177453  0.3730116539564206
  0.9997027115867829  0.7493912440340681  0.8750107915947937
  0.4953025379581344  0.2477919856654103  0.3728118473006899
  0.5010827003482577  0.2512502694356816  0.8757321318323215
  0.5089032816207297  0.7522641849094905  0.3734549808838314
  0.4995904306736232  0.7487723615228468  0.8755230700133785
  0.2490466258241454  0.9987861757452343  0.1254741054605495
  0.2521768460260208  0.0031902517993393  0.6247849404842524
  0.2505371002056226  0.4987358394037514  0.1233742366534927
  0.2506810623206397  0.4952003151856986  0.6285636001275799
  0.7510013063936455  0.0005203457347770  0.1256795304682170
  0.7478343249390458  0.9963753998093917  0.6235983608383482
  0.7491347168349692  0.5015741159750206  0.1240812292053980
  0.7476841110532753  0.5064137660342458  0.6265580253063600
  0.2521768460260208  0.0031902517993393  0.3752150595157477
  0.2490466258241454  0.9987861757452343  0.8745258945394505
  0.2506810623206397  0.4952003151856986  0.3714363998724200
  0.2505371002056226  0.4987358394037514  0.8766257633465071
  0.7478343249390458  0.9963753998093917  0.3764016391616518
  0.7510013063936455  0.0005203457347770  0.8743204695317831
  0.7476841110532753  0.5064137660342458  0.3734419746936402
  0.7491347168349692  0.5015741159750206  0.8759187707945950
  0.0000943549577370  0.9999254596931352 -0.0000000000000000
  0.9963298650836875  0.0023716483008472  0.5000000000000000
  0.9998484174836606  0.5001981884654919 -0.0000000000000000
  0.9987116188050401  0.5012703446881485  0.5000000000000000
  0.4999232632331667  0.9999781221879172 -0.0000000000000000
  0.5009125220754050  0.9990082733657822  0.5000000000000000
  0.5002178240516757  0.4999733865257603 -0.0000000000000000
  0.2500803393742535  0.2489265971367774 -0.0000000000000000
  0.2494579372126601  0.2510638892089047  0.5000000000000000
  0.2493119008908011  0.7506086728382985 -0.0000000000000000
  0.2386709584318655  0.7542977834741748  0.5000000000000000
  0.7507079298128345  0.2494052910844810 -0.0000000000000000
  0.7498572958405502  0.7510192891012603 -0.0000000000000000
  0.2499899615771553  0.2492919095771925  0.2485163730280165
  0.2499899615771553  0.2492919095771925  0.7514836269719836
  0.2514768459914884  0.7481263272957893  0.2504285361296602
  0.2514768459914884  0.7481263272957893  0.7495714638703399
  0.7488944068277010  0.2517647610847316  0.2504539561389698
  0.7488944068277010  0.2517647610847316  0.7495460438610302
  0.7498180576915406  0.7507589777942686  0.2498599074551752
  0.7498180576915406  0.7507589777942686  0.7501400925448249
  0.0000032715748803  0.0001467457662929  0.2509615893408884
  0.0000032715748803  0.0001467457662929  0.7490384106591116
  0.9999639628131448  0.5000295307043465  0.2500153225707325
  0.9999639628131448  0.5000295307043465  0.7499846774292673
  0.4998851501295318  0.0000776270074714  0.2494122737341171
  0.4998851501295318  0.0000776270074714  0.7505877262658758
  0.4996131639892260  0.5001895618853540  0.2503847618059918
  0.4996131639892260  0.5001895618853540  0.7496152381940082
  0.7534441422158993  0.2510340803503511  0.5000000000000000
  0.5084129916850677  0.4909708570734432  0.5000000000000000
  0.7489908859266725  0.7483269688339306  0.5000000000000000
  0.1095259509632786  0.1396097954645493  0.2492908793123761
  0.1095259509632786  0.1396097954645493  0.7507091206876240
  0.1099921347674077  0.6405263432202043  0.2522486297957811
  0.1099921347674077  0.6405263432202043  0.7477513702042191
  0.6087789372665787  0.1413144110234351  0.2500831878773086
  0.6087789372665787  0.1413144110234351  0.7499168121226913
  0.6100064046825381  0.6416444315735950  0.2477140215730393
  0.6100064046825381  0.6416444315735950  0.7522859784269607
  0.3896351102103079  0.3577177502478361  0.2479413966059408
  0.3896351102103079  0.3577177502478361  0.7520586033940592
  0.3911204594669202  0.8585490930129323  0.2507562368572522
  0.3911204594669202  0.8585490930129323  0.7492437631427478
  0.8905427944964776  0.3595616727927248  0.2510001395086060
  0.8905427944964776  0.3595616727927248  0.7489998604913940
  0.8907644675680978  0.8608701521452384  0.2486896051159680
  0.8907644675680978  0.8608701521452384  0.7513103948840322
  0.3588673799443550  0.1085716942363285  0.2502981165151497
  0.3588673799443550  0.1085716942363285  0.7497018834848502
  0.3582997882048756  0.6086291212592163  0.2441011416438414
  0.3582997882048756  0.6086291212592163  0.7558988583561587
  0.8590217453674570  0.1108344812033696  0.2554646133748191
  0.8590217453674570  0.1108344812033696  0.7445353866251809
  0.8607180429507727  0.6101875096214300  0.2491856699496291
  0.8607180429507727  0.6101875096214300  0.7508143300503710
  0.1399281707372505  0.3893801956658577  0.2489162870715667
  0.1399281707372505  0.3893801956658577  0.7510837129284332
  0.1415373955689347  0.8885864459804457  0.2563110980267794
  0.1415373955689347  0.8885864459804457  0.7436889019732206
  0.6409249970809628  0.3912369865314478  0.2456611523174432
  0.6409249970809628  0.3912369865314478  0.7543388476825498
  0.6402244344146903  0.8914634724871916  0.2503337273267984
  0.6402244344146903  0.8914634724871916  0.7496662726732015
  0.3594682785072256  0.3891866834792063 -0.0000000000000000
  0.3586261006771462  0.8908732246719143 -0.0000000000000000
  0.3689908616264631  0.8735600007715051  0.5000000000000000
  0.8599403364548994  0.3904435604019779 -0.0000000000000000
  0.8592391082640012  0.8919968612555849 -0.0000000000000000
  0.8630695187371479  0.8934730065618584  0.5000000000000000
  0.1410674237463900  0.1081374767352468 -0.0000000000000000
  0.1396977692253623  0.1073352918947136  0.5000000000000000
  0.1403311689196521  0.6098052600697188 -0.0000000000000000
  0.1530787696255054  0.6017029971498730  0.5000000000000000
  0.6411234382041008  0.1090955336428611 -0.0000000000000000
  0.6308314727675163  0.1247867008750125  0.5000000000000000
  0.6403919133006908  0.6106179826440938 -0.0000000000000000
  0.1096696902285812  0.3593727478879888 -0.0000000000000000
  0.1067186543692822  0.3562869448584495  0.5000000000000000
  0.1079977378497522  0.8593678735485210 -0.0000000000000000
  0.1093651543296722  0.8559324333008339  0.5000000000000000
  0.6114127855322522  0.3588448680147993 -0.0000000000000000
  0.6086424402346916  0.8597176590523881 -0.0000000000000000
  0.6167372731341307  0.8713773044108413  0.5000000000000000
  0.3911997358959971  0.1405571618932124 -0.0000000000000000
  0.3829845271384806  0.1320257014757890  0.5000000000000000
  0.3885334647042613  0.6411661868969601 -0.0000000000000000
  0.8920621095683280  0.1405271858878311 -0.0000000000000000
  0.8899893577730019  0.1446441330330957  0.5000000000000000
  0.8905511447958773  0.6405295528056265 -0.0000000000000000
  0.0006737824320232  0.0000967306897957  0.1261137138033401
  0.0006948796669932  0.0005066517198646  0.6240866048399384
  0.0007211320067628  0.5003965861232720  0.1250839645638903
  0.0010966579209566  0.4991443202783034  0.6248810154091241
  0.4994276470164861 -0.0000083045584849  0.1250709497498107
  0.4992790219284055  0.0009806241572603  0.6252168852704462
  0.5000363571982892  0.4996835712501530  0.1230116010413624
  0.4972717735214693  0.5013561935467241  0.6298666419765254
  0.0006948796669932  0.0005066517198646  0.3759133951600616
  0.0006737824320232  0.0000967306897957  0.8738862861966600
  0.0010966579209566  0.4991443202783034  0.3751189845908759
  0.0007211320067628  0.5003965861232720  0.8749160354361097
  0.4992790219284055  0.0009806241572603  0.3747831147295537
  0.4994276470164861 -0.0000083045584849  0.8749290502501893
  0.5000363571982892  0.4996835712501530  0.8769883989586377
  0.2486464982694609  0.2489321138305419  0.3740898297276194
  0.2490879274311847  0.2481179263848929  0.8755567695917276
  0.2662634178243753  0.7349916235335763  0.3790875516029494
  0.2466142839946292  0.7534365691339030  0.8743527767932473
  0.7529774594956236  0.2470519969885667  0.8746055622856989
  0.7508476776757377  0.7516436644740501  0.8756844417881705
  0.2490879274311847  0.2481179263848929  0.1244432304082726
  0.2486464982694609  0.2489321138305419  0.6259101702723805
  0.2466142839946292  0.7534365691339030  0.1256472232067526
  0.2662634178243753  0.7349916235335763  0.6209124483970504
  0.7529774594956236  0.2470519969885667  0.1253944377143011
  0.7385477275119032  0.2618379842443661  0.6229345541205635
  0.7508476776757377  0.7516436644740501  0.1243155582118295
  0.7517203758729789  0.7509760465798084  0.6274866904021689
  0.7385477275119032  0.2618379842443661  0.3770654458794364
  0.8517470928168740  0.3973345494440353  0.5000000000000000
  0.4972717735214693  0.5013561935467241  0.3701333580234745
  0.3642325561092210  0.3841027064634401  0.5000000000000000
  0.8963778014203728  0.6414585604794344  0.5000000000000000
  0.7517203758729789  0.7509760465798084  0.3725133095978310
  0.6299133850251489  0.6176157161974726  0.5000000000000000
 
  0.00000000E+00  0.00000000E+00  0.00000000E+00
  0.00000000E+00  0.00000000E+00  0.00000000E+00
  0.00000000E+00  0.00000000E+00  0.00000000E+00
  0.00000000E+00  0.00000000E+00  0.00000000E+00
  0.00000000E+00  0.00000000E+00  0.00000000E+00
  0.00000000E+00  0.00000000E+00  0.00000000E+00
  0.00000000E+00  0.00000000E+00  0.00000000E+00
  0.00000000E+00  0.00000000E+00  0.00000000E+00
  0.00000000E+00  0.00000000E+00  0.00000000E+00
  0.00000000E+00  0.00000000E+00  0.00000000E+00
  0.00000000E+00  0.00000000E+00  0.00000000E+00
  0.00000000E+00  0.00000000E+00  0.00000000E+00
  0.00000000E+00  0.00000000E+00  0.00000000E+00
  0.00000000E+00  0.00000000E+00  0.00000000E+00
  0.00000000E+00  0.00000000E+00  0.00000000E+00
  0.00000000E+00  0.00000000E+00  0.00000000E+00
  0.00000000E+00  0.00000000E+00  0.00000000E+00
  0.00000000E+00  0.00000000E+00  0.00000000E+00
  0.00000000E+00  0.00000000E+00  0.00000000E+00
  0.00000000E+00  0.00000000E+00  0.00000000E+00
  0.00000000E+00  0.00000000E+00  0.00000000E+00
  0.00000000E+00  0.00000000E+00  0.00000000E+00
  0.00000000E+00  0.00000000E+00  0.00000000E+00
  0.00000000E+00  0.00000000E+00  0.00000000E+00
  0.00000000E+00  0.00000000E+00  0.00000000E+00
  0.00000000E+00  0.00000000E+00  0.00000000E+00
  0.00000000E+00  0.00000000E+00  0.00000000E+00
  0.00000000E+00  0.00000000E+00  0.00000000E+00
  0.00000000E+00  0.00000000E+00  0.00000000E+00
  0.00000000E+00  0.00000000E+00  0.00000000E+00
  0.00000000E+00  0.00000000E+00  0.00000000E+00
  0.00000000E+00  0.00000000E+00  0.00000000E+00
  0.00000000E+00  0.00000000E+00  0.00000000E+00
  0.00000000E+00  0.00000000E+00  0.00000000E+00
  0.00000000E+00  0.00000000E+00  0.00000000E+00
  0.00000000E+00  0.00000000E+00  0.00000000E+00
  0.00000000E+00  0.00000000E+00  0.00000000E+00
  0.00000000E+00  0.00000000E+00  0.00000000E+00
  0.00000000E+00  0.00000000E+00  0.00000000E+00
  0.00000000E+00  0.00000000E+00  0.00000000E+00
  0.00000000E+00  0.00000000E+00  0.00000000E+00
  0.00000000E+00  0.00000000E+00  0.00000000E+00
  0.00000000E+00  0.00000000E+00  0.00000000E+00
  0.00000000E+00  0.00000000E+00  0.00000000E+00
  0.00000000E+00  0.00000000E+00  0.00000000E+00
  0.00000000E+00  0.00000000E+00  0.00000000E+00
  0.00000000E+00  0.00000000E+00  0.00000000E+00
  0.00000000E+00  0.00000000E+00  0.00000000E+00
  0.00000000E+00  0.00000000E+00  0.00000000E+00
  0.00000000E+00  0.00000000E+00  0.00000000E+00
  0.00000000E+00  0.00000000E+00  0.00000000E+00
  0.00000000E+00  0.00000000E+00  0.00000000E+00
  0.00000000E+00  0.00000000E+00  0.00000000E+00
  0.00000000E+00  0.00000000E+00  0.00000000E+00
  0.00000000E+00  0.00000000E+00  0.00000000E+00
  0.00000000E+00  0.00000000E+00  0.00000000E+00
  0.00000000E+00  0.00000000E+00  0.00000000E+00
  0.00000000E+00  0.00000000E+00  0.00000000E+00
  0.00000000E+00  0.00000000E+00  0.00000000E+00
  0.00000000E+00  0.00000000E+00  0.00000000E+00
  0.00000000E+00  0.00000000E+00  0.00000000E+00
  0.00000000E+00  0.00000000E+00  0.00000000E+00
  0.00000000E+00  0.00000000E+00  0.00000000E+00
  0.00000000E+00  0.00000000E+00  0.00000000E+00
  0.00000000E+00  0.00000000E+00  0.00000000E+00
  0.00000000E+00  0.00000000E+00  0.00000000E+00
  0.00000000E+00  0.00000000E+00  0.00000000E+00
  0.00000000E+00  0.00000000E+00  0.00000000E+00
  0.00000000E+00  0.00000000E+00  0.00000000E+00
  0.00000000E+00  0.00000000E+00  0.00000000E+00
  0.00000000E+00  0.00000000E+00  0.00000000E+00
  0.00000000E+00  0.00000000E+00  0.00000000E+00
  0.00000000E+00  0.00000000E+00  0.00000000E+00
  0.00000000E+00  0.00000000E+00  0.00000000E+00
  0.00000000E+00  0.00000000E+00  0.00000000E+00
  0.00000000E+00  0.00000000E+00  0.00000000E+00
  0.00000000E+00  0.00000000E+00  0.00000000E+00
  0.00000000E+00  0.00000000E+00  0.00000000E+00
  0.00000000E+00  0.00000000E+00  0.00000000E+00
  0.00000000E+00  0.00000000E+00  0.00000000E+00
  0.00000000E+00  0.00000000E+00  0.00000000E+00
  0.00000000E+00  0.00000000E+00  0.00000000E+00
  0.00000000E+00  0.00000000E+00  0.00000000E+00
  0.00000000E+00  0.00000000E+00  0.00000000E+00
  0.00000000E+00  0.00000000E+00  0.00000000E+00
  0.00000000E+00  0.00000000E+00  0.00000000E+00
  0.00000000E+00  0.00000000E+00  0.00000000E+00
  0.00000000E+00  0.00000000E+00  0.00000000E+00
  0.00000000E+00  0.00000000E+00  0.00000000E+00
  0.00000000E+00  0.00000000E+00  0.00000000E+00
  0.00000000E+00  0.00000000E+00  0.00000000E+00
  0.00000000E+00  0.00000000E+00  0.00000000E+00
  0.00000000E+00  0.00000000E+00  0.00000000E+00
  0.00000000E+00  0.00000000E+00  0.00000000E+00
  0.00000000E+00  0.00000000E+00  0.00000000E+00
  0.00000000E+00  0.00000000E+00  0.00000000E+00
  0.00000000E+00  0.00000000E+00  0.00000000E+00
  0.00000000E+00  0.00000000E+00  0.00000000E+00
  0.00000000E+00  0.00000000E+00  0.00000000E+00
  0.00000000E+00  0.00000000E+00  0.00000000E+00
  0.00000000E+00  0.00000000E+00  0.00000000E+00
  0.00000000E+00  0.00000000E+00  0.00000000E+00
  0.00000000E+00  0.00000000E+00  0.00000000E+00
  0.00000000E+00  0.00000000E+00  0.00000000E+00
  0.00000000E+00  0.00000000E+00  0.00000000E+00
  0.00000000E+00  0.00000000E+00  0.00000000E+00
  0.00000000E+00  0.00000000E+00  0.00000000E+00
  0.00000000E+00  0.00000000E+00  0.00000000E+00
  0.00000000E+00  0.00000000E+00  0.00000000E+00
  0.00000000E+00  0.00000000E+00  0.00000000E+00
  0.00000000E+00  0.00000000E+00  0.00000000E+00
  0.00000000E+00  0.00000000E+00  0.00000000E+00
  0.00000000E+00  0.00000000E+00  0.00000000E+00
  0.00000000E+00  0.00000000E+00  0.00000000E+00
  0.00000000E+00  0.00000000E+00  0.00000000E+00
  0.00000000E+00  0.00000000E+00  0.00000000E+00
  0.00000000E+00  0.00000000E+00  0.00000000E+00
  0.00000000E+00  0.00000000E+00  0.00000000E+00
  0.00000000E+00  0.00000000E+00  0.00000000E+00
  0.00000000E+00  0.00000000E+00  0.00000000E+00
  0.00000000E+00  0.00000000E+00  0.00000000E+00
  0.00000000E+00  0.00000000E+00  0.00000000E+00
  0.00000000E+00  0.00000000E+00  0.00000000E+00
  0.00000000E+00  0.00000000E+00  0.00000000E+00
  0.00000000E+00  0.00000000E+00  0.00000000E+00
  0.00000000E+00  0.00000000E+00  0.00000000E+00
  0.00000000E+00  0.00000000E+00  0.00000000E+00
  0.00000000E+00  0.00000000E+00  0.00000000E+00
  0.00000000E+00  0.00000000E+00  0.00000000E+00
  0.00000000E+00  0.00000000E+00  0.00000000E+00
  0.00000000E+00  0.00000000E+00  0.00000000E+00
  0.00000000E+00  0.00000000E+00  0.00000000E+00
  0.00000000E+00  0.00000000E+00  0.00000000E+00
  0.00000000E+00  0.00000000E+00  0.00000000E+00
  0.00000000E+00  0.00000000E+00  0.00000000E+00
  0.00000000E+00  0.00000000E+00  0.00000000E+00
  0.00000000E+00  0.00000000E+00  0.00000000E+00
  0.00000000E+00  0.00000000E+00  0.00000000E+00
  0.00000000E+00  0.00000000E+00  0.00000000E+00
  0.00000000E+00  0.00000000E+00  0.00000000E+00
  0.00000000E+00  0.00000000E+00  0.00000000E+00
  0.00000000E+00  0.00000000E+00  0.00000000E+00
  0.00000000E+00  0.00000000E+00  0.00000000E+00
  0.00000000E+00  0.00000000E+00  0.00000000E+00
  0.00000000E+00  0.00000000E+00  0.00000000E+00
  0.00000000E+00  0.00000000E+00  0.00000000E+00
  0.00000000E+00  0.00000000E+00  0.00000000E+00
  0.00000000E+00  0.00000000E+00  0.00000000E+00
  0.00000000E+00  0.00000000E+00  0.00000000E+00
  0.00000000E+00  0.00000000E+00  0.00000000E+00
  0.00000000E+00  0.00000000E+00  0.00000000E+00
  0.00000000E+00  0.00000000E+00  0.00000000E+00
  0.00000000E+00  0.00000000E+00  0.00000000E+00
  0.00000000E+00  0.00000000E+00  0.00000000E+00
  0.00000000E+00  0.00000000E+00  0.00000000E+00
  0.00000000E+00  0.00000000E+00  0.00000000E+00
  0.00000000E+00  0.00000000E+00  0.00000000E+00
  0.00000000E+00  0.00000000E+00  0.00000000E+00
