SrTiFeO                                 
   1.00000000000000     
    11.1989999999999998    0.0000000000000000    0.0000000000000000
     0.0000000000000000   11.1989999999999998    0.0000000000000000
     0.0000000000000000    0.0000000000000000   15.9830000000000005
   Sr   Ti   Fe   O 
    32    31     1    94
Direct
  0.9994193349006562  0.2497784365882115  0.1249646263582555
  0.0022831800944037  0.2490803727787112  0.6242877797128596
  0.9980459193608241  0.7503229846862872  0.1259468181737128
  0.9974901538941623  0.7488174432061829  0.6226225577859233
  0.4988337360446756  0.2483253973408607  0.1240982063770757
  0.5010923747662028  0.2452044856160683  0.6255711605677831
  0.5009051747892604  0.7518788639978718  0.1240743579220378
  0.4994153235734599  0.7551659966589971  0.6288486616975473
  0.0014075097459346  0.2480302729731257  0.3756494801169206
  0.0001772133721586  0.2496870379274768  0.8750897615144659
  0.9979171831108746  0.7493553615221062  0.3772737523595777
  0.9983111498407069  0.7503134499588189  0.8744141163509643
  0.5011327522652810  0.2427107647810694  0.3754345638565598
  0.4995587053877035  0.2503779293071818  0.8742862725083573
  0.5003498073384430  0.7614643498436097  0.3718724458225110
  0.4996783197069089  0.7516628956619266  0.8765450748561282
  0.2489054381377176  0.9998887729455284  0.1251517092168802
  0.2488504154485959  0.0012619767325817  0.6248109823600987
  0.2482548123815453  0.5003140662270110  0.1238315524509438
  0.2454702883924729  0.4982344475905608  0.6263057387288220
  0.7495160828200458  0.9979934167703460  0.1252994948400369
  0.7499860918622987  0.9993091084323257  0.6231707321075587
  0.7510161393389537  0.5004973321537339  0.1240642015100288
  0.7588119884313792  0.4956918469790350  0.6295091635789514
  0.2481355605931225  0.0010977360961637  0.3753008418652912
  0.2492983874517904  0.0001695019183137  0.8749387372446052
  0.2409584193197860  0.4984655036827237  0.3733544450334854
  0.2502885145454119  0.5004294810157502  0.8751639336215736
  0.7507560786095915  0.9982451112125119  0.3768077682810698
  0.7501189141188668  0.9987322311684289  0.8748476658052118
  0.7633177683345136  0.4958298159275882  0.3721853871204507
  0.7502648574517266  0.5014536233940012  0.8754498228939634
  0.9993320411230076  0.9995693463351479  0.0002962298774687
  0.9996182379644669  0.9995527421494016  0.5003527784218106
 -0.0000455461553074  0.4997663130743326  0.9997786217182050
  1.0001796006248240  0.5004656685433597  0.5003210125672749
  0.4999515139161062  0.0003004719630151  0.9998607272774194
  0.4995471365452677  0.9983358768183568  0.5005962427102447
  0.4994495003079288  0.4996107824698652  0.9975415813667501
  0.2503192003585037  0.2505412707761056  0.0000281067839883
  0.2493067315526311  0.2488602923191930  0.4994277957122031
  0.2496645187029208  0.7498021065709698  0.0001661851551830
  0.2510018036200646  0.7513841878587287  0.4994927961740092
  0.7497014439320042  0.2500536899666037  0.9999709141977260
  0.7525194246414059  0.2505784511262295  0.4992690806878153
  0.7500181792935342  0.7503104146385582  0.0000475853938143
  0.2494523686904494  0.2491513845916232  0.2503311365371547
  0.2508989546743042  0.2503542935828491  0.7498852946616327
  0.2494213252770867  0.7497923508796019  0.2505266941878319
  0.2499555971993681  0.7496736144998249  0.7499293782700356
  0.7498807863690372  0.2487794918634927  0.2501834439283371
  0.7499491064385996  0.2495195014021202  0.7502718634166732
  0.7486333906721478  0.7480725136908382  0.2529176321516274
  0.7487233435078346  0.7487896785664870  0.7481527571187615
  0.9995113226089245  0.9992742196953535  0.2499870608779882
 -0.0000633477826449  0.9994632492054221  0.7492381296145098
  0.0005372679188730  0.4996821231087302  0.2487485146835431
  0.0011149140629370  0.4999150018513897  0.7507440800820123
  0.4995830381537669  0.0006334381675535  0.2493355982827352
  0.4999957437252246  0.0003796053192491  0.7505413968925664
  0.4994107428604339  0.4993960448880467  0.2449841638511946
  0.5015466585636352  0.5012358059628136  0.7500541065519182
  0.4929640050993763  0.4972853510756937  0.5030008939239320
  0.7534376455173777  0.7547710629173147  0.5006525019401520
  0.1091283504115128  0.1399738995802780  0.2455860634329349
  0.1098000030416979  0.1407365514832930  0.7516587475875824
  0.1097406228220544  0.6397936099206338  0.2500646984569876
  0.1094369212450413  0.6409751025164511  0.7496447273911654
  0.6090801544586842  0.1405917828472430  0.2488056454921370
  0.6088387486993475  0.1414764593352933  0.7507895584324571
  0.6063789693632482  0.6379709659362546  0.2514398420084371
  0.3910489155212751  0.3612874140605177  0.2585108519191864
  0.3923382930727198  0.3603950286076381  0.7457583819397287
  0.3893598331110130  0.8602661818565457  0.2486908502257734
  0.3902873420000174  0.8599048254651913  0.7511875551325295
  0.8890021824394772  0.3603413494031570  0.2511943081815018
  0.8906031394242104  0.3593865069615629  0.7482966964600973
  0.8890556711154589  0.8590623088988337  0.2533744661222694
  0.8896926633320591  0.8588463569130643  0.7459612729899570
  0.3598819317862963  0.1100815419299287  0.2486510591405702
  0.3595690354950445  0.1101840121009389  0.7510792451727963
  0.3605929991695120  0.6081978708470922  0.2567221505207329
  0.3593148327920687  0.6086864551218112  0.7487510001328354
  0.8587643481783316  0.1089168525095293  0.2478277867819899
  0.8584925391133437  0.1094194338655444  0.7481613871200009
  0.8603365143776263  0.6085512261429595  0.2471242296858120
  0.8602470980757095  0.6084396907566710  0.7518896013506252
  0.1400656564279732  0.3897904031975165  0.2481106206372286
  0.1415964411496494  0.3911642329282826  0.7515706235050492
  0.1396613103128391  0.8896515086946702  0.2485453712715107
  0.1407148039165444  0.8899608687312460  0.7500149845704810
  0.6379945471652011  0.3910560002710365  0.2581489300299527
  0.6387918406164793  0.8896331282188039  0.2515103767864235
  0.6400713778671236  0.8912145802859662  0.7489906547287642
  0.3585450717836074  0.3913226680078439  0.0003612656105982
  0.3591176000981253  0.8905203448499738  0.0003029339536989
  0.3553955760520575  0.8944046443730724  0.4999933510401539
  0.8590439106781971  0.3907794094248508  0.9999570432989411
  0.8647653521958587  0.3861952711996698  0.5005730844891454
  0.8591577564903795  0.8908391276664152  0.0009546581686218
  0.8638241427511774  0.8986737315057027  0.4998902378636398
  0.1404159096670348  0.1095731206916798  0.0003602082135532
  0.1411472774729879  0.1095304057984764  0.5011743942357343
  0.1407422036717312  0.6088119786327383  0.9998888861317684
  0.1440805940372825  0.6090320268927260  0.5001291421525401
  0.6409081175533370  0.1095194458362373  0.0007052336945822
  0.6367273159608967  0.1166673605641139  0.4999888740718275
  0.6397315207646299  0.6088645750208516  0.9993975413674280
  0.1091608624131863  0.3587452027158988  0.0002775974530429
  0.1110606354061772  0.3592617859237854  0.4997522831910918
  0.1095275002640560  0.8589448503515862  0.0003443981806593
  0.1095287921899854  0.8578645198929175  0.5007092884515320
  0.6088534837635446  0.3591208416079667  0.9991358413276441
  0.6089648808271196  0.8597202484365838  0.0000716601106832
  0.6023461299650485  0.8629061379116938  0.5014807038877296
  0.3909134596186312  0.1406794166266475  0.9998192713322304
  0.3901472212657048  0.1429141612361968  0.5004095159439005
  0.3909635675957596  0.6405781172885647  1.0002892850542835
  0.4027801913773871  0.6474257906946658  0.4934966269163024
  0.8904513999569407  0.1409029964285780  0.0011576552423485
  0.8906828316880391  0.1426308869905571  0.5022069621238618
  0.8906509464458567  0.6401895696972119  0.0006724269736385
  0.9984560862983274  0.9971121983804980  0.1246997466156496
  0.0030429616433032  0.0019705954929207  0.6258586879507233
  0.0005873384536991  0.4986884220726309  0.1244324516083485
  0.0032662300148386  0.4993502403903594  0.6260786479872232
  0.5004243131932218  0.9997407213061648  0.1246885226911088
  0.4979077817912456  0.0031392288836437  0.6262122293748353
  0.4985793617758814  0.4969159018629431  0.1244810488730907
  0.0030890722549996  0.0040584122187711  0.3741200072008861
  0.9977893303712950  0.9984919204782509  0.8748604512776773
  0.0020013034298706  0.4993032112187001  0.3738552368107015
  0.0003361325761897  0.4989411803859896  0.8753458276462402
  0.4983316986611657  0.0021199652157958  0.3742851001444379
  0.5005317901224295  0.0000870496639165  0.8754081065885451
  0.4955203883640140  0.4967889546896408  0.8752280721531263
  0.2435781165797951  0.2435831421710700  0.3731586768783610
  0.2523980652319684  0.2518030750963974  0.8751669104930753
  0.2474706110487628  0.7529819729466952  0.3749647814277313
  0.2503512318010839  0.7490019988025427  0.8750582829620047
  0.7540555120704110  0.2441190158355562  0.3746068001505868
  0.7517688789027555  0.2488654053486378  0.8751007001736255
  0.7441109127986457  0.7378927386504716  0.3738320222075354
  0.7526644024148780  0.7527962409128819  0.8759850459915525
  0.2545630112749722  0.2527823148704484  0.1251041040026893
  0.2497723368451056  0.2516907180252077  0.6255250851294939
  0.2517118484720692  0.7463898001303907  0.1255253247583638
  0.2534680709618233  0.7481706849530551  0.6243724721298237
  0.7475669443808911  0.2546312378228321  0.1256839888077037
  0.7433215524285574  0.2542528104367037  0.6243376095076448
  0.7477261994826777  0.7497156102464371  0.1252371795854928
  0.6416598693745299  0.3913965788140314  0.7525976548349698
  0.6080527574450766  0.6410653985474876  0.7584329553423818
  0.6210051497810416  0.3797309923218592  0.4884262816382858
  0.3564560519631843  0.3894307151903835  0.4911503756244003
  0.7384553479697750  0.7361030726116154  0.6270715441879480
  0.8887148520205789  0.6298865840835549  0.4997653926238231
  0.5152589039310818  0.5103367432929502  0.6249744992750823
 
  0.00000000E+00  0.00000000E+00  0.00000000E+00
  0.00000000E+00  0.00000000E+00  0.00000000E+00
  0.00000000E+00  0.00000000E+00  0.00000000E+00
  0.00000000E+00  0.00000000E+00  0.00000000E+00
  0.00000000E+00  0.00000000E+00  0.00000000E+00
  0.00000000E+00  0.00000000E+00  0.00000000E+00
  0.00000000E+00  0.00000000E+00  0.00000000E+00
  0.00000000E+00  0.00000000E+00  0.00000000E+00
  0.00000000E+00  0.00000000E+00  0.00000000E+00
  0.00000000E+00  0.00000000E+00  0.00000000E+00
  0.00000000E+00  0.00000000E+00  0.00000000E+00
  0.00000000E+00  0.00000000E+00  0.00000000E+00
  0.00000000E+00  0.00000000E+00  0.00000000E+00
  0.00000000E+00  0.00000000E+00  0.00000000E+00
  0.00000000E+00  0.00000000E+00  0.00000000E+00
  0.00000000E+00  0.00000000E+00  0.00000000E+00
  0.00000000E+00  0.00000000E+00  0.00000000E+00
  0.00000000E+00  0.00000000E+00  0.00000000E+00
  0.00000000E+00  0.00000000E+00  0.00000000E+00
  0.00000000E+00  0.00000000E+00  0.00000000E+00
  0.00000000E+00  0.00000000E+00  0.00000000E+00
  0.00000000E+00  0.00000000E+00  0.00000000E+00
  0.00000000E+00  0.00000000E+00  0.00000000E+00
  0.00000000E+00  0.00000000E+00  0.00000000E+00
  0.00000000E+00  0.00000000E+00  0.00000000E+00
  0.00000000E+00  0.00000000E+00  0.00000000E+00
  0.00000000E+00  0.00000000E+00  0.00000000E+00
  0.00000000E+00  0.00000000E+00  0.00000000E+00
  0.00000000E+00  0.00000000E+00  0.00000000E+00
  0.00000000E+00  0.00000000E+00  0.00000000E+00
  0.00000000E+00  0.00000000E+00  0.00000000E+00
  0.00000000E+00  0.00000000E+00  0.00000000E+00
  0.00000000E+00  0.00000000E+00  0.00000000E+00
  0.00000000E+00  0.00000000E+00  0.00000000E+00
  0.00000000E+00  0.00000000E+00  0.00000000E+00
  0.00000000E+00  0.00000000E+00  0.00000000E+00
  0.00000000E+00  0.00000000E+00  0.00000000E+00
  0.00000000E+00  0.00000000E+00  0.00000000E+00
  0.00000000E+00  0.00000000E+00  0.00000000E+00
  0.00000000E+00  0.00000000E+00  0.00000000E+00
  0.00000000E+00  0.00000000E+00  0.00000000E+00
  0.00000000E+00  0.00000000E+00  0.00000000E+00
  0.00000000E+00  0.00000000E+00  0.00000000E+00
  0.00000000E+00  0.00000000E+00  0.00000000E+00
  0.00000000E+00  0.00000000E+00  0.00000000E+00
  0.00000000E+00  0.00000000E+00  0.00000000E+00
  0.00000000E+00  0.00000000E+00  0.00000000E+00
  0.00000000E+00  0.00000000E+00  0.00000000E+00
  0.00000000E+00  0.00000000E+00  0.00000000E+00
  0.00000000E+00  0.00000000E+00  0.00000000E+00
  0.00000000E+00  0.00000000E+00  0.00000000E+00
  0.00000000E+00  0.00000000E+00  0.00000000E+00
  0.00000000E+00  0.00000000E+00  0.00000000E+00
  0.00000000E+00  0.00000000E+00  0.00000000E+00
  0.00000000E+00  0.00000000E+00  0.00000000E+00
  0.00000000E+00  0.00000000E+00  0.00000000E+00
  0.00000000E+00  0.00000000E+00  0.00000000E+00
  0.00000000E+00  0.00000000E+00  0.00000000E+00
  0.00000000E+00  0.00000000E+00  0.00000000E+00
  0.00000000E+00  0.00000000E+00  0.00000000E+00
  0.00000000E+00  0.00000000E+00  0.00000000E+00
  0.00000000E+00  0.00000000E+00  0.00000000E+00
  0.00000000E+00  0.00000000E+00  0.00000000E+00
  0.00000000E+00  0.00000000E+00  0.00000000E+00
  0.00000000E+00  0.00000000E+00  0.00000000E+00
  0.00000000E+00  0.00000000E+00  0.00000000E+00
  0.00000000E+00  0.00000000E+00  0.00000000E+00
  0.00000000E+00  0.00000000E+00  0.00000000E+00
  0.00000000E+00  0.00000000E+00  0.00000000E+00
  0.00000000E+00  0.00000000E+00  0.00000000E+00
  0.00000000E+00  0.00000000E+00  0.00000000E+00
  0.00000000E+00  0.00000000E+00  0.00000000E+00
  0.00000000E+00  0.00000000E+00  0.00000000E+00
  0.00000000E+00  0.00000000E+00  0.00000000E+00
  0.00000000E+00  0.00000000E+00  0.00000000E+00
  0.00000000E+00  0.00000000E+00  0.00000000E+00
  0.00000000E+00  0.00000000E+00  0.00000000E+00
  0.00000000E+00  0.00000000E+00  0.00000000E+00
  0.00000000E+00  0.00000000E+00  0.00000000E+00
  0.00000000E+00  0.00000000E+00  0.00000000E+00
  0.00000000E+00  0.00000000E+00  0.00000000E+00
  0.00000000E+00  0.00000000E+00  0.00000000E+00
  0.00000000E+00  0.00000000E+00  0.00000000E+00
  0.00000000E+00  0.00000000E+00  0.00000000E+00
  0.00000000E+00  0.00000000E+00  0.00000000E+00
  0.00000000E+00  0.00000000E+00  0.00000000E+00
  0.00000000E+00  0.00000000E+00  0.00000000E+00
  0.00000000E+00  0.00000000E+00  0.00000000E+00
  0.00000000E+00  0.00000000E+00  0.00000000E+00
  0.00000000E+00  0.00000000E+00  0.00000000E+00
  0.00000000E+00  0.00000000E+00  0.00000000E+00
  0.00000000E+00  0.00000000E+00  0.00000000E+00
  0.00000000E+00  0.00000000E+00  0.00000000E+00
  0.00000000E+00  0.00000000E+00  0.00000000E+00
  0.00000000E+00  0.00000000E+00  0.00000000E+00
  0.00000000E+00  0.00000000E+00  0.00000000E+00
  0.00000000E+00  0.00000000E+00  0.00000000E+00
  0.00000000E+00  0.00000000E+00  0.00000000E+00
  0.00000000E+00  0.00000000E+00  0.00000000E+00
  0.00000000E+00  0.00000000E+00  0.00000000E+00
  0.00000000E+00  0.00000000E+00  0.00000000E+00
  0.00000000E+00  0.00000000E+00  0.00000000E+00
  0.00000000E+00  0.00000000E+00  0.00000000E+00
  0.00000000E+00  0.00000000E+00  0.00000000E+00
  0.00000000E+00  0.00000000E+00  0.00000000E+00
  0.00000000E+00  0.00000000E+00  0.00000000E+00
  0.00000000E+00  0.00000000E+00  0.00000000E+00
  0.00000000E+00  0.00000000E+00  0.00000000E+00
  0.00000000E+00  0.00000000E+00  0.00000000E+00
  0.00000000E+00  0.00000000E+00  0.00000000E+00
  0.00000000E+00  0.00000000E+00  0.00000000E+00
  0.00000000E+00  0.00000000E+00  0.00000000E+00
  0.00000000E+00  0.00000000E+00  0.00000000E+00
  0.00000000E+00  0.00000000E+00  0.00000000E+00
  0.00000000E+00  0.00000000E+00  0.00000000E+00
  0.00000000E+00  0.00000000E+00  0.00000000E+00
  0.00000000E+00  0.00000000E+00  0.00000000E+00
  0.00000000E+00  0.00000000E+00  0.00000000E+00
  0.00000000E+00  0.00000000E+00  0.00000000E+00
  0.00000000E+00  0.00000000E+00  0.00000000E+00
  0.00000000E+00  0.00000000E+00  0.00000000E+00
  0.00000000E+00  0.00000000E+00  0.00000000E+00
  0.00000000E+00  0.00000000E+00  0.00000000E+00
  0.00000000E+00  0.00000000E+00  0.00000000E+00
  0.00000000E+00  0.00000000E+00  0.00000000E+00
  0.00000000E+00  0.00000000E+00  0.00000000E+00
  0.00000000E+00  0.00000000E+00  0.00000000E+00
  0.00000000E+00  0.00000000E+00  0.00000000E+00
  0.00000000E+00  0.00000000E+00  0.00000000E+00
  0.00000000E+00  0.00000000E+00  0.00000000E+00
  0.00000000E+00  0.00000000E+00  0.00000000E+00
  0.00000000E+00  0.00000000E+00  0.00000000E+00
  0.00000000E+00  0.00000000E+00  0.00000000E+00
  0.00000000E+00  0.00000000E+00  0.00000000E+00
  0.00000000E+00  0.00000000E+00  0.00000000E+00
  0.00000000E+00  0.00000000E+00  0.00000000E+00
  0.00000000E+00  0.00000000E+00  0.00000000E+00
  0.00000000E+00  0.00000000E+00  0.00000000E+00
  0.00000000E+00  0.00000000E+00  0.00000000E+00
  0.00000000E+00  0.00000000E+00  0.00000000E+00
  0.00000000E+00  0.00000000E+00  0.00000000E+00
  0.00000000E+00  0.00000000E+00  0.00000000E+00
  0.00000000E+00  0.00000000E+00  0.00000000E+00
  0.00000000E+00  0.00000000E+00  0.00000000E+00
  0.00000000E+00  0.00000000E+00  0.00000000E+00
  0.00000000E+00  0.00000000E+00  0.00000000E+00
  0.00000000E+00  0.00000000E+00  0.00000000E+00
  0.00000000E+00  0.00000000E+00  0.00000000E+00
  0.00000000E+00  0.00000000E+00  0.00000000E+00
  0.00000000E+00  0.00000000E+00  0.00000000E+00
  0.00000000E+00  0.00000000E+00  0.00000000E+00
  0.00000000E+00  0.00000000E+00  0.00000000E+00
  0.00000000E+00  0.00000000E+00  0.00000000E+00
  0.00000000E+00  0.00000000E+00  0.00000000E+00
  0.00000000E+00  0.00000000E+00  0.00000000E+00
  0.00000000E+00  0.00000000E+00  0.00000000E+00
  0.00000000E+00  0.00000000E+00  0.00000000E+00
  0.00000000E+00  0.00000000E+00  0.00000000E+00
