Sr   Ti   Fe   O                        
   1.00000000000000     
    11.1989999999999998    0.0000000000000000    0.0000000000000000
     0.0000000000000000   11.1989999999999998    0.0000000000000000
     0.0000000000000000    0.0000000000000000   15.9830000000000005
   Sr   Ti   Fe   O 
    32    31     1    94
Direct
  0.9997699242950490  0.2493355204138925  0.1252791189365292
  0.0005879148524755  0.2475814186518883  0.6240306675770657
  0.9984821994972016  0.7508652982763918  0.1260424833129548
  0.9961944238242171  0.7509491664447679  0.6231138224682869
  0.4991323785561798  0.2486816547778757  0.1251208672924975
  0.5017264249247841  0.2401818219861404  0.6227130609469299
  0.5009563279467202  0.7519053282047773  0.1250059748334715
  0.4999730971153880  0.7581791117568004  0.6261161666800544
  0.0004793850967910  0.2481820797371694  0.3764655457676110
  0.9998753330950432  0.2501012516304575  0.8749376763850067
  0.9948850664545362  0.7497240197007859  0.3791921452927746
  0.9995793378540072  0.7497163471780052  0.8747934789238484
  0.5005808280437294  0.2396335010766223  0.3741567935775733
  0.4993551428671976  0.2472711176858140  0.8752813095436229
  0.4986649239801064  0.7592440826888166  0.3721670887861784
  0.5013896189413415  0.7550309573036803  0.8766416883709309
  0.2497364380622594  0.0004755423275907  0.1248706432911321
  0.2484532885245256  0.0000628903549491  0.6236183408431378
  0.2481783627962972  0.5009097615567594  0.1254044119731768
  0.2397151308293618  0.4976244866228237  0.6255268804660117
  0.7492800080311707  0.9980995339446009  0.1252416821157881
  0.7511327057110969  0.9968439394364493  0.6218665663173647
  0.7513889509868480  0.5002884557156564  0.1252911645575127
  0.7668660195953988  0.4975838198534689  0.6284494188462724
  0.2474357031750041  0.0000458599009640  0.3751259588910423
  0.2496972237553055  0.0003572425172610  0.8744295407711420
  0.2413049252848714  0.4994860662395886  0.3759397753584559
  0.2478255284721120  0.5008747831406012  0.8763032496540475
  0.7511118895775238  0.9972593550543903  0.3764954868709434
  0.7515303685269531  0.9992213718986679  0.8749847429300476
  0.7609533857777940  0.4969802046260953  0.3732676419081434
  0.7531648936177351  0.5014051424271064  0.8755470464268277
  0.9998289614531410  1.0001240228967849  0.0000623856970256
  0.9984150408833231  0.9985965358830481  0.4998812528709403
  0.0000106835563052  0.4998114587776437  1.0003957996318660
  0.9991774835356745  0.5004074848551665  0.5000755745185564
  0.5000444041452302  0.0003700710656607  1.0000415483637224
  0.5000104300451734  0.9970640863584607  0.4996478930390722
  0.4995013274794401  0.4996885645412560  1.0028876896819965
  0.2507730632897729  0.2509851151572687  0.0001674193468798
  0.2486336428130279  0.2477470656020396  0.4999136927705699
  0.2505400708732975  0.7494543055712518 -0.0000350662490488
  0.2498070747306783  0.7501536725103839  0.4987862592213987
  0.7494189774529202  0.2506866884727852  0.9999629458173220
  0.7500655802614487  0.2495176264199615  0.4987448534274621
  0.7501752620795052  0.7499310137825674  0.0004209049860145
  0.2497681851324548  0.2503238673209770  0.2507592422905876
  0.2508515057965690  0.2504520381991987  0.7490680964281546
  0.2484326755271718  0.7501649818953118  0.2506083378521566
  0.2509701355596254  0.7500348018222609  0.7484699859155300
  0.7501704139036087  0.2486937876796644  0.2501811767138058
  0.7494344316892535  0.2496411728392179  0.7490816067033624
  0.7485153670899303  0.7481027663068740  0.2534123645352456
  0.7502332008071376  0.7510607696912848  0.7492897128337682
  0.9998008580112525  0.9995742485371009  0.2499243005284131
  1.0002199276198707  0.9997467339194855  0.7500865806333123
  0.0004354102333166  0.4996719536701771  0.2493850971578457
  0.0014350602492105  0.4998689634555317  0.7511939309034130
  0.4993389475677813 -0.0000034278338334  0.2492657581969336
  0.5004183248992985  0.0008400457836285  0.7503582034966263
  0.4999416029895587  0.5000489197180640  0.2496775876346323
  0.5020964303974870  0.5018899317895905  0.7579864715770080
  0.4958544211812726  0.4973957103541150  0.4968434793672549
  0.7488648092575595  0.7508903399201244  0.5026641258655340
  0.1101040433683211  0.1408819904179087  0.2478771525905941
  0.1109525840181337  0.1410573625047147  0.7531656239530319
  0.1093944614117711  0.6398551742599013  0.2491270235080724
  0.1127577215635305  0.6389731241038362  0.7495021452313502
  0.6095868073426296  0.1397485594035599  0.2478065355553640
  0.6088598902520028  0.1423738352694194  0.7508262722437424
  0.6068191287235316  0.6383421255728546  0.2511541387980082
  0.3915004902179013  0.3618645381533688  0.2581294756619608
  0.3939222015080557  0.3652912536661908  0.7359527685242879
  0.3890699011042785  0.8602594835702109  0.2483180107619088
  0.3897650476077468  0.8615875651856506  0.7515171580300226
  0.8895755463017174  0.3599045160303313  0.2503125055897092
  0.8899546643995794  0.3603602250954485  0.7489820783549234
  0.8888986157442562  0.8592799002864219  0.2526278597091565
  0.8920685749284254  0.8613575029112417  0.7535604237593275
  0.3600296218740906  0.1108453996711053  0.2490520966104043
  0.3609576353009884  0.1122478517697629  0.7510762851482635
  0.3605135578482709  0.6089932133763203  0.2576218208229012
  0.3656162376417315  0.6088331703969856  0.7392140543146245
  0.8595618102064412  0.1089831896669125  0.2459683869036919
  0.8590008551132887  0.1108617742708417  0.7487742025073553
  0.8600476699215187  0.6082750380117419  0.2483014312082501
  0.8631541343965397  0.6107177373398134  0.7528161592735574
  0.1405285377250183  0.3904902574104773  0.2485185065537966
  0.1417036456265069  0.3904282937351498  0.7527902167187147
  0.1396379981069751  0.8905823848579828  0.2456442917320882
  0.1415305399312342  0.8895565857916387  0.7505956399720426
  0.6391396367741007  0.3906634379926234  0.2573562360068425
  0.6385456477341417  0.8893727564409726  0.2507562221370404
  0.6398480798115694  0.8923917719717022  0.7515966350064776
  0.3583967751246306  0.3926794606612151  0.0010543028395095
  0.3593088006388892  0.8905040269311404 -0.0007667310887954
  0.3565732898177268  0.8913284441561257  0.4996193182985301
  0.8587985350062450  0.3911595460286785  0.9996846085890615
  0.8621394648008138  0.3852439027507019  0.4988763846239055
  0.8597681378229377  0.8907332853568188  0.0008553054512863
  0.8654343211466606  0.8952345965782001  0.4973827371078197
  0.1414707480327351  0.1108090222242306 -0.0002989564435755
  0.1406622604903803  0.1097100912102158  0.4994691481992306
  0.1410544391381864  0.6088351488546392  0.9996863722227062
  0.1391548067379864  0.6103617238806326  0.4996195916853227
  0.6409828467890539  0.1097984190613719 -0.0000678620815033
  0.6385783227055474  0.1111124114977468  0.4996362153270509
  0.6397872099765195  0.6076127674678956  0.9988492064468605
  0.1093832581881600  0.3588986794759108 -0.0003469713872018
  0.1111605846845180  0.3592470813210917  0.4998466661021262
  0.1107160187572665  0.8589351107322259 -0.0009897082072633
  0.1095955252911644  0.8594636086145695  0.5009509834783906
  0.6074878185923063  0.3591632909214724  0.9989519508633674
  0.6091269814277344  0.8598452782529918  0.0006167528546697
  0.6012634328666038  0.8617954457462021  0.4998105295586927
  0.3911985476910684  0.1413187803390227  1.0003262046387664
  0.3889182508218971  0.1406818849283382  0.4999648787656718
  0.3924802547869878  0.6406648794511519 -0.0001442387668729
  0.3872974265259934  0.6381624916395440  0.4868857969182573
  0.8898549796908582  0.1415760025508415 -0.0002359797083250
  0.8902968842217465  0.1406364363177083  0.5016898054974869
  0.8909225037971092  0.6401332506793259  0.0005217319280876
  0.9998997487251730  0.9993092393719210  0.1238288525081436
  0.0019812004904363  0.0007673118683066  0.6265210537677601
  0.0004364136787191  0.4986985362034458  0.1244522338368796
  0.0046495805450059  0.4970637518033368  0.6264645725473897
  0.4995192478183387 -0.0002886899228719  0.1244098658131591
  0.4984845071360380  0.0031133163523321  0.6260172832087746
  0.4990473915451059  0.4974663426451394  0.1249835086124612
  0.0029128839458724  0.0032626931215658  0.3732459545107856
  1.0001122009595640  0.0015035287630613  0.8757429328894172
  0.0015762993312044  0.4987834832512521  0.3739153524042900
  0.0004730281960650  0.4992694434699961  0.8756771363445663
  0.4977217762986447  0.0017284308320734  0.3736294412923603
  0.4999560465065166  0.0012400147934140  0.8756766206859967
  0.4934922728849019  0.4950444361311338  0.8742168739529361
  0.2478269824316197  0.2493207816560757  0.3746787499885270
  0.2575433752894175  0.2552948478645458  0.8743402347431330
  0.2424590516051601  0.7570598759175901  0.3734131522562534
  0.2542306009895211  0.7444585652304669  0.8736290371821330
  0.7553243247910386  0.2418534400653614  0.3735648189298847
  0.7481818440399235  0.2535724219392626  0.8738328969167207
  0.7427788611562427  0.7385437770746234  0.3742385271406538
  0.7505231039824702  0.7511854799421360  0.8770164256560643
  0.2542564093739084  0.2532951371088115  0.1253138321190350
  0.2450515729165456  0.2468311396928855  0.6255181216292618
  0.2524853757798118  0.7456978927013082  0.1246632211384236
  0.2517718712711358  0.7497638989850183  0.6236647740742832
  0.7472905066770349  0.2548740272862892  0.1247698895327214
  0.7455670112967382  0.2516972140480541  0.6237833913219383
  0.7478231017100775  0.7483772717051439  0.1251511261532377
  0.6388119710415212  0.3943331802237660  0.7441473014068841
  0.6094803863686175  0.6406262456056183  0.7550250466723328
  0.6102156141927161  0.3623816298244188  0.4874643741634131
  0.3588625585595254  0.3896751267969749  0.5016061217644560
  0.7543637638276673  0.7548617319155823  0.6304507253197090
  0.8879560158369459  0.6281757848536368  0.5019199906059326
  0.5858633346226849  0.5749148144742190  0.5764092718689933
 
  0.00000000E+00  0.00000000E+00  0.00000000E+00
  0.00000000E+00  0.00000000E+00  0.00000000E+00
  0.00000000E+00  0.00000000E+00  0.00000000E+00
  0.00000000E+00  0.00000000E+00  0.00000000E+00
  0.00000000E+00  0.00000000E+00  0.00000000E+00
  0.00000000E+00  0.00000000E+00  0.00000000E+00
  0.00000000E+00  0.00000000E+00  0.00000000E+00
  0.00000000E+00  0.00000000E+00  0.00000000E+00
  0.00000000E+00  0.00000000E+00  0.00000000E+00
  0.00000000E+00  0.00000000E+00  0.00000000E+00
  0.00000000E+00  0.00000000E+00  0.00000000E+00
  0.00000000E+00  0.00000000E+00  0.00000000E+00
  0.00000000E+00  0.00000000E+00  0.00000000E+00
  0.00000000E+00  0.00000000E+00  0.00000000E+00
  0.00000000E+00  0.00000000E+00  0.00000000E+00
  0.00000000E+00  0.00000000E+00  0.00000000E+00
  0.00000000E+00  0.00000000E+00  0.00000000E+00
  0.00000000E+00  0.00000000E+00  0.00000000E+00
  0.00000000E+00  0.00000000E+00  0.00000000E+00
  0.00000000E+00  0.00000000E+00  0.00000000E+00
  0.00000000E+00  0.00000000E+00  0.00000000E+00
  0.00000000E+00  0.00000000E+00  0.00000000E+00
  0.00000000E+00  0.00000000E+00  0.00000000E+00
  0.00000000E+00  0.00000000E+00  0.00000000E+00
  0.00000000E+00  0.00000000E+00  0.00000000E+00
  0.00000000E+00  0.00000000E+00  0.00000000E+00
  0.00000000E+00  0.00000000E+00  0.00000000E+00
  0.00000000E+00  0.00000000E+00  0.00000000E+00
  0.00000000E+00  0.00000000E+00  0.00000000E+00
  0.00000000E+00  0.00000000E+00  0.00000000E+00
  0.00000000E+00  0.00000000E+00  0.00000000E+00
  0.00000000E+00  0.00000000E+00  0.00000000E+00
  0.00000000E+00  0.00000000E+00  0.00000000E+00
  0.00000000E+00  0.00000000E+00  0.00000000E+00
  0.00000000E+00  0.00000000E+00  0.00000000E+00
  0.00000000E+00  0.00000000E+00  0.00000000E+00
  0.00000000E+00  0.00000000E+00  0.00000000E+00
  0.00000000E+00  0.00000000E+00  0.00000000E+00
  0.00000000E+00  0.00000000E+00  0.00000000E+00
  0.00000000E+00  0.00000000E+00  0.00000000E+00
  0.00000000E+00  0.00000000E+00  0.00000000E+00
  0.00000000E+00  0.00000000E+00  0.00000000E+00
  0.00000000E+00  0.00000000E+00  0.00000000E+00
  0.00000000E+00  0.00000000E+00  0.00000000E+00
  0.00000000E+00  0.00000000E+00  0.00000000E+00
  0.00000000E+00  0.00000000E+00  0.00000000E+00
  0.00000000E+00  0.00000000E+00  0.00000000E+00
  0.00000000E+00  0.00000000E+00  0.00000000E+00
  0.00000000E+00  0.00000000E+00  0.00000000E+00
  0.00000000E+00  0.00000000E+00  0.00000000E+00
  0.00000000E+00  0.00000000E+00  0.00000000E+00
  0.00000000E+00  0.00000000E+00  0.00000000E+00
  0.00000000E+00  0.00000000E+00  0.00000000E+00
  0.00000000E+00  0.00000000E+00  0.00000000E+00
  0.00000000E+00  0.00000000E+00  0.00000000E+00
  0.00000000E+00  0.00000000E+00  0.00000000E+00
  0.00000000E+00  0.00000000E+00  0.00000000E+00
  0.00000000E+00  0.00000000E+00  0.00000000E+00
  0.00000000E+00  0.00000000E+00  0.00000000E+00
  0.00000000E+00  0.00000000E+00  0.00000000E+00
  0.00000000E+00  0.00000000E+00  0.00000000E+00
  0.00000000E+00  0.00000000E+00  0.00000000E+00
  0.00000000E+00  0.00000000E+00  0.00000000E+00
  0.00000000E+00  0.00000000E+00  0.00000000E+00
  0.00000000E+00  0.00000000E+00  0.00000000E+00
  0.00000000E+00  0.00000000E+00  0.00000000E+00
  0.00000000E+00  0.00000000E+00  0.00000000E+00
  0.00000000E+00  0.00000000E+00  0.00000000E+00
  0.00000000E+00  0.00000000E+00  0.00000000E+00
  0.00000000E+00  0.00000000E+00  0.00000000E+00
  0.00000000E+00  0.00000000E+00  0.00000000E+00
  0.00000000E+00  0.00000000E+00  0.00000000E+00
  0.00000000E+00  0.00000000E+00  0.00000000E+00
  0.00000000E+00  0.00000000E+00  0.00000000E+00
  0.00000000E+00  0.00000000E+00  0.00000000E+00
  0.00000000E+00  0.00000000E+00  0.00000000E+00
  0.00000000E+00  0.00000000E+00  0.00000000E+00
  0.00000000E+00  0.00000000E+00  0.00000000E+00
  0.00000000E+00  0.00000000E+00  0.00000000E+00
  0.00000000E+00  0.00000000E+00  0.00000000E+00
  0.00000000E+00  0.00000000E+00  0.00000000E+00
  0.00000000E+00  0.00000000E+00  0.00000000E+00
  0.00000000E+00  0.00000000E+00  0.00000000E+00
  0.00000000E+00  0.00000000E+00  0.00000000E+00
  0.00000000E+00  0.00000000E+00  0.00000000E+00
  0.00000000E+00  0.00000000E+00  0.00000000E+00
  0.00000000E+00  0.00000000E+00  0.00000000E+00
  0.00000000E+00  0.00000000E+00  0.00000000E+00
  0.00000000E+00  0.00000000E+00  0.00000000E+00
  0.00000000E+00  0.00000000E+00  0.00000000E+00
  0.00000000E+00  0.00000000E+00  0.00000000E+00
  0.00000000E+00  0.00000000E+00  0.00000000E+00
  0.00000000E+00  0.00000000E+00  0.00000000E+00
  0.00000000E+00  0.00000000E+00  0.00000000E+00
  0.00000000E+00  0.00000000E+00  0.00000000E+00
  0.00000000E+00  0.00000000E+00  0.00000000E+00
  0.00000000E+00  0.00000000E+00  0.00000000E+00
  0.00000000E+00  0.00000000E+00  0.00000000E+00
  0.00000000E+00  0.00000000E+00  0.00000000E+00
  0.00000000E+00  0.00000000E+00  0.00000000E+00
  0.00000000E+00  0.00000000E+00  0.00000000E+00
  0.00000000E+00  0.00000000E+00  0.00000000E+00
  0.00000000E+00  0.00000000E+00  0.00000000E+00
  0.00000000E+00  0.00000000E+00  0.00000000E+00
  0.00000000E+00  0.00000000E+00  0.00000000E+00
  0.00000000E+00  0.00000000E+00  0.00000000E+00
  0.00000000E+00  0.00000000E+00  0.00000000E+00
  0.00000000E+00  0.00000000E+00  0.00000000E+00
  0.00000000E+00  0.00000000E+00  0.00000000E+00
  0.00000000E+00  0.00000000E+00  0.00000000E+00
  0.00000000E+00  0.00000000E+00  0.00000000E+00
  0.00000000E+00  0.00000000E+00  0.00000000E+00
  0.00000000E+00  0.00000000E+00  0.00000000E+00
  0.00000000E+00  0.00000000E+00  0.00000000E+00
  0.00000000E+00  0.00000000E+00  0.00000000E+00
  0.00000000E+00  0.00000000E+00  0.00000000E+00
  0.00000000E+00  0.00000000E+00  0.00000000E+00
  0.00000000E+00  0.00000000E+00  0.00000000E+00
  0.00000000E+00  0.00000000E+00  0.00000000E+00
  0.00000000E+00  0.00000000E+00  0.00000000E+00
  0.00000000E+00  0.00000000E+00  0.00000000E+00
  0.00000000E+00  0.00000000E+00  0.00000000E+00
  0.00000000E+00  0.00000000E+00  0.00000000E+00
  0.00000000E+00  0.00000000E+00  0.00000000E+00
  0.00000000E+00  0.00000000E+00  0.00000000E+00
  0.00000000E+00  0.00000000E+00  0.00000000E+00
  0.00000000E+00  0.00000000E+00  0.00000000E+00
  0.00000000E+00  0.00000000E+00  0.00000000E+00
  0.00000000E+00  0.00000000E+00  0.00000000E+00
  0.00000000E+00  0.00000000E+00  0.00000000E+00
  0.00000000E+00  0.00000000E+00  0.00000000E+00
  0.00000000E+00  0.00000000E+00  0.00000000E+00
  0.00000000E+00  0.00000000E+00  0.00000000E+00
  0.00000000E+00  0.00000000E+00  0.00000000E+00
  0.00000000E+00  0.00000000E+00  0.00000000E+00
  0.00000000E+00  0.00000000E+00  0.00000000E+00
  0.00000000E+00  0.00000000E+00  0.00000000E+00
  0.00000000E+00  0.00000000E+00  0.00000000E+00
  0.00000000E+00  0.00000000E+00  0.00000000E+00
  0.00000000E+00  0.00000000E+00  0.00000000E+00
  0.00000000E+00  0.00000000E+00  0.00000000E+00
  0.00000000E+00  0.00000000E+00  0.00000000E+00
  0.00000000E+00  0.00000000E+00  0.00000000E+00
  0.00000000E+00  0.00000000E+00  0.00000000E+00
  0.00000000E+00  0.00000000E+00  0.00000000E+00
  0.00000000E+00  0.00000000E+00  0.00000000E+00
  0.00000000E+00  0.00000000E+00  0.00000000E+00
  0.00000000E+00  0.00000000E+00  0.00000000E+00
  0.00000000E+00  0.00000000E+00  0.00000000E+00
  0.00000000E+00  0.00000000E+00  0.00000000E+00
  0.00000000E+00  0.00000000E+00  0.00000000E+00
  0.00000000E+00  0.00000000E+00  0.00000000E+00
  0.00000000E+00  0.00000000E+00  0.00000000E+00
  0.00000000E+00  0.00000000E+00  0.00000000E+00
  0.00000000E+00  0.00000000E+00  0.00000000E+00
  0.00000000E+00  0.00000000E+00  0.00000000E+00
  0.00000000E+00  0.00000000E+00  0.00000000E+00
  0.00000000E+00  0.00000000E+00  0.00000000E+00
