Sr   Ti   O                             
   1.00000000000000     
    11.1989999999999998    0.0000000000000000    0.0000000000000000
     0.0000000000000000   11.1989999999999998    0.0000000000000000
     0.0000000000000000    0.0000000000000000   15.9830000000000005
   Sr   Ti   O 
    32    32    94
Direct
  0.0014786946791876  0.2503293204182379  0.1237208708769429
  0.0025245536716677  0.2497585671548166  0.6245025355987386
  0.9985819811015917  0.7503526183947683  0.1252222105355322
  0.0020792264453128  0.7489874537219322  0.6250733095723406
  0.4980602261455931  0.2500036556951017  0.1233902223415309
  0.4925163582533573  0.2445630538641752  0.6298582144412025
  0.4991567727445258  0.7488502406929707  0.1239279346397499
  0.4989337923431201  0.7573910026689977  0.6302506417886299
  0.0088028466143134  0.2498930582448595  0.3759371553986695
 -0.0009429674933848  0.2503325716901206  0.8749613675699662
  0.0043924804977605  0.7495354503710999  0.3741808748317217
  0.9984521947935020  0.7499582287699119  0.8744890349357005
  0.4866316307913601  0.2433538027179900  0.3710427026322617
  0.4991535649525856  0.2511522415640430  0.8756322527647520
  0.4978105557845813  0.7560459012014616  0.3692477237927301
  0.4982282196531367  0.7495908953461254  0.8764367838950314
  0.2494957013706808  0.9991482022918911  0.1249182979895627
  0.2483924725573929  0.9998498068724855  0.6253321896718644
  0.2502838131639740  0.5001698790250599  0.1241496159812254
  0.2476751403028921  0.4977912593981746  0.6292921080077116
  0.7493643953640237  0.9978328591342918  0.1243256748922647
  0.7483957286984889  0.0018491213939564  0.6245088240147134
  0.7487972256838213  0.5017520916718284  0.1232016847119084
  0.7567466993377594  0.4972802357841149  0.6332735842378738
  0.2489995652453489  0.9985396657157353  0.3747821504511295
  0.2491694180213065  0.9991291418476838  0.8751341980363037
  0.2484051709266799  0.4986917253400606  0.3712077540868758
  0.2498492410725187  0.5000133622893213  0.8766130962867099
  0.7473444515936953  0.9948647780688347  0.3761246379980677
  0.7489349804736738  0.9997486724974398  0.8744622837123843
  0.7609500964480562  0.5033782483521551  0.3683583219764861
  0.7488286664988644  0.5009117302034536  0.8761265026059382
  0.9986616877906010 -0.0001678798899200  0.9999508283886335
 -0.0011370358326451 -0.0000562970439136  0.4996834162655647
  0.9993955468891393  0.4995763873220231  0.0000753176985706
  1.0048768592121711  0.5017860120733993  0.4990397631658556
  0.4999981294692654  0.0002979366326134  1.0000302088738589
  0.4984514417593428  1.0001255131869018  0.4992548039959895
  0.4993780761566255  0.4994229227531960  1.0001423542124939
  0.2492518987652165  0.2492079961588896  0.9998151433408118
  0.2494754961844134  0.2463900981210046  0.5006763988549117
  0.2488774682135235  0.7502768429974420  0.0001774994769478
  0.2509107747552254  0.7520498286230949  0.5004531803889177
  0.7501219266743547  0.2497237187795026  0.9974518743736774
  0.7495419907190266  0.7507013946215584  0.9997622228257236
  0.2490005583723760  0.2493604822881504  0.2480896360395811
  0.2486752798333198  0.2495081727586684  0.7515510274080486
  0.2496837010048268  0.7498335341413839  0.2480343708379468
  0.2490925849661305  0.7498629658118335  0.7505370048337581
  0.7498418290049674  0.2497073512407585  0.2457387093321838
  0.7485845025599818  0.2503306813448631  0.7494367100519463
  0.7491731910336068  0.7489100491166384  0.2494498133522888
  0.7485650844716263  0.7491027759668991  0.7501779306169574
  0.9991346341260092  0.9998478385795500  0.2512980863695473
  0.9985481772637763  1.0000713597399895  0.7491519977227887
  0.0013488765297586  0.5000483214797020  0.2492085590819667
  1.0002749942212015  0.4994807390957882  0.7511580040542944
  0.4996629493750587  0.9999652906942805  0.2494748056783890
  0.4998018302765572  0.0008471093642789  0.7510516650133711
  0.4995174153032370  0.4994291205762189  0.2507042380703202
  0.4988081426181210  0.5003062340790473  0.7505838181333192
  0.7562174131740621  0.2546703487528298  0.4997083241170531
  0.4894768815985494  0.5051142727678370  0.5002890874761883
  0.7556902720001445  0.7515539687388730  0.5004902780421656
  0.1096162352400396  0.1389862890457668  0.2488075762129862
  0.1081954630636269  0.1401815328145814  0.7510583937031332
  0.1111206453071173  0.6396474021148689  0.2468470864345193
  0.1096389034364337  0.6395956953453464  0.7490864428547415
  0.6125580870750358  0.1400914816007944  0.2571787196235620
  0.6087881400329527  0.1410629484206257  0.7521935677453845
  0.6101735059769440  0.6376668412137889  0.2470736898344416
  0.6082576940321005  0.6398081042047198  0.7540258216749148
  0.3882037578946856  0.3601656635299704  0.2480669687562403
  0.3886515912189384  0.3595145994903083  0.7514722218225134
  0.3887313819507389  0.8611738534722492  0.2463655168162610
  0.3888434479973591  0.8617206701094368  0.7502767512713920
  0.8871352649427714  0.3602093479589600  0.2589337228053530
  0.8890891543033685  0.3600993518167366  0.7489673840397668
  0.8867313015826997  0.8604288463066048  0.2546806738921378
  0.8874750122921110  0.8594939404095805  0.7445585301591453
  0.3611762119532967  0.1116035952099614  0.2498834825923167
  0.3596105048950686  0.1103858393428404  0.7492225343882433
  0.3600743877776212  0.6108207689332226  0.2466297820609687
  0.3585086005466848  0.6105475397524719  0.7529755559121358
  0.8585480339980591  0.1122605383324055  0.2593926017016322
  0.8578546865750667  0.1096499512301738  0.7472756598221231
  0.8621728807493506  0.6117719143957338  0.2468393506053756
  0.8609086963825833  0.6110642565275342  0.7526298915694012
  0.1390861846243619  0.3885239994422151  0.2484610723938033
  0.1396294878785212  0.3897072347773559  0.7517103057312392
  0.1383861203327417  0.8888221741647067  0.2479858991912282
  0.1382694786754679  0.8894694976348220  0.7500957581188947
  0.6394748876687614  0.3870410320594694  0.2570647603372054
  0.6383814706578166  0.3912071796558386  0.7538566427535403
  0.6385924852699645  0.8883318045650429  0.2521553115679184
  0.6395129202915847  0.8898412839870068  0.7474272746951162
  0.3589320723061981  0.3895299194627286  0.0008679520309186
  0.3593652031727413  0.8906802053639873  0.0008741198951459
  0.3570437713389805  0.8941649820471085  0.5018936796894163
  0.8584198116150467  0.3904671402041124  0.9997888879664394
  0.8582151756408163  0.8911491544978819  1.0001478452048602
  0.8614048376276178  0.8932468287832673  0.5012289962998252
  0.1394157356966699  0.1080772193622364  0.0004896131698943
  0.1396036843575893  0.1102982806014497  0.4997940495449390
  0.1395565327761540  0.6092070770559350  0.0008987053636356
  0.1533131139910006  0.6059176227615496  0.5012093804054263
  0.6413033111612845  0.1095156377947165  0.9996241768271579
  0.6278261389212018  0.1349009983623442  0.4875568935306004
  0.6398806029064109  0.6100004043952484  1.0000547154556261
  0.1090563268038719  0.3586291666698815  0.9997025014351353
  0.1199227314761532  0.3625766229994789  0.4999867421129676
  0.1077867000766912  0.8599268891163881  0.0008179523704730
  0.1109088424263894  0.8558935527516881  0.5010364435111673
  0.6097143482832600  0.3588627500186997  0.9995814629411941
  0.6088660301644412  0.8595098874875491  0.0005864277471282
  0.6099527879891654  0.8682963120666938  0.4994811158395664
  0.3905120979375503  0.1403252241869750  1.0001228965790279
  0.3850298025374194  0.1372758946854539  0.5008893735024558
  0.3895107715446868  0.6398820943100947  0.0012496087908963
  0.8908669138996292  0.1413217636330401  0.0002126439894862
  0.8901484379875300  0.1357945349305716  0.4943401202153174
  0.8896419784826334  0.6405222749600207  0.0005283157545072
  0.9930574433838230  0.0009224985060776  0.1264805620155686
  1.0023474114481854  0.0021613134485321  0.6247296171463683
  0.9973766631270056  0.4948416914458127  0.1252448982971534
  1.0001195605568123  0.4968067906950918  0.6246838165586099
  0.5038986984706828  0.0038543047441120  0.1257379611608547
  0.5045333068832564  0.0061095339956861  0.6245333681711637
  0.5027034300695070  0.4960429861987016  0.1251454287681374
  0.4938309577532325  0.5018101880533735  0.6265948996014193
  0.0071849041901716  0.9951615491611060  0.3748541292229789
  0.9961247414546750  0.9983804917580608  0.8744368173134380
  0.0097433885244438  0.5067178352126062  0.3733714531366892
 -0.0001022799417172  0.4994326858515487  0.8753676710915289
  0.4933813402319761  0.9972326897277515  0.3740911925148651
  0.5000418426441516  0.9991340064703984  0.8751010700377478
  0.4971262629446252  0.4995837401312939  0.8765947594462257
  0.2503461778381956  0.2500567068037091  0.3743014954687919
  0.2494531571891395  0.2480385153052574  0.8755684113264585
  0.2523718766364990  0.7496559907799586  0.3744424092999432
  0.2483190010515314  0.7510624270550432  0.8756603726765926
  0.7520498344602713  0.2489762904058742  0.8748669758995180
  0.7502652215224265  0.7528594857331687  0.8747728149049584
  0.2489270962178621  0.2481278553663692  0.1244023712739391
  0.2488851834619604  0.2503053005817547  0.6259564996666620
  0.2490022098767875  0.7508618049993808  0.1240259481819867
  0.2525717209278329  0.7489107671072316  0.6255465568872138
  0.7506920022246787  0.2501113683402479  0.1254256881188713
  0.7410146999722427  0.2569314589352041  0.6257972915648990
  0.7498952261948963  0.7523830449562627  0.1252849328462482
  0.7387776988367906  0.7344434681888781  0.6236160686869211
  0.8750939920578304  0.3821065782468792  0.4880630366185780
  0.4103573792973523  0.6553968962767662  0.5006698613568205
  0.4902494949051469  0.5038913808123283  0.3745937357905209
  0.3765253986529050  0.3786575198578724  0.5006237774747131
  0.8985302547718633  0.6368630907143713  0.4994958696612277
  0.7403723444071287  0.7365071212918597  0.3764880408247708
  0.6538341736305217  0.4856128063678051  0.4999347873562187
 
  0.00000000E+00  0.00000000E+00  0.00000000E+00
  0.00000000E+00  0.00000000E+00  0.00000000E+00
  0.00000000E+00  0.00000000E+00  0.00000000E+00
  0.00000000E+00  0.00000000E+00  0.00000000E+00
  0.00000000E+00  0.00000000E+00  0.00000000E+00
  0.00000000E+00  0.00000000E+00  0.00000000E+00
  0.00000000E+00  0.00000000E+00  0.00000000E+00
  0.00000000E+00  0.00000000E+00  0.00000000E+00
  0.00000000E+00  0.00000000E+00  0.00000000E+00
  0.00000000E+00  0.00000000E+00  0.00000000E+00
  0.00000000E+00  0.00000000E+00  0.00000000E+00
  0.00000000E+00  0.00000000E+00  0.00000000E+00
  0.00000000E+00  0.00000000E+00  0.00000000E+00
  0.00000000E+00  0.00000000E+00  0.00000000E+00
  0.00000000E+00  0.00000000E+00  0.00000000E+00
  0.00000000E+00  0.00000000E+00  0.00000000E+00
  0.00000000E+00  0.00000000E+00  0.00000000E+00
  0.00000000E+00  0.00000000E+00  0.00000000E+00
  0.00000000E+00  0.00000000E+00  0.00000000E+00
  0.00000000E+00  0.00000000E+00  0.00000000E+00
  0.00000000E+00  0.00000000E+00  0.00000000E+00
  0.00000000E+00  0.00000000E+00  0.00000000E+00
  0.00000000E+00  0.00000000E+00  0.00000000E+00
  0.00000000E+00  0.00000000E+00  0.00000000E+00
  0.00000000E+00  0.00000000E+00  0.00000000E+00
  0.00000000E+00  0.00000000E+00  0.00000000E+00
  0.00000000E+00  0.00000000E+00  0.00000000E+00
  0.00000000E+00  0.00000000E+00  0.00000000E+00
  0.00000000E+00  0.00000000E+00  0.00000000E+00
  0.00000000E+00  0.00000000E+00  0.00000000E+00
  0.00000000E+00  0.00000000E+00  0.00000000E+00
  0.00000000E+00  0.00000000E+00  0.00000000E+00
  0.00000000E+00  0.00000000E+00  0.00000000E+00
  0.00000000E+00  0.00000000E+00  0.00000000E+00
  0.00000000E+00  0.00000000E+00  0.00000000E+00
  0.00000000E+00  0.00000000E+00  0.00000000E+00
  0.00000000E+00  0.00000000E+00  0.00000000E+00
  0.00000000E+00  0.00000000E+00  0.00000000E+00
  0.00000000E+00  0.00000000E+00  0.00000000E+00
  0.00000000E+00  0.00000000E+00  0.00000000E+00
  0.00000000E+00  0.00000000E+00  0.00000000E+00
  0.00000000E+00  0.00000000E+00  0.00000000E+00
  0.00000000E+00  0.00000000E+00  0.00000000E+00
  0.00000000E+00  0.00000000E+00  0.00000000E+00
  0.00000000E+00  0.00000000E+00  0.00000000E+00
  0.00000000E+00  0.00000000E+00  0.00000000E+00
  0.00000000E+00  0.00000000E+00  0.00000000E+00
  0.00000000E+00  0.00000000E+00  0.00000000E+00
  0.00000000E+00  0.00000000E+00  0.00000000E+00
  0.00000000E+00  0.00000000E+00  0.00000000E+00
  0.00000000E+00  0.00000000E+00  0.00000000E+00
  0.00000000E+00  0.00000000E+00  0.00000000E+00
  0.00000000E+00  0.00000000E+00  0.00000000E+00
  0.00000000E+00  0.00000000E+00  0.00000000E+00
  0.00000000E+00  0.00000000E+00  0.00000000E+00
  0.00000000E+00  0.00000000E+00  0.00000000E+00
  0.00000000E+00  0.00000000E+00  0.00000000E+00
  0.00000000E+00  0.00000000E+00  0.00000000E+00
  0.00000000E+00  0.00000000E+00  0.00000000E+00
  0.00000000E+00  0.00000000E+00  0.00000000E+00
  0.00000000E+00  0.00000000E+00  0.00000000E+00
  0.00000000E+00  0.00000000E+00  0.00000000E+00
  0.00000000E+00  0.00000000E+00  0.00000000E+00
  0.00000000E+00  0.00000000E+00  0.00000000E+00
  0.00000000E+00  0.00000000E+00  0.00000000E+00
  0.00000000E+00  0.00000000E+00  0.00000000E+00
  0.00000000E+00  0.00000000E+00  0.00000000E+00
  0.00000000E+00  0.00000000E+00  0.00000000E+00
  0.00000000E+00  0.00000000E+00  0.00000000E+00
  0.00000000E+00  0.00000000E+00  0.00000000E+00
  0.00000000E+00  0.00000000E+00  0.00000000E+00
  0.00000000E+00  0.00000000E+00  0.00000000E+00
  0.00000000E+00  0.00000000E+00  0.00000000E+00
  0.00000000E+00  0.00000000E+00  0.00000000E+00
  0.00000000E+00  0.00000000E+00  0.00000000E+00
  0.00000000E+00  0.00000000E+00  0.00000000E+00
  0.00000000E+00  0.00000000E+00  0.00000000E+00
  0.00000000E+00  0.00000000E+00  0.00000000E+00
  0.00000000E+00  0.00000000E+00  0.00000000E+00
  0.00000000E+00  0.00000000E+00  0.00000000E+00
  0.00000000E+00  0.00000000E+00  0.00000000E+00
  0.00000000E+00  0.00000000E+00  0.00000000E+00
  0.00000000E+00  0.00000000E+00  0.00000000E+00
  0.00000000E+00  0.00000000E+00  0.00000000E+00
  0.00000000E+00  0.00000000E+00  0.00000000E+00
  0.00000000E+00  0.00000000E+00  0.00000000E+00
  0.00000000E+00  0.00000000E+00  0.00000000E+00
  0.00000000E+00  0.00000000E+00  0.00000000E+00
  0.00000000E+00  0.00000000E+00  0.00000000E+00
  0.00000000E+00  0.00000000E+00  0.00000000E+00
  0.00000000E+00  0.00000000E+00  0.00000000E+00
  0.00000000E+00  0.00000000E+00  0.00000000E+00
  0.00000000E+00  0.00000000E+00  0.00000000E+00
  0.00000000E+00  0.00000000E+00  0.00000000E+00
  0.00000000E+00  0.00000000E+00  0.00000000E+00
  0.00000000E+00  0.00000000E+00  0.00000000E+00
  0.00000000E+00  0.00000000E+00  0.00000000E+00
  0.00000000E+00  0.00000000E+00  0.00000000E+00
  0.00000000E+00  0.00000000E+00  0.00000000E+00
  0.00000000E+00  0.00000000E+00  0.00000000E+00
  0.00000000E+00  0.00000000E+00  0.00000000E+00
  0.00000000E+00  0.00000000E+00  0.00000000E+00
  0.00000000E+00  0.00000000E+00  0.00000000E+00
  0.00000000E+00  0.00000000E+00  0.00000000E+00
  0.00000000E+00  0.00000000E+00  0.00000000E+00
  0.00000000E+00  0.00000000E+00  0.00000000E+00
  0.00000000E+00  0.00000000E+00  0.00000000E+00
  0.00000000E+00  0.00000000E+00  0.00000000E+00
  0.00000000E+00  0.00000000E+00  0.00000000E+00
  0.00000000E+00  0.00000000E+00  0.00000000E+00
  0.00000000E+00  0.00000000E+00  0.00000000E+00
  0.00000000E+00  0.00000000E+00  0.00000000E+00
  0.00000000E+00  0.00000000E+00  0.00000000E+00
  0.00000000E+00  0.00000000E+00  0.00000000E+00
  0.00000000E+00  0.00000000E+00  0.00000000E+00
  0.00000000E+00  0.00000000E+00  0.00000000E+00
  0.00000000E+00  0.00000000E+00  0.00000000E+00
  0.00000000E+00  0.00000000E+00  0.00000000E+00
  0.00000000E+00  0.00000000E+00  0.00000000E+00
  0.00000000E+00  0.00000000E+00  0.00000000E+00
  0.00000000E+00  0.00000000E+00  0.00000000E+00
  0.00000000E+00  0.00000000E+00  0.00000000E+00
  0.00000000E+00  0.00000000E+00  0.00000000E+00
  0.00000000E+00  0.00000000E+00  0.00000000E+00
  0.00000000E+00  0.00000000E+00  0.00000000E+00
  0.00000000E+00  0.00000000E+00  0.00000000E+00
  0.00000000E+00  0.00000000E+00  0.00000000E+00
  0.00000000E+00  0.00000000E+00  0.00000000E+00
  0.00000000E+00  0.00000000E+00  0.00000000E+00
  0.00000000E+00  0.00000000E+00  0.00000000E+00
  0.00000000E+00  0.00000000E+00  0.00000000E+00
  0.00000000E+00  0.00000000E+00  0.00000000E+00
  0.00000000E+00  0.00000000E+00  0.00000000E+00
  0.00000000E+00  0.00000000E+00  0.00000000E+00
  0.00000000E+00  0.00000000E+00  0.00000000E+00
  0.00000000E+00  0.00000000E+00  0.00000000E+00
  0.00000000E+00  0.00000000E+00  0.00000000E+00
  0.00000000E+00  0.00000000E+00  0.00000000E+00
  0.00000000E+00  0.00000000E+00  0.00000000E+00
  0.00000000E+00  0.00000000E+00  0.00000000E+00
  0.00000000E+00  0.00000000E+00  0.00000000E+00
  0.00000000E+00  0.00000000E+00  0.00000000E+00
  0.00000000E+00  0.00000000E+00  0.00000000E+00
  0.00000000E+00  0.00000000E+00  0.00000000E+00
  0.00000000E+00  0.00000000E+00  0.00000000E+00
  0.00000000E+00  0.00000000E+00  0.00000000E+00
  0.00000000E+00  0.00000000E+00  0.00000000E+00
  0.00000000E+00  0.00000000E+00  0.00000000E+00
  0.00000000E+00  0.00000000E+00  0.00000000E+00
  0.00000000E+00  0.00000000E+00  0.00000000E+00
  0.00000000E+00  0.00000000E+00  0.00000000E+00
  0.00000000E+00  0.00000000E+00  0.00000000E+00
  0.00000000E+00  0.00000000E+00  0.00000000E+00
  0.00000000E+00  0.00000000E+00  0.00000000E+00
  0.00000000E+00  0.00000000E+00  0.00000000E+00
  0.00000000E+00  0.00000000E+00  0.00000000E+00
  0.00000000E+00  0.00000000E+00  0.00000000E+00
  0.00000000E+00  0.00000000E+00  0.00000000E+00
