SrTiFeO                                 
   1.00000000000000     
    11.1989999999999998    0.0000000000000000    0.0000000000000000
     0.0000000000000000   11.1989999999999998    0.0000000000000000
     0.0000000000000000    0.0000000000000000   15.9830000000000005
   Sr   Ti   O 
    32    32    94
Direct
  0.0026351749557213  0.2501606305778414  0.1240805185593789
  0.0025016054121458  0.2490738937058753  0.6262209151615279
  0.9995318340884650  0.7505082618945428  0.1250381318079910
  0.0023876341950500  0.7481749518479532  0.6255547730741109
  0.4973788963889840  0.2500622685252164  0.1244652377079574
  0.4990661191251012  0.2483798600124946  0.6264969075454002
  0.4993409321643826  0.7504277966645000  0.1238670373632852
  0.4983191015457819  0.7514946468878102  0.6284720944117783
  0.0072702266279226  0.2496721451990359  0.3743126766548411
  0.0011971101217975  0.2497379843405171  0.8753338514382041
  0.0033706120384627  0.7489583714221318  0.3743299401250168
  0.9996843518792434  0.7501927495800299  0.8749839685864639
  0.4941046151105942  0.2475864652439050  0.3746004385679863
  0.4987267854904778  0.2507513726941351  0.8750087412640989
  0.4971867715045142  0.7519864289043492  0.3716511886850022
  0.4992364678492406  0.7504822376185988  0.8763750185166138
  0.2501790968478674  0.9997380886010262  0.1249827985813163
  0.2498945673548986  0.9997360401076301  0.6262437777332236
  0.2501863875948250  0.5004223002108134  0.1247737288770572
  0.2466255444291590  0.5002467996721982  0.6266378620458879
  0.7501792968882730  0.9977311107700230  0.1239220201789374
  0.7494762130161295  0.0009372923047729  0.6274895256746823
  0.7491899591213061  0.5024663220110342  0.1237336262478449
  0.7545907915519153  0.4979912341622880  0.6285083948311697
  0.2500762603258251  0.9987908101443769  0.3739229259345943
  0.2500878328833371  0.9995800350738603  0.8750234326209202
  0.2474567398757101  0.5013142445309086  0.3732286105152255
  0.2503196715504183  0.5005994422441485  0.8753942150610048
  0.7496563745521464  0.9945436370083188  0.3733014367707553
  0.7495616320766162  0.9988281035321788  0.8755206916212843
  0.7537219585271263  0.5040663775112741  0.3724735421191207
  0.7497256995039092  0.5013392773604272  0.8756936799557435
  0.9995731087875839  0.0000354889863489  0.0000260509560770
  0.0019467036214548  0.0009633729171091  0.4995369811687175
  0.9997027240412808  0.4995053304132875  0.0000671196312277
  0.0004171566545780  0.4987876843425763  0.4993642609015443
  0.5004068264733275  0.0005982607023328  0.0000211342772462
  0.4991414250906958  0.9992069005172090  0.4995436071135752
  0.4997532052817805  0.4992600998049764  0.0000328792341819
  0.2503153811185470  0.2501308910776516  0.9998405192953185
  0.2490042146512246  0.2480276295864288  0.5004356746643862
  0.2496626435519378  0.7499321974825045  0.0002568340429588
  0.2508407427958869  0.7507294345923122  0.5005844272727827
  0.7500791830480585  0.2500395925897146  0.9983609983248684
  0.7504789826705563  0.7504702102679873  0.9998647550733559
  0.2502691663362110  0.2501062159501877  0.2498382152853409
  0.2501840210625755  0.2500409468499091  0.7500397747579635
  0.2498146656879940  0.7497894328375505  0.2488786395814026
  0.2499760223999331  0.7498945742154444  0.7499590506144830
  0.7501910733459429  0.2499515152926583  0.2451510229734800
  0.7501872133627089  0.2498260701260718  0.7524971363830292
  0.7492795598308561  0.7493188214280498  0.2493549852293012
  0.7493227454833181  0.7492198195281383  0.7503296648475039
  0.0000374287502295  0.9997475259748394  0.2506810324424018
  0.9993815814170779  0.9998451547411742  0.7499196311470483
  1.0000097507653762  0.5000153791303189  0.2499815641502639
  0.9999449460198069  0.4992768573632561  0.7506594585755451
  0.5000283149343840  0.0000294050874520  0.2500945425374377
  0.5004565328180161  0.0006546290733130  0.7503714446479216
  0.5007804671662873  0.5005892894004863  0.2503885024212352
  0.5013077291102279  0.5002855072165120  0.7500994518988326
  0.7509620435077735  0.2498505235386537  0.5039618084996413
  0.4938659733139584  0.4967406876170047  0.4992391493707325
  0.7532652401749250  0.7562393536141736  0.5006506212503945
  0.1106689711687846  0.1393196770512094  0.2494199756760968
  0.1098865080033841  0.1398943335160315  0.7504774735348156
  0.1100512806944012  0.6395211714230106  0.2484275430146292
  0.1097443851786226  0.6392217822627733  0.7488985656163499
  0.6126877772329509  0.1411679048450649  0.2581657572919561
  0.6096140938951154  0.1414513274150416  0.7503884257831240
  0.6102447224468056  0.6398487579881553  0.2456910571517326
  0.6090852598876196  0.6408894622043846  0.7542672436312042
  0.3903243917910815  0.3615577586708819  0.2538236951256246
  0.3912612663498674  0.3607655198868218  0.7457369467568461
  0.3891276252482755  0.8610332395444561  0.2479389023899189
  0.3895585243443089  0.8611849229496793  0.7494802681819198
  0.8874915115316839  0.3590619520186041  0.2589973206655855
  0.8905640750153369  0.3585488655940193  0.7492452692876359
  0.8883407681885368  0.8598766334825271  0.2542531144102514
  0.8890317299209924  0.8588578004768398  0.7450148371959134
  0.3613950937248993  0.1114003345696420  0.2503464260560521
  0.3603765022379528  0.1103912794202848  0.7491588228385991
  0.3603706461247579  0.6100043222659018  0.2496948605449864
  0.3606954359853234  0.6096225253503071  0.7474062719004869
  0.8589313594694024  0.1122512952507874  0.2577688619113906
  0.8585430815248494  0.1091902550562236  0.7505823452076001
  0.8599281566858697  0.6100473966231682  0.2496379781954549
  0.8593166663856764  0.6090479618222063  0.7501208695374073
  0.1391784696062013  0.3892536191781221  0.2503144728513812
  0.1402500403966921  0.3900173361931519  0.7496857690972870
  0.1391012224082844  0.8892277549912622  0.2486125776345134
  0.1388858349357039  0.8895921984039957  0.7486944468628478
  0.6413416721217311  0.3879122372865286  0.2576150461541405
  0.6417475606116686  0.3907554595649429  0.7507229422832763
  0.6396849230170795  0.8896551947406837  0.2505813663432254
  0.6405971307272300  0.8904624581404696  0.7487512195498315
  0.3592825331912123  0.3905747501622447  0.0005997383585600
  0.3600769403326023  0.8905942828060107  0.0009563901131653
  0.3567808746538705  0.8934102967231130  0.5013420490805252
  0.8586295387605477  0.3906398222027873  0.9998699415715320
  0.8593417397198135  0.8909874807501066  0.9999732854164641
  0.8578521116580894  0.8917185635245530  0.5006834081862441
  0.1404173449814813  0.1095384099878372  0.0003948324883405
  0.1409260401172689  0.1090422104215422  0.4999124699639137
  0.1398775639625459  0.6091282909778996  0.0009690482321550
  0.1397569843513226  0.6101360143359967  0.5012718910038938
  0.6415587931716921  0.1094861154051308  0.9998669022644266
  0.6410604470997088  0.1124606591993404  0.4917279721381570
  0.6401118730159296  0.6099098830331554  0.9999333945873365
  0.1093597034619494  0.3590670255143094  0.9999644067616023
  0.1096230656034762  0.3593627286457047  0.5001867719364460
  0.1093220867750588  0.8598046565356575  0.0009516693879157
  0.1077220962037085  0.8584673379209093  0.5013535005719123
  0.6094492330608094  0.3587947504744221  0.9998737627325104
  0.6096937809415015  0.8597306752027385  0.0005336429552686
  0.6061247916370932  0.8546072798005969  0.4999638563310454
  0.3908447565190714  0.1406866264204071  0.9999522491084137
  0.3915598293950771  0.1421798418653166  0.5005304864137501
  0.3904510256654886  0.6397577653644888  0.0008990509436600
  0.8909240408196367  0.1413015849222337  0.9999032716351223
  0.8884936953778239  0.1414204574532764  0.4920218440239568
  0.8904096176842647  0.6403940326982713  0.0004351339397002
  0.9949071389150742  0.0012355915160742  0.1263540792483812
  0.9973530670059785  0.0053060557647858  0.6236414689512263
  0.9966845578408162  0.4954218716624960  0.1259977469757335
  0.9970434199837931  0.4976310848834102  0.6240409043591341
  0.5034781408942653  0.0041430810896398  0.1259775156608020
  0.5043345753180546  0.0032974308706224  0.6239316821610572
  0.5021013292464949  0.4951063175379745  0.1261312642105323
  0.5140832207781427  0.5041644618479396  0.6217741703851940
  0.0044510640630179  0.9967707925860384  0.3755459684653098
  0.9990659634254949  0.9978309119603950  0.8745372860387852
  0.0044543374422571  0.5052504027468641  0.3750204263186571
  0.9999114367231896  0.4995799150288899  0.8749985842483310
  0.4959026742611009  0.9963174839481298  0.3751354825212195
  0.5004092004912833  0.9996645433576195  0.8749517492119541
  0.4976550383734255  0.4979890088256194  0.8747477344399269
  0.2495286150521100  0.2494699567462224  0.3756673902545459
  0.2519502934691384  0.2511504987277365  0.8745343096739542
  0.2497174755938031  0.7498254008296511  0.3751587741746055
  0.2501076698495208  0.7493913998980412  0.8748783641484050
  0.7505795132003121  0.2502365329902898  0.8752019989833815
  0.7521761703452621  0.7521509768697646  0.8747041083078619
  0.2516339435756847  0.2511337876072289  0.1254567713855574
  0.2489071057910742  0.2497002672343125  0.6244872310532763
  0.2501904110155767  0.7493844782661563  0.1248763136849047
  0.2495888968193318  0.7499824442164519  0.6247964739133647
  0.7504318843257161  0.2503405805410794  0.1256109253484998
  0.7490933988927202  0.2494259502668904  0.6243815105303451
  0.7521972436445264  0.7520672061249420  0.1251595109847324
  0.7408293130261168  0.7397389105695888  0.6229613036519251
  0.8602989447831864  0.3864430188763591  0.4917043696703995
  0.3964324923493347  0.6442153728496043  0.5015960111833442
  0.5059519894169131  0.5129055223032201  0.3768309516028352
  0.3583041153814948  0.3922032981980229  0.4998475632425872
  0.8808459208829351  0.6345172502753871  0.4999156608866696
  0.7414283375307629  0.7418177252314259  0.3770906773304985
  0.6158408673980826  0.3658662045860328  0.4916894271553647
 
  0.00000000E+00  0.00000000E+00  0.00000000E+00
  0.00000000E+00  0.00000000E+00  0.00000000E+00
  0.00000000E+00  0.00000000E+00  0.00000000E+00
  0.00000000E+00  0.00000000E+00  0.00000000E+00
  0.00000000E+00  0.00000000E+00  0.00000000E+00
  0.00000000E+00  0.00000000E+00  0.00000000E+00
  0.00000000E+00  0.00000000E+00  0.00000000E+00
  0.00000000E+00  0.00000000E+00  0.00000000E+00
  0.00000000E+00  0.00000000E+00  0.00000000E+00
  0.00000000E+00  0.00000000E+00  0.00000000E+00
  0.00000000E+00  0.00000000E+00  0.00000000E+00
  0.00000000E+00  0.00000000E+00  0.00000000E+00
  0.00000000E+00  0.00000000E+00  0.00000000E+00
  0.00000000E+00  0.00000000E+00  0.00000000E+00
  0.00000000E+00  0.00000000E+00  0.00000000E+00
  0.00000000E+00  0.00000000E+00  0.00000000E+00
  0.00000000E+00  0.00000000E+00  0.00000000E+00
  0.00000000E+00  0.00000000E+00  0.00000000E+00
  0.00000000E+00  0.00000000E+00  0.00000000E+00
  0.00000000E+00  0.00000000E+00  0.00000000E+00
  0.00000000E+00  0.00000000E+00  0.00000000E+00
  0.00000000E+00  0.00000000E+00  0.00000000E+00
  0.00000000E+00  0.00000000E+00  0.00000000E+00
  0.00000000E+00  0.00000000E+00  0.00000000E+00
  0.00000000E+00  0.00000000E+00  0.00000000E+00
  0.00000000E+00  0.00000000E+00  0.00000000E+00
  0.00000000E+00  0.00000000E+00  0.00000000E+00
  0.00000000E+00  0.00000000E+00  0.00000000E+00
  0.00000000E+00  0.00000000E+00  0.00000000E+00
  0.00000000E+00  0.00000000E+00  0.00000000E+00
  0.00000000E+00  0.00000000E+00  0.00000000E+00
  0.00000000E+00  0.00000000E+00  0.00000000E+00
  0.00000000E+00  0.00000000E+00  0.00000000E+00
  0.00000000E+00  0.00000000E+00  0.00000000E+00
  0.00000000E+00  0.00000000E+00  0.00000000E+00
  0.00000000E+00  0.00000000E+00  0.00000000E+00
  0.00000000E+00  0.00000000E+00  0.00000000E+00
  0.00000000E+00  0.00000000E+00  0.00000000E+00
  0.00000000E+00  0.00000000E+00  0.00000000E+00
  0.00000000E+00  0.00000000E+00  0.00000000E+00
  0.00000000E+00  0.00000000E+00  0.00000000E+00
  0.00000000E+00  0.00000000E+00  0.00000000E+00
  0.00000000E+00  0.00000000E+00  0.00000000E+00
  0.00000000E+00  0.00000000E+00  0.00000000E+00
  0.00000000E+00  0.00000000E+00  0.00000000E+00
  0.00000000E+00  0.00000000E+00  0.00000000E+00
  0.00000000E+00  0.00000000E+00  0.00000000E+00
  0.00000000E+00  0.00000000E+00  0.00000000E+00
  0.00000000E+00  0.00000000E+00  0.00000000E+00
  0.00000000E+00  0.00000000E+00  0.00000000E+00
  0.00000000E+00  0.00000000E+00  0.00000000E+00
  0.00000000E+00  0.00000000E+00  0.00000000E+00
  0.00000000E+00  0.00000000E+00  0.00000000E+00
  0.00000000E+00  0.00000000E+00  0.00000000E+00
  0.00000000E+00  0.00000000E+00  0.00000000E+00
  0.00000000E+00  0.00000000E+00  0.00000000E+00
  0.00000000E+00  0.00000000E+00  0.00000000E+00
  0.00000000E+00  0.00000000E+00  0.00000000E+00
  0.00000000E+00  0.00000000E+00  0.00000000E+00
  0.00000000E+00  0.00000000E+00  0.00000000E+00
  0.00000000E+00  0.00000000E+00  0.00000000E+00
  0.00000000E+00  0.00000000E+00  0.00000000E+00
  0.00000000E+00  0.00000000E+00  0.00000000E+00
  0.00000000E+00  0.00000000E+00  0.00000000E+00
  0.00000000E+00  0.00000000E+00  0.00000000E+00
  0.00000000E+00  0.00000000E+00  0.00000000E+00
  0.00000000E+00  0.00000000E+00  0.00000000E+00
  0.00000000E+00  0.00000000E+00  0.00000000E+00
  0.00000000E+00  0.00000000E+00  0.00000000E+00
  0.00000000E+00  0.00000000E+00  0.00000000E+00
  0.00000000E+00  0.00000000E+00  0.00000000E+00
  0.00000000E+00  0.00000000E+00  0.00000000E+00
  0.00000000E+00  0.00000000E+00  0.00000000E+00
  0.00000000E+00  0.00000000E+00  0.00000000E+00
  0.00000000E+00  0.00000000E+00  0.00000000E+00
  0.00000000E+00  0.00000000E+00  0.00000000E+00
  0.00000000E+00  0.00000000E+00  0.00000000E+00
  0.00000000E+00  0.00000000E+00  0.00000000E+00
  0.00000000E+00  0.00000000E+00  0.00000000E+00
  0.00000000E+00  0.00000000E+00  0.00000000E+00
  0.00000000E+00  0.00000000E+00  0.00000000E+00
  0.00000000E+00  0.00000000E+00  0.00000000E+00
  0.00000000E+00  0.00000000E+00  0.00000000E+00
  0.00000000E+00  0.00000000E+00  0.00000000E+00
  0.00000000E+00  0.00000000E+00  0.00000000E+00
  0.00000000E+00  0.00000000E+00  0.00000000E+00
  0.00000000E+00  0.00000000E+00  0.00000000E+00
  0.00000000E+00  0.00000000E+00  0.00000000E+00
  0.00000000E+00  0.00000000E+00  0.00000000E+00
  0.00000000E+00  0.00000000E+00  0.00000000E+00
  0.00000000E+00  0.00000000E+00  0.00000000E+00
  0.00000000E+00  0.00000000E+00  0.00000000E+00
  0.00000000E+00  0.00000000E+00  0.00000000E+00
  0.00000000E+00  0.00000000E+00  0.00000000E+00
  0.00000000E+00  0.00000000E+00  0.00000000E+00
  0.00000000E+00  0.00000000E+00  0.00000000E+00
  0.00000000E+00  0.00000000E+00  0.00000000E+00
  0.00000000E+00  0.00000000E+00  0.00000000E+00
  0.00000000E+00  0.00000000E+00  0.00000000E+00
  0.00000000E+00  0.00000000E+00  0.00000000E+00
  0.00000000E+00  0.00000000E+00  0.00000000E+00
  0.00000000E+00  0.00000000E+00  0.00000000E+00
  0.00000000E+00  0.00000000E+00  0.00000000E+00
  0.00000000E+00  0.00000000E+00  0.00000000E+00
  0.00000000E+00  0.00000000E+00  0.00000000E+00
  0.00000000E+00  0.00000000E+00  0.00000000E+00
  0.00000000E+00  0.00000000E+00  0.00000000E+00
  0.00000000E+00  0.00000000E+00  0.00000000E+00
  0.00000000E+00  0.00000000E+00  0.00000000E+00
  0.00000000E+00  0.00000000E+00  0.00000000E+00
  0.00000000E+00  0.00000000E+00  0.00000000E+00
  0.00000000E+00  0.00000000E+00  0.00000000E+00
  0.00000000E+00  0.00000000E+00  0.00000000E+00
  0.00000000E+00  0.00000000E+00  0.00000000E+00
  0.00000000E+00  0.00000000E+00  0.00000000E+00
  0.00000000E+00  0.00000000E+00  0.00000000E+00
  0.00000000E+00  0.00000000E+00  0.00000000E+00
  0.00000000E+00  0.00000000E+00  0.00000000E+00
  0.00000000E+00  0.00000000E+00  0.00000000E+00
  0.00000000E+00  0.00000000E+00  0.00000000E+00
  0.00000000E+00  0.00000000E+00  0.00000000E+00
  0.00000000E+00  0.00000000E+00  0.00000000E+00
  0.00000000E+00  0.00000000E+00  0.00000000E+00
  0.00000000E+00  0.00000000E+00  0.00000000E+00
  0.00000000E+00  0.00000000E+00  0.00000000E+00
  0.00000000E+00  0.00000000E+00  0.00000000E+00
  0.00000000E+00  0.00000000E+00  0.00000000E+00
  0.00000000E+00  0.00000000E+00  0.00000000E+00
  0.00000000E+00  0.00000000E+00  0.00000000E+00
  0.00000000E+00  0.00000000E+00  0.00000000E+00
  0.00000000E+00  0.00000000E+00  0.00000000E+00
  0.00000000E+00  0.00000000E+00  0.00000000E+00
  0.00000000E+00  0.00000000E+00  0.00000000E+00
  0.00000000E+00  0.00000000E+00  0.00000000E+00
  0.00000000E+00  0.00000000E+00  0.00000000E+00
  0.00000000E+00  0.00000000E+00  0.00000000E+00
  0.00000000E+00  0.00000000E+00  0.00000000E+00
  0.00000000E+00  0.00000000E+00  0.00000000E+00
  0.00000000E+00  0.00000000E+00  0.00000000E+00
  0.00000000E+00  0.00000000E+00  0.00000000E+00
  0.00000000E+00  0.00000000E+00  0.00000000E+00
  0.00000000E+00  0.00000000E+00  0.00000000E+00
  0.00000000E+00  0.00000000E+00  0.00000000E+00
  0.00000000E+00  0.00000000E+00  0.00000000E+00
  0.00000000E+00  0.00000000E+00  0.00000000E+00
  0.00000000E+00  0.00000000E+00  0.00000000E+00
  0.00000000E+00  0.00000000E+00  0.00000000E+00
  0.00000000E+00  0.00000000E+00  0.00000000E+00
  0.00000000E+00  0.00000000E+00  0.00000000E+00
  0.00000000E+00  0.00000000E+00  0.00000000E+00
  0.00000000E+00  0.00000000E+00  0.00000000E+00
  0.00000000E+00  0.00000000E+00  0.00000000E+00
  0.00000000E+00  0.00000000E+00  0.00000000E+00
  0.00000000E+00  0.00000000E+00  0.00000000E+00
  0.00000000E+00  0.00000000E+00  0.00000000E+00
  0.00000000E+00  0.00000000E+00  0.00000000E+00
  0.00000000E+00  0.00000000E+00  0.00000000E+00
  0.00000000E+00  0.00000000E+00  0.00000000E+00
