Sr   Ti   Fe   O                        
   1.00000000000000     
    11.1989999999999998    0.0000000000000000    0.0000000000000000
     0.0000000000000000   11.1989999999999998    0.0000000000000000
     0.0000000000000000    0.0000000000000000   15.9830000000000005
   Sr   Ti   Fe   O 
    32    31     1    94
Direct
  0.9996231783604508  0.2496954562812764  0.1241303346387669
  0.0067136556531969  0.2516050012960293  0.6255960249773438
  0.9986935903204359  0.7507902662078012  0.1256621500304866
  0.0039799804654102  0.7481357233147686  0.6271521692522520
  0.4998231598663631  0.2461258476392400  0.1233326422811537
  0.4951187951536180  0.2483524842063103  0.6294308142164359
  0.4999535805903214  0.7543483286488163  0.1222379430480744
  0.4971983946007028  0.7525731983564249  0.6281085635694859
  0.0052483374735922  0.2491019077716733  0.3738442985296945
  0.0001310735759036  0.2496034724295296  0.8749417192337914
  0.0044400581115655  0.7496417329862300  0.3734386134195481
  0.9987767864754602  0.7512037633542711  0.8752761928965795
  0.4985643512944078  0.2396043054636008  0.3741542133876125
  0.5003021514359064  0.2493813065407427  0.8753735076209517
  0.4983849272007222  0.7622735365171219  0.3709023725844086
  0.4989214459443764  0.7505648956539980  0.8747723008336266
  0.2489460781199122  0.0004309700267797  0.1251497692692857
  0.2504536947201479  1.0003308163483939  0.6264855501718686
  0.2456957405622786  0.5001686659558194  0.1220024489912024
  0.2492552761186815  0.4993703065268625  0.6274432738359502
  0.7504137153412330  0.9997457483580020  0.1250711341084769
  0.7481424418446523  0.0022758609096017  0.6276448638915797
  0.7537496562583087  0.5005607341943944  0.1220757073921056
  0.7519756710387672  0.4982451388481080  0.6236260797981019
  0.2495543103544196  0.0010802366984200  0.3742574445965203
  0.2485933653076080  0.0005773526680669  0.8752994033868158
  0.2423369759163044  0.4974691605055858  0.3743569278260970
  0.2486095904560988  0.4991586370051706  0.8748593266527681
  0.7495014032689453  0.0017280290626923  0.3728140850604810
  0.7501924314137585  0.9999375571432358  0.8748547648834836
  0.7688093620697746  0.4983320891445986  0.3680565526404656
  0.7499504237763462  0.5017297014936646  0.8749813023098503
  0.9986148957378103  0.9999402791963444  0.0009788519711287
  0.0085784300173027  0.9988961673740138  0.5009826030717368
  0.9997866234856890  0.5000386360868933  0.9991052004643304
  0.0034901585432068  0.5007181065389329  0.5004735258618500
  0.4999601043722538  0.0003091227357851  0.9994991326586034
  0.4985357320012162  1.0001689001725367  0.5008352100154013
  0.4990673951768141  0.5002349283593219  0.9950877076187353
  0.2499151605248564  0.2496012690987510  0.0002387559803803
  0.2543064801938699  0.2526121445912175  0.4987431107360192
  0.2499346863364765  0.7502938125789891  0.9999698562873249
  0.2533526994577699  0.7496640400571147  0.4991991385004498
  0.7499244241345079  0.2502759399659239  0.9996622728266218
  0.7495717266045547  0.7505672344983142  0.0001082091636864
  0.2492880766485442  0.2494607794086010  0.2500916162608886
  0.2501099813384826  0.2503468560002258  0.7511341123252813
  0.2503054053122680  0.7505679177763765  0.2504006485760450
  0.2494771949609823  0.7496110146148236  0.7507904911345166
  0.7496484228580838  0.2510978629341399  0.2500920958840580
  0.7488211066515494  0.2524121698932983  0.7499854647075233
  0.7497391479229286  0.7490527963417288  0.2502960053226141
  0.7485653014548455  0.7481339585814489  0.7501446812620093
  0.9991840593828918  0.9998215993260896  0.2496802247768021
  0.9988923537692294  0.0000780585568756  0.7494188980740543
  0.0021793436777230  0.5002473659524713  0.2479489863563081
  0.9991867233852932  0.5000166714848241  0.7500830381671202
  0.5003993585210428  0.0005671692083044  0.2487852920075788
  0.5000738975776449  0.9998437196430592  0.7505401109573344
  0.4993534707999147  0.5001621194977649  0.2403414255800066
  0.4989918783168481  0.5000049820457485  0.7491621643997133
  0.7624224017104391  0.2471219797191014  0.4996448930884700
  0.7589979581637623  0.7600089925600363  0.4996872955258834
  0.4890781233343269  0.5064028396116070  0.5049778233677535
  0.1113499802729207  0.1399144511132714  0.2452363783083159
  0.1103950466977341  0.1399027521372005  0.7480312710007853
  0.1135520753081718  0.6384312737087844  0.2485798142534821
  0.1093275690278060  0.6403671514403944  0.7510862509758545
  0.6121377637113933  0.1389673541536311  0.2499804846947396
  0.6101150057178952  0.1405324473631367  0.7488213377955445
  0.6086540371097309  0.6340177470703111  0.2583480485523280
  0.6076596322559430  0.6410434235745217  0.7523689095299384
  0.3915640017770757  0.3666745588836348  0.2647049316691842
  0.3896682562789461  0.3584201973367192  0.7557973520792284
  0.3880277406933720  0.8629396925328140  0.2489346314206448
  0.3894746131250045  0.8604442203373924  0.7504541818385685
  0.8889982912845247  0.3620174388410694  0.2520057202003051
  0.8902919092365972  0.3592075031026142  0.7477654990493675
  0.8860023017832422  0.8612711205699083  0.2538743929250382
  0.8872359821150944  0.8594837407678073  0.7453125794055430
  0.3635609782440056  0.1134161600153177  0.2503719515490488
  0.3605573119394628  0.1101381022333588  0.7485201540321643
  0.3661253765505326  0.6107858479839979  0.2634193865513658
  0.3575296272332418  0.6103122940192379  0.7539472635806833
  0.8596216992111322  0.1132518570200488  0.2540298119599936
  0.8583023840919146  0.1119789670409057  0.7454189865439438
  0.8645209707773415  0.6137070103719487  0.2464161269219523
  0.8597071170069163  0.6100612080522487  0.7490779687574632
  0.1400293618492554  0.3893670429918136  0.2491526176993355
  0.1396612494328729  0.3900870799428089  0.7502419118233086
  0.1379110120565339  0.8886554355927276  0.2469903548655450
  0.1385122278533082  0.8894534276003545  0.7491865456310864
  0.6355743196370049  0.3913939325276397  0.2550306491838311
  0.6405310832307018  0.3909866216693084  0.7539595604772206
  0.6376991621061594  0.8877315039456340  0.2517898324224487
  0.6399842359611100  0.8898603692903204  0.7488041566556958
  0.3593113746983215  0.3918676056922397  0.9984927801882912
  0.3592565145103045  0.8910523623565613  0.0010455174033698
  0.3572871551227863  0.8941765429934067  0.5001617378929886
  0.8588941181598393  0.3906324677197950  0.9997862237855814
  0.8579296605640749  0.8897635982902143  0.0003179799728789
  0.8565085401776045  0.8939342192354631  0.5007517608705876
  0.1407554003451952  0.1107651094082164  0.0032159244479690
  0.1394762527892195  0.1101662352192302  0.5035162157029237
  0.1401023682345198  0.6098767333816004  0.9996212085061865
  0.1428939939483387  0.6103848215053226  0.5002487491632192
  0.6408361764936360  0.1098493436167808  0.0009127940540659
  0.6333551339279084  0.1233384117692808  0.4995166510333660
  0.6395799132540820  0.6083750476921964  0.0009489180237164
  0.1096594309057682  0.3598609490434504  0.0006408964488134
  0.1165215245460101  0.3633089257259455  0.4992662160568720
  0.1095502075805595  0.8598929800002185  0.0025531833386501
  0.1065763680653436  0.8578824089953055  0.5020173831562905
  0.6088191482572514  0.3594391558772069  0.0012003939119499
  0.6086762945404148  0.8594916001406939  0.9992617101061398
  0.6079941188215529  0.8551087953580414  0.4994780653445535
  0.3911804283259814  0.1407787680430869  1.0000367964432133
  0.3884012261496848  0.1368574220298709  0.5005853026195259
  0.3907939023824678  0.6413692647042598  0.9993691279592681
  0.8896148925595130  0.1415831111483625  0.0009049141938418
  0.8882702444989730  0.1382487310443796  0.5013337538303659
  0.8898684179545766  0.6402327332773473  0.0013576566590246
  0.9935760139192152  0.9997928349675514  0.1260531069496358
 -0.0006422836656200 -0.0002042764824936  0.6242488141972682
  0.0004334066387310  0.4983755925406375  0.1244098643731041
  0.0028905964525376  0.5013813684783558  0.6248748751824691
  0.5012685556572147  0.0002433454483138  0.1249639666386368
  0.5017159341234582  0.9988542197079853  0.6247069800876296
  0.4940498465007135  0.5005169465012017  0.1251905001862984
  0.4916179289076438  0.4959237403845214  0.6315818394170328
  0.0030446225954913  0.0016214366451256  0.3765705009757806
  0.9976380976425001  0.0008874078731000  0.8737231666908422
  0.0038933679916815  0.5029733808195485  0.3743040163707892
  0.9982876846883718  0.4993902627168423  0.8747752706083423
  0.5010189533977807  0.0005039938872577  0.3751666374098167
  0.5005589165592439  0.0009595570722156  0.8748001263948760
  0.5004633985714672  0.5008664048298029  0.8763129242571318
  0.2410402375233899  0.2403736454540672  0.3740704010204068
  0.2473647901069824  0.2469950429746483  0.8754802794591808
  0.2427511171570263  0.7584303975907858  0.3743122000509422
  0.2481657956993326  0.7531976552853575  0.8759081673349606
  0.7511881550013962  0.2486366706460943  0.8747642191413083
  0.7513074184155891  0.7499111692634122  0.8742010316284476
  0.2587947107505883  0.2561315517467931  0.1263207667846522
  0.2548179203518919  0.2565596671553304  0.6245910058341961
  0.2552157786137997  0.7445069411446565  0.1261981114462168
  0.2527773062562662  0.7480255674196249  0.6250291806651336
  0.7492663767507294  0.2533282807642340  0.1266500905693319
  0.7371053806937208  0.2624554032212091  0.6211309061431795
  0.7448365624753613  0.7490580079156016  0.1264588218149736
  0.7381305738527978  0.7379108631927493  0.6206812104889625
  0.7430673698222102  0.2558876861180573  0.3777583858286899
  0.8730914972363722  0.3823147528403763  0.4999982965633747
  0.3934395816442067  0.6508013585377269  0.4902686426342772
  0.3680659918175053  0.3800894547412575  0.4848414547684212
  0.8884430025965560  0.6395527716361736  0.5002371626890313
  0.7451870144945587  0.7428127931995118  0.3784484908383506
  0.6497807604150166  0.4849987658371408  0.4863463228233127
 
  0.00000000E+00  0.00000000E+00  0.00000000E+00
  0.00000000E+00  0.00000000E+00  0.00000000E+00
  0.00000000E+00  0.00000000E+00  0.00000000E+00
  0.00000000E+00  0.00000000E+00  0.00000000E+00
  0.00000000E+00  0.00000000E+00  0.00000000E+00
  0.00000000E+00  0.00000000E+00  0.00000000E+00
  0.00000000E+00  0.00000000E+00  0.00000000E+00
  0.00000000E+00  0.00000000E+00  0.00000000E+00
  0.00000000E+00  0.00000000E+00  0.00000000E+00
  0.00000000E+00  0.00000000E+00  0.00000000E+00
  0.00000000E+00  0.00000000E+00  0.00000000E+00
  0.00000000E+00  0.00000000E+00  0.00000000E+00
  0.00000000E+00  0.00000000E+00  0.00000000E+00
  0.00000000E+00  0.00000000E+00  0.00000000E+00
  0.00000000E+00  0.00000000E+00  0.00000000E+00
  0.00000000E+00  0.00000000E+00  0.00000000E+00
  0.00000000E+00  0.00000000E+00  0.00000000E+00
  0.00000000E+00  0.00000000E+00  0.00000000E+00
  0.00000000E+00  0.00000000E+00  0.00000000E+00
  0.00000000E+00  0.00000000E+00  0.00000000E+00
  0.00000000E+00  0.00000000E+00  0.00000000E+00
  0.00000000E+00  0.00000000E+00  0.00000000E+00
  0.00000000E+00  0.00000000E+00  0.00000000E+00
  0.00000000E+00  0.00000000E+00  0.00000000E+00
  0.00000000E+00  0.00000000E+00  0.00000000E+00
  0.00000000E+00  0.00000000E+00  0.00000000E+00
  0.00000000E+00  0.00000000E+00  0.00000000E+00
  0.00000000E+00  0.00000000E+00  0.00000000E+00
  0.00000000E+00  0.00000000E+00  0.00000000E+00
  0.00000000E+00  0.00000000E+00  0.00000000E+00
  0.00000000E+00  0.00000000E+00  0.00000000E+00
  0.00000000E+00  0.00000000E+00  0.00000000E+00
  0.00000000E+00  0.00000000E+00  0.00000000E+00
  0.00000000E+00  0.00000000E+00  0.00000000E+00
  0.00000000E+00  0.00000000E+00  0.00000000E+00
  0.00000000E+00  0.00000000E+00  0.00000000E+00
  0.00000000E+00  0.00000000E+00  0.00000000E+00
  0.00000000E+00  0.00000000E+00  0.00000000E+00
  0.00000000E+00  0.00000000E+00  0.00000000E+00
  0.00000000E+00  0.00000000E+00  0.00000000E+00
  0.00000000E+00  0.00000000E+00  0.00000000E+00
  0.00000000E+00  0.00000000E+00  0.00000000E+00
  0.00000000E+00  0.00000000E+00  0.00000000E+00
  0.00000000E+00  0.00000000E+00  0.00000000E+00
  0.00000000E+00  0.00000000E+00  0.00000000E+00
  0.00000000E+00  0.00000000E+00  0.00000000E+00
  0.00000000E+00  0.00000000E+00  0.00000000E+00
  0.00000000E+00  0.00000000E+00  0.00000000E+00
  0.00000000E+00  0.00000000E+00  0.00000000E+00
  0.00000000E+00  0.00000000E+00  0.00000000E+00
  0.00000000E+00  0.00000000E+00  0.00000000E+00
  0.00000000E+00  0.00000000E+00  0.00000000E+00
  0.00000000E+00  0.00000000E+00  0.00000000E+00
  0.00000000E+00  0.00000000E+00  0.00000000E+00
  0.00000000E+00  0.00000000E+00  0.00000000E+00
  0.00000000E+00  0.00000000E+00  0.00000000E+00
  0.00000000E+00  0.00000000E+00  0.00000000E+00
  0.00000000E+00  0.00000000E+00  0.00000000E+00
  0.00000000E+00  0.00000000E+00  0.00000000E+00
  0.00000000E+00  0.00000000E+00  0.00000000E+00
  0.00000000E+00  0.00000000E+00  0.00000000E+00
  0.00000000E+00  0.00000000E+00  0.00000000E+00
  0.00000000E+00  0.00000000E+00  0.00000000E+00
  0.00000000E+00  0.00000000E+00  0.00000000E+00
  0.00000000E+00  0.00000000E+00  0.00000000E+00
  0.00000000E+00  0.00000000E+00  0.00000000E+00
  0.00000000E+00  0.00000000E+00  0.00000000E+00
  0.00000000E+00  0.00000000E+00  0.00000000E+00
  0.00000000E+00  0.00000000E+00  0.00000000E+00
  0.00000000E+00  0.00000000E+00  0.00000000E+00
  0.00000000E+00  0.00000000E+00  0.00000000E+00
  0.00000000E+00  0.00000000E+00  0.00000000E+00
  0.00000000E+00  0.00000000E+00  0.00000000E+00
  0.00000000E+00  0.00000000E+00  0.00000000E+00
  0.00000000E+00  0.00000000E+00  0.00000000E+00
  0.00000000E+00  0.00000000E+00  0.00000000E+00
  0.00000000E+00  0.00000000E+00  0.00000000E+00
  0.00000000E+00  0.00000000E+00  0.00000000E+00
  0.00000000E+00  0.00000000E+00  0.00000000E+00
  0.00000000E+00  0.00000000E+00  0.00000000E+00
  0.00000000E+00  0.00000000E+00  0.00000000E+00
  0.00000000E+00  0.00000000E+00  0.00000000E+00
  0.00000000E+00  0.00000000E+00  0.00000000E+00
  0.00000000E+00  0.00000000E+00  0.00000000E+00
  0.00000000E+00  0.00000000E+00  0.00000000E+00
  0.00000000E+00  0.00000000E+00  0.00000000E+00
  0.00000000E+00  0.00000000E+00  0.00000000E+00
  0.00000000E+00  0.00000000E+00  0.00000000E+00
  0.00000000E+00  0.00000000E+00  0.00000000E+00
  0.00000000E+00  0.00000000E+00  0.00000000E+00
  0.00000000E+00  0.00000000E+00  0.00000000E+00
  0.00000000E+00  0.00000000E+00  0.00000000E+00
  0.00000000E+00  0.00000000E+00  0.00000000E+00
  0.00000000E+00  0.00000000E+00  0.00000000E+00
  0.00000000E+00  0.00000000E+00  0.00000000E+00
  0.00000000E+00  0.00000000E+00  0.00000000E+00
  0.00000000E+00  0.00000000E+00  0.00000000E+00
  0.00000000E+00  0.00000000E+00  0.00000000E+00
  0.00000000E+00  0.00000000E+00  0.00000000E+00
  0.00000000E+00  0.00000000E+00  0.00000000E+00
  0.00000000E+00  0.00000000E+00  0.00000000E+00
  0.00000000E+00  0.00000000E+00  0.00000000E+00
  0.00000000E+00  0.00000000E+00  0.00000000E+00
  0.00000000E+00  0.00000000E+00  0.00000000E+00
  0.00000000E+00  0.00000000E+00  0.00000000E+00
  0.00000000E+00  0.00000000E+00  0.00000000E+00
  0.00000000E+00  0.00000000E+00  0.00000000E+00
  0.00000000E+00  0.00000000E+00  0.00000000E+00
  0.00000000E+00  0.00000000E+00  0.00000000E+00
  0.00000000E+00  0.00000000E+00  0.00000000E+00
  0.00000000E+00  0.00000000E+00  0.00000000E+00
  0.00000000E+00  0.00000000E+00  0.00000000E+00
  0.00000000E+00  0.00000000E+00  0.00000000E+00
  0.00000000E+00  0.00000000E+00  0.00000000E+00
  0.00000000E+00  0.00000000E+00  0.00000000E+00
  0.00000000E+00  0.00000000E+00  0.00000000E+00
  0.00000000E+00  0.00000000E+00  0.00000000E+00
  0.00000000E+00  0.00000000E+00  0.00000000E+00
  0.00000000E+00  0.00000000E+00  0.00000000E+00
  0.00000000E+00  0.00000000E+00  0.00000000E+00
  0.00000000E+00  0.00000000E+00  0.00000000E+00
  0.00000000E+00  0.00000000E+00  0.00000000E+00
  0.00000000E+00  0.00000000E+00  0.00000000E+00
  0.00000000E+00  0.00000000E+00  0.00000000E+00
  0.00000000E+00  0.00000000E+00  0.00000000E+00
  0.00000000E+00  0.00000000E+00  0.00000000E+00
  0.00000000E+00  0.00000000E+00  0.00000000E+00
  0.00000000E+00  0.00000000E+00  0.00000000E+00
  0.00000000E+00  0.00000000E+00  0.00000000E+00
  0.00000000E+00  0.00000000E+00  0.00000000E+00
  0.00000000E+00  0.00000000E+00  0.00000000E+00
  0.00000000E+00  0.00000000E+00  0.00000000E+00
  0.00000000E+00  0.00000000E+00  0.00000000E+00
  0.00000000E+00  0.00000000E+00  0.00000000E+00
  0.00000000E+00  0.00000000E+00  0.00000000E+00
  0.00000000E+00  0.00000000E+00  0.00000000E+00
  0.00000000E+00  0.00000000E+00  0.00000000E+00
  0.00000000E+00  0.00000000E+00  0.00000000E+00
  0.00000000E+00  0.00000000E+00  0.00000000E+00
  0.00000000E+00  0.00000000E+00  0.00000000E+00
  0.00000000E+00  0.00000000E+00  0.00000000E+00
  0.00000000E+00  0.00000000E+00  0.00000000E+00
  0.00000000E+00  0.00000000E+00  0.00000000E+00
  0.00000000E+00  0.00000000E+00  0.00000000E+00
  0.00000000E+00  0.00000000E+00  0.00000000E+00
  0.00000000E+00  0.00000000E+00  0.00000000E+00
  0.00000000E+00  0.00000000E+00  0.00000000E+00
  0.00000000E+00  0.00000000E+00  0.00000000E+00
  0.00000000E+00  0.00000000E+00  0.00000000E+00
  0.00000000E+00  0.00000000E+00  0.00000000E+00
  0.00000000E+00  0.00000000E+00  0.00000000E+00
  0.00000000E+00  0.00000000E+00  0.00000000E+00
  0.00000000E+00  0.00000000E+00  0.00000000E+00
  0.00000000E+00  0.00000000E+00  0.00000000E+00
  0.00000000E+00  0.00000000E+00  0.00000000E+00
  0.00000000E+00  0.00000000E+00  0.00000000E+00
  0.00000000E+00  0.00000000E+00  0.00000000E+00
  0.00000000E+00  0.00000000E+00  0.00000000E+00
