Sr   Ti   Fe   O                        
   1.00000000000000     
    11.1989999999999998    0.0000000000000000    0.0000000000000000
     0.0000000000000000   11.1989999999999998    0.0000000000000000
     0.0000000000000000    0.0000000000000000   15.9830000000000005
   Sr   Ti   Fe   O 
    32    30     2    94
Direct
 -0.0000355722596618  0.2494971048443263  0.1256934638093464
  0.0022875823938595  0.2479693403572946  0.6222661216799079
  0.9997017302257257  0.7510312842836719  0.1263248344728849
  0.0066212952359376  0.7490744789077558  0.6217865411323211
  0.4996155949804990  0.2501247964656496  0.1260744039320874
  0.5018890279428971  0.2446995055350746  0.6198744040602671
  0.4977609984633222  0.7513230060724307  0.1262989498539612
  0.4858368521834588  0.7570227749329073  0.6256766562234574
  0.0010067226624969  0.2485134664426295  0.3777133245343300
  0.9998601445154177  0.2506730387890431  0.8744241326161982
  0.9979223359723219  0.7494510449321303  0.3778222095774786
  0.0049957698110516  0.7506369099550483  0.8757907786620237
  0.5009003594233403  0.2508851647585366  0.3771043090657362
  0.4999784535923792  0.2480529805530397  0.8742221030779768
  0.4960468524871274  0.7487134557022372  0.3747548222622655
  0.4952169162055491  0.7538611519215843  0.8794867681664457
  0.2494445997188394  0.0012542892512449  0.1245307826425856
  0.2483329562218354  0.0022872583011970  0.6221072107455987
  0.2495924141609769  0.5001187819064540  0.1273279366275307
  0.2443013164930607  0.4985089498178627  0.6225646310559455
  0.7490079487856586  1.0000555334430143  0.1268188003812445
  0.7542484433007330  0.0069073278036351  0.6245552282120238
  0.7486922505801642  0.4996039308395394  0.1254383637417914
  0.7638980702666767  0.4833377181710841  0.6246378132618994
  0.2484747150935847  0.0007630112338900  0.3758008675998355
  0.2504564335190571  0.0013248142146796  0.8729911506723986
  0.2522137814227620  0.5004478509912683  0.3805313416187138
  0.2482910310249752  0.5000175928639183  0.8767869784193701
  0.7521596404984300  0.9965559282252797  0.3767998353433978
  0.7511276762206421  0.0050534604936368  0.8779278068974432
  0.7521775137068366  0.4938274127659418  0.3728755187191663
  0.7524024282759102  0.4961995638170695  0.8749854513732616
  0.9992507727516947  0.9998259069213675  0.9997261150766110
  0.9989837298126585  0.9990628879122574  0.5004008201115461
  0.9994184414163297  0.5005071654698013  0.0004999172553602
  0.9970043019939491  0.5003094821765740  0.4999931489160629
  0.5003259741636840  0.0001297932931624  0.0003414497620405
  0.5014733569979156  0.9957124272391968  0.4999842598191324
  0.4992943327092068  0.4998434885982150  0.0037401066243804
  0.2504598853007893  0.2511947549475093  0.9993951519859958
  0.2521074434126570  0.2509347524242003  0.5000015159525127
  0.2499340687196279  0.7496591162018770  0.0005140064968380
  0.2496193032765923  0.7507971819927306  0.4990664716867965
  0.7497042252525917  0.2507831462063666  0.0004659635739280
  0.7488927232794679  0.2475730475705849  0.4985815376931437
  0.7505542120830295  0.7507373395700433  0.0054320068138563
  0.2501821658911874  0.2506549789454405  0.2512673733439674
  0.2515326747956642  0.2516035156312373  0.7488772520495461
  0.2484503828983466  0.7499966620351927  0.2505037535687859
  0.2495605680284878  0.7506573501341370  0.7494143438495036
  0.7500197230559362  0.2484445948415633  0.2500338992065143
  0.7503109960471470  0.2489503261966164  0.7497881042861989
  0.7478664435696107  0.7473067732081692  0.2529999937016375
  0.7504329488615922  0.7509621404103062  0.7616336000050663
  0.9995952095956412  0.9992624334202916  0.2504556891003679
  0.0005528762684452  0.0003417215077001  0.7494340639024338
  0.9998084046805358  0.5001763256026256  0.2503174585282855
  0.0013195214778641  0.5000618798724381  0.7496063320762313
  0.4998864162508543  0.9992776427420603  0.2506343255781672
  0.5002819693963175  0.0004547611602603  0.7487326218250372
  0.5008201093794272  0.5008138269736023  0.2536452205362514
  0.5030505042955024  0.5035291571504752  0.7558057413243984
  0.5013552437284744  0.5009022971208367  0.5026796140615218
  0.7485623633977273  0.7508139117052001  0.4990670250286495
  0.1093010101583851  0.1412945489970294  0.2521243140850200
  0.1129639537618579  0.1386968943151181  0.7585406404355772
  0.1072419074624303  0.6417713842080915  0.2482311378066859
  0.1121834310999579  0.6381765493775007  0.7501966852560853
  0.6086042674639166  0.1399888588896845  0.2482415026369797
  0.6129582516698139  0.1372929523558699  0.7501566602152212
  0.6070251681862108  0.6409071169654995  0.2431861824423837
  0.3913871741999211  0.3598769690888050  0.2486355063574825
  0.3919545793622428  0.3683975960781414  0.7320298798890778
  0.3899688979524987  0.8589552418158883  0.2500820746571539
  0.3864515756563783  0.8641699331040085  0.7534241448682638
  0.8910480713133774  0.3585738165871418  0.2514646443493582
  0.8878746400713702  0.3627673184863268  0.7505107458247887
  0.8895820705294900  0.8578494572739910  0.2499299749798329
  0.8838342227704377  0.8601845829559502  0.7340144878569214
  0.3593392859948656  0.1092178441864310  0.2496612508464701
  0.3639312567482574  0.1141178561420037  0.7520365546012318
  0.3576953649988224  0.6093132193718217  0.2511030479937394
  0.3671265980981031  0.6123959827625384  0.7380202766019701
  0.8589627320101201  0.1078664037466952  0.2474507501871080
  0.8618761153075387  0.1116777783462076  0.7533153626519498
  0.8581272861394248  0.6069329944718780  0.2461924348155851
  0.8587437406179789  0.6161993235237678  0.7398218870180754
  0.1409006743240103  0.3920941410145135  0.2522076941305560
  0.1397778252941889  0.3898852302395416  0.7541256181950928
  0.1400867189689695  0.8915306403251991  0.2465806023219838
  0.1372699143838200  0.8875393473965506  0.7533304221143036
  0.6419645041779533  0.3895367278395939  0.2482785554660435
  0.6403246206601888  0.8902970960471711  0.2490175285562558
  0.6398654760186252  0.8825053191534650  0.7368812681700490
  0.3584770497025103  0.3918229150650404  0.0030449960646256
  0.3598984263804602  0.8901921668012263  0.9971582013785508
  0.3584091056194634  0.8912077139302629  0.4994864075923512
  0.8589336789427985  0.3912370544489777  0.9995155851621345
  0.8659666996704285  0.3818336279763206  0.4970823181950849
  0.8588364072852530  0.8919729358902931  0.0047167545450528
  0.8648407844497106  0.8903070378479376  0.5094872969210397
  0.1398324116046881  0.1109687746654227  0.9934894316496857
  0.1388192559082911  0.1129135920371049  0.4951343623170585
  0.1401267239715801  0.6093760588704614  0.9994112557843990
  0.1284786521538382  0.6170980985996443  0.5003402414814720
  0.6404212097259721  0.1100299635267121  0.0001432738691301
  0.6415225836899635  0.1038486241967844  0.5000711977383663
  0.6405408490643320  0.6101456565620772  0.9927840649078921
  0.1091661684216232  0.3602861603720255  0.9958054666895433
  0.1129407267414867  0.3646081247692997  0.4968753285528871
  0.1103853007680267  0.8593919533896434  0.9987585880076513
  0.1100597944289269  0.8640260469931879  0.4994395571524693
  0.6086370795666902  0.3601314372122419  0.9987352488747138
  0.6097574983488411  0.8589994320247331  0.0002068375764318
  0.6051625325614199  0.8524583660151289  0.5073165251474977
  0.3907695373335177  0.1401380775057225  0.9988580039340570
  0.3901600413342269  0.1376130346424135  0.4988468708378812
  0.3912231513208821  0.6404588944380377  0.9998101487113419
  0.3763197163707043  0.6419963100393581  0.4972075982311049
  0.8899238664952178  0.1411517201494394  0.9968744923922064
  0.8904046280277250  0.1368932782603263  0.4995203619453975
  0.8906268821675810  0.6415008221983062  0.0008926234299200
  0.0028259464933167  0.0033063596809409  0.1235478415690751
  0.0096300528466569  0.0102156983239009  0.6271060115272687
  0.0017112231673267  0.4966635415629974  0.1242559491953305
  0.0073313766717303  0.4924549794194183  0.6260924880965987
  0.4985052127331720  0.9988350209476985  0.1241488637118229
  0.4944254628036421  0.0048464649667267  0.6255429458614264
  0.5014070394186492  0.5005842983067215  0.1232247565745879
  0.9963829785312168  0.9966554834613507  0.3737064336522773
  0.9916139450443032  0.9898828538427724  0.8742386935115907
  0.9947436522249647  0.5073701284161667  0.3751996269447642
  0.9935488581519232  0.5054558088397101  0.8738214252621638
  0.5025990889796285  0.9966089958477227  0.3749325790795116
  0.5072661805338573  0.9968663790454266  0.8738312273397194
  0.4891964133055909  0.4925381627126867  0.8724961664782843
  0.2552882351121907  0.2538528260507077  0.3743932673725648
  0.2620377395666233  0.2586007883213468  0.8736643892803387
  0.2437006351458689  0.7535071730017842  0.3731254116297589
  0.2531934903661490  0.7430896877544076  0.8740487550728491
  0.7503005213277172  0.2443945454814199  0.3730818124351461
  0.7466959671195257  0.2537696277140377  0.8743169692744159
  0.7413444654139155  0.7360386972798609  0.3717247131416098
  0.7629175136370200  0.7629326028456512  0.8760537292821713
  0.2464929864483399  0.2489723989221077  0.1240931482286326
  0.2394692099386420  0.2421434484229534  0.6262792218764746
  0.2509502710295473  0.7497345358041339  0.1238201830510432
  0.2445327783672007  0.7560983843773397  0.6258142550456740
  0.7510598048164713  0.2502673199166565  0.1237914628918130
  0.7543389149969613  0.2441859199588413  0.6259713281444113
  0.7484353506453753  0.7482902494465810  0.1240413270509136
  0.6368772931086740  0.3905899408705239  0.7445978089594901
  0.6139162568154465  0.6411915086839436  0.7639877763360134
  0.5104971535924885  0.5061198676094738  0.3727228742091699
  0.6176948497564771  0.3523048753020732  0.5001004943815591
  0.3600581780091822  0.3841086927449869  0.5096251982718584
  0.8728890171975132  0.6278030262224094  0.5137212772323249
  0.5865872794882186  0.5796713466487545  0.5909616013256568
 
  0.00000000E+00  0.00000000E+00  0.00000000E+00
  0.00000000E+00  0.00000000E+00  0.00000000E+00
  0.00000000E+00  0.00000000E+00  0.00000000E+00
  0.00000000E+00  0.00000000E+00  0.00000000E+00
  0.00000000E+00  0.00000000E+00  0.00000000E+00
  0.00000000E+00  0.00000000E+00  0.00000000E+00
  0.00000000E+00  0.00000000E+00  0.00000000E+00
  0.00000000E+00  0.00000000E+00  0.00000000E+00
  0.00000000E+00  0.00000000E+00  0.00000000E+00
  0.00000000E+00  0.00000000E+00  0.00000000E+00
  0.00000000E+00  0.00000000E+00  0.00000000E+00
  0.00000000E+00  0.00000000E+00  0.00000000E+00
  0.00000000E+00  0.00000000E+00  0.00000000E+00
  0.00000000E+00  0.00000000E+00  0.00000000E+00
  0.00000000E+00  0.00000000E+00  0.00000000E+00
  0.00000000E+00  0.00000000E+00  0.00000000E+00
  0.00000000E+00  0.00000000E+00  0.00000000E+00
  0.00000000E+00  0.00000000E+00  0.00000000E+00
  0.00000000E+00  0.00000000E+00  0.00000000E+00
  0.00000000E+00  0.00000000E+00  0.00000000E+00
  0.00000000E+00  0.00000000E+00  0.00000000E+00
  0.00000000E+00  0.00000000E+00  0.00000000E+00
  0.00000000E+00  0.00000000E+00  0.00000000E+00
  0.00000000E+00  0.00000000E+00  0.00000000E+00
  0.00000000E+00  0.00000000E+00  0.00000000E+00
  0.00000000E+00  0.00000000E+00  0.00000000E+00
  0.00000000E+00  0.00000000E+00  0.00000000E+00
  0.00000000E+00  0.00000000E+00  0.00000000E+00
  0.00000000E+00  0.00000000E+00  0.00000000E+00
  0.00000000E+00  0.00000000E+00  0.00000000E+00
  0.00000000E+00  0.00000000E+00  0.00000000E+00
  0.00000000E+00  0.00000000E+00  0.00000000E+00
  0.00000000E+00  0.00000000E+00  0.00000000E+00
  0.00000000E+00  0.00000000E+00  0.00000000E+00
  0.00000000E+00  0.00000000E+00  0.00000000E+00
  0.00000000E+00  0.00000000E+00  0.00000000E+00
  0.00000000E+00  0.00000000E+00  0.00000000E+00
  0.00000000E+00  0.00000000E+00  0.00000000E+00
  0.00000000E+00  0.00000000E+00  0.00000000E+00
  0.00000000E+00  0.00000000E+00  0.00000000E+00
  0.00000000E+00  0.00000000E+00  0.00000000E+00
  0.00000000E+00  0.00000000E+00  0.00000000E+00
  0.00000000E+00  0.00000000E+00  0.00000000E+00
  0.00000000E+00  0.00000000E+00  0.00000000E+00
  0.00000000E+00  0.00000000E+00  0.00000000E+00
  0.00000000E+00  0.00000000E+00  0.00000000E+00
  0.00000000E+00  0.00000000E+00  0.00000000E+00
  0.00000000E+00  0.00000000E+00  0.00000000E+00
  0.00000000E+00  0.00000000E+00  0.00000000E+00
  0.00000000E+00  0.00000000E+00  0.00000000E+00
  0.00000000E+00  0.00000000E+00  0.00000000E+00
  0.00000000E+00  0.00000000E+00  0.00000000E+00
  0.00000000E+00  0.00000000E+00  0.00000000E+00
  0.00000000E+00  0.00000000E+00  0.00000000E+00
  0.00000000E+00  0.00000000E+00  0.00000000E+00
  0.00000000E+00  0.00000000E+00  0.00000000E+00
  0.00000000E+00  0.00000000E+00  0.00000000E+00
  0.00000000E+00  0.00000000E+00  0.00000000E+00
  0.00000000E+00  0.00000000E+00  0.00000000E+00
  0.00000000E+00  0.00000000E+00  0.00000000E+00
  0.00000000E+00  0.00000000E+00  0.00000000E+00
  0.00000000E+00  0.00000000E+00  0.00000000E+00
  0.00000000E+00  0.00000000E+00  0.00000000E+00
  0.00000000E+00  0.00000000E+00  0.00000000E+00
  0.00000000E+00  0.00000000E+00  0.00000000E+00
  0.00000000E+00  0.00000000E+00  0.00000000E+00
  0.00000000E+00  0.00000000E+00  0.00000000E+00
  0.00000000E+00  0.00000000E+00  0.00000000E+00
  0.00000000E+00  0.00000000E+00  0.00000000E+00
  0.00000000E+00  0.00000000E+00  0.00000000E+00
  0.00000000E+00  0.00000000E+00  0.00000000E+00
  0.00000000E+00  0.00000000E+00  0.00000000E+00
  0.00000000E+00  0.00000000E+00  0.00000000E+00
  0.00000000E+00  0.00000000E+00  0.00000000E+00
  0.00000000E+00  0.00000000E+00  0.00000000E+00
  0.00000000E+00  0.00000000E+00  0.00000000E+00
  0.00000000E+00  0.00000000E+00  0.00000000E+00
  0.00000000E+00  0.00000000E+00  0.00000000E+00
  0.00000000E+00  0.00000000E+00  0.00000000E+00
  0.00000000E+00  0.00000000E+00  0.00000000E+00
  0.00000000E+00  0.00000000E+00  0.00000000E+00
  0.00000000E+00  0.00000000E+00  0.00000000E+00
  0.00000000E+00  0.00000000E+00  0.00000000E+00
  0.00000000E+00  0.00000000E+00  0.00000000E+00
  0.00000000E+00  0.00000000E+00  0.00000000E+00
  0.00000000E+00  0.00000000E+00  0.00000000E+00
  0.00000000E+00  0.00000000E+00  0.00000000E+00
  0.00000000E+00  0.00000000E+00  0.00000000E+00
  0.00000000E+00  0.00000000E+00  0.00000000E+00
  0.00000000E+00  0.00000000E+00  0.00000000E+00
  0.00000000E+00  0.00000000E+00  0.00000000E+00
  0.00000000E+00  0.00000000E+00  0.00000000E+00
  0.00000000E+00  0.00000000E+00  0.00000000E+00
  0.00000000E+00  0.00000000E+00  0.00000000E+00
  0.00000000E+00  0.00000000E+00  0.00000000E+00
  0.00000000E+00  0.00000000E+00  0.00000000E+00
  0.00000000E+00  0.00000000E+00  0.00000000E+00
  0.00000000E+00  0.00000000E+00  0.00000000E+00
  0.00000000E+00  0.00000000E+00  0.00000000E+00
  0.00000000E+00  0.00000000E+00  0.00000000E+00
  0.00000000E+00  0.00000000E+00  0.00000000E+00
  0.00000000E+00  0.00000000E+00  0.00000000E+00
  0.00000000E+00  0.00000000E+00  0.00000000E+00
  0.00000000E+00  0.00000000E+00  0.00000000E+00
  0.00000000E+00  0.00000000E+00  0.00000000E+00
  0.00000000E+00  0.00000000E+00  0.00000000E+00
  0.00000000E+00  0.00000000E+00  0.00000000E+00
  0.00000000E+00  0.00000000E+00  0.00000000E+00
  0.00000000E+00  0.00000000E+00  0.00000000E+00
  0.00000000E+00  0.00000000E+00  0.00000000E+00
  0.00000000E+00  0.00000000E+00  0.00000000E+00
  0.00000000E+00  0.00000000E+00  0.00000000E+00
  0.00000000E+00  0.00000000E+00  0.00000000E+00
  0.00000000E+00  0.00000000E+00  0.00000000E+00
  0.00000000E+00  0.00000000E+00  0.00000000E+00
  0.00000000E+00  0.00000000E+00  0.00000000E+00
  0.00000000E+00  0.00000000E+00  0.00000000E+00
  0.00000000E+00  0.00000000E+00  0.00000000E+00
  0.00000000E+00  0.00000000E+00  0.00000000E+00
  0.00000000E+00  0.00000000E+00  0.00000000E+00
  0.00000000E+00  0.00000000E+00  0.00000000E+00
  0.00000000E+00  0.00000000E+00  0.00000000E+00
  0.00000000E+00  0.00000000E+00  0.00000000E+00
  0.00000000E+00  0.00000000E+00  0.00000000E+00
  0.00000000E+00  0.00000000E+00  0.00000000E+00
  0.00000000E+00  0.00000000E+00  0.00000000E+00
  0.00000000E+00  0.00000000E+00  0.00000000E+00
  0.00000000E+00  0.00000000E+00  0.00000000E+00
  0.00000000E+00  0.00000000E+00  0.00000000E+00
  0.00000000E+00  0.00000000E+00  0.00000000E+00
  0.00000000E+00  0.00000000E+00  0.00000000E+00
  0.00000000E+00  0.00000000E+00  0.00000000E+00
  0.00000000E+00  0.00000000E+00  0.00000000E+00
  0.00000000E+00  0.00000000E+00  0.00000000E+00
  0.00000000E+00  0.00000000E+00  0.00000000E+00
  0.00000000E+00  0.00000000E+00  0.00000000E+00
  0.00000000E+00  0.00000000E+00  0.00000000E+00
  0.00000000E+00  0.00000000E+00  0.00000000E+00
  0.00000000E+00  0.00000000E+00  0.00000000E+00
  0.00000000E+00  0.00000000E+00  0.00000000E+00
  0.00000000E+00  0.00000000E+00  0.00000000E+00
  0.00000000E+00  0.00000000E+00  0.00000000E+00
  0.00000000E+00  0.00000000E+00  0.00000000E+00
  0.00000000E+00  0.00000000E+00  0.00000000E+00
  0.00000000E+00  0.00000000E+00  0.00000000E+00
  0.00000000E+00  0.00000000E+00  0.00000000E+00
  0.00000000E+00  0.00000000E+00  0.00000000E+00
  0.00000000E+00  0.00000000E+00  0.00000000E+00
  0.00000000E+00  0.00000000E+00  0.00000000E+00
  0.00000000E+00  0.00000000E+00  0.00000000E+00
  0.00000000E+00  0.00000000E+00  0.00000000E+00
  0.00000000E+00  0.00000000E+00  0.00000000E+00
  0.00000000E+00  0.00000000E+00  0.00000000E+00
  0.00000000E+00  0.00000000E+00  0.00000000E+00
  0.00000000E+00  0.00000000E+00  0.00000000E+00
  0.00000000E+00  0.00000000E+00  0.00000000E+00
  0.00000000E+00  0.00000000E+00  0.00000000E+00
  0.00000000E+00  0.00000000E+00  0.00000000E+00
