SrTiFeO                                 
   1.00000000000000     
    11.1989999999999998    0.0000000000000000    0.0000000000000000
     0.0000000000000000   11.1989999999999998    0.0000000000000000
     0.0000000000000000    0.0000000000000000   15.9830000000000005
   Sr   Ti   Fe   O 
    32    31     1    94
Direct
  0.0004825649450166  0.2498779416739105  0.1245930178362032
  0.0021002414532833  0.2532702597479877  0.6282338223092928
  0.9994553504268265  0.7499463241086516  0.1248702806029723
  0.9945271709027893  0.7493289740852223  0.6257337670066508
  0.5009774084820993  0.2498581860520437  0.1228326147009980
  0.4983053712319891  0.2427169817550903  0.6320361328300590
  0.5007906301932635  0.7491037142629471  0.1246979292065856
  0.5013001001904179  0.7577366893813160  0.6274660218896690
  0.0021002414532833  0.2532702597479877  0.3717661776907073
  0.0004825649450166  0.2498779416739105  0.8754069821637971
  0.9945271709027893  0.7493289740852223  0.3742662329933497
  0.9994553504268265  0.7499463241086516  0.8751297193970281
  0.4983053712319891  0.2427169817550903  0.3679638671699408
  0.5009774084820993  0.2498581860520437  0.8771673852990023
  0.5013001001904179  0.7577366893813160  0.3725339781103307
  0.5007906301932635  0.7491037142629471  0.8753020707934146
  0.2494090405454017 -0.0003897149474289  0.1241097841129442
  0.2493832687930240  0.9947070992083021  0.6287499189312480
  0.2513792268613677  0.5004822181480130  0.1242737924533209
  0.2415709982671981  0.5047837901521124  0.6299818491561087
  0.7508738693371153  0.0001616230874628  0.1251178813373586
  0.7468995211895004  0.9936126526499599  0.6258397477261141
  0.7494455396363014  0.5004741353464364  0.1232243696627232
  0.7573766439458874  0.5022813352421495  0.6296816007020629
  0.2493832687930240  0.9947070992083021  0.3712500810687520
  0.2494090405454017 -0.0003897149474289  0.8758902158870554
  0.2415709982671981  0.5047837901521124  0.3700181508438912
  0.2513792268613677  0.5004822181480130  0.8757262075466794
  0.7468995211895004  0.9936126526499599  0.3741602522738857
  0.7508738693371153  0.0001616230874628  0.8748821186626415
  0.7573766439458874  0.5022813352421495  0.3703183992979367
  0.7494455396363014  0.5004741353464364  0.8767756303372770
  0.9998351813802971  0.0007659174618393 -0.0000000000000000
  0.9962182985733610  0.9913240137429895  0.5000000000000000
  0.0004988926109352  0.5000117957205047 -0.0000000000000000
  0.9993579808032143  0.5036759551481965  0.5000000000000000
  0.4996923746233907  0.9997330102601549 -0.0000000000000000
  0.5001823128300185 -0.0000600768263505  0.5000000000000000
  0.4998922708016673  0.5006308398504524 -0.0000000000000000
  0.2495946291784416  0.2493854888948936 -0.0000000000000000
  0.2427587850503703  0.2366485991295474  0.5000000000000000
  0.2500056547610398  0.7496212990099215 -0.0000000000000000
  0.2473363053316165  0.7516002228246264  0.5000000000000000
  0.7509558906121977  0.2496369721324933 -0.0000000000000000
  0.7496569650262399  0.7500766209104291 -0.0000000000000000
  0.2506762817362627  0.2507235393485398  0.2490056469161732
  0.2506762817362627  0.2507235393485398  0.7509943530838271
  0.2496738206872097  0.7500189027350920  0.2495749608363061
  0.2496738206872097  0.7500189027350920  0.7504250391636941
  0.7494131444624398  0.2507641273940273  0.2495714822897672
  0.7494131444624398  0.2507641273940273  0.7504285177102332
  0.7491426199892686  0.7497007920701664  0.2504822178234463
  0.7491426199892686  0.7497007920701664  0.7495177821765534
  0.9992731213562006  1.0001856853734832  0.2504301903179688
  0.9992731213562006  1.0001856853734832  0.7495698096820308
 -0.0001971286018092  0.5000532308715900  0.2481099360114048
 -0.0001971286018092  0.5000532308715900  0.7518900639885954
  0.4995245172584884  0.0000128299824078  0.2480973674354723
  0.4995245172584884  0.0000128299824078  0.7519026325645273
  0.4995441644511022  0.4982813934244725  0.2499611861074929
  0.4995441644511022  0.4982813934244725  0.7500388138925062
  0.7633339952310109  0.2425826250702283  0.5000000000000000
  0.5061510301367049  0.5145599187470813  0.5000000000000000
  0.7501196184508085  0.7484806370517257  0.5000000000000000
  0.1111455103191717  0.1417138488662443  0.2538973308069015
  0.1111455103191717  0.1417138488662443  0.7461026691930990
  0.1103823715349264  0.6394323263694418  0.2515130310163429
  0.1103823715349264  0.6394323263694418  0.7484869689836573
  0.6100955286448442  0.1399631082938884  0.2486388576317457
  0.6100955286448442  0.1399631082938884  0.7513611423682545
  0.6072967762984471  0.6377303404802253  0.2532345647308261
  0.6072967762984471  0.6377303404802253  0.7467654352691742
  0.3906818662772613  0.3581003200869489  0.2448042448491124
  0.3906818662772613  0.3581003200869489  0.7551957551508874
  0.3898318246290414  0.8599855266727705  0.2496802567137559
  0.3898318246290414  0.8599855266727705  0.7503197432862444
  0.8905345829552702  0.3594947770900262  0.2507882908239368
  0.8905345829552702  0.3594947770900262  0.7492117091760635
  0.8900055283741858  0.8616554517176793  0.2469804008048335
  0.8900055283741858  0.8616554517176793  0.7530195991951665
  0.3591248808227347  0.1102902476231276  0.2514386030446166
  0.3591248808227347  0.1102902476231276  0.7485613969553837
  0.3601695973173225  0.6085217127271935  0.2537994286675997
  0.3601695973173225  0.6085217127271935  0.7462005713324000
  0.8591730002671053  0.1114850147187562  0.2554035261374499
  0.8591730002671053  0.1114850147187562  0.7445964738625496
  0.8609285821317129  0.6095558724712058  0.2467003018778999
  0.8609285821317129  0.6095558724712058  0.7532996981220996
  0.1408386143184633  0.3901504063200905  0.2488236802570423
  0.1408386143184633  0.3901504063200905  0.7511763197429583
  0.1399180358684379  0.8903183122570638  0.2482423089222088
  0.1399180358684379  0.8903183122570638  0.7517576910777918
  0.6406980412703820  0.3911008073211746  0.2475235842121935
  0.6406980412703820  0.3911008073211746  0.7524764157878066
  0.6380908316561058  0.8903292128618893  0.2478525941742076
  0.6380908316561058  0.8903292128618893  0.7521474058257922
  0.3596623834796374  0.3897393516492524 -0.0000000000000000
  0.3588877992572714  0.8904524295918490 -0.0000000000000000
  0.3547187437837892  0.8960980635607764  0.5000000000000000
  0.8598756239242590  0.3905578549811787 -0.0000000000000000
  0.8597793873253565  0.8909926245803965 -0.0000000000000000
  0.8568278075638093  0.9019671320678319  0.5000000000000000
  0.1410870854402030  0.1089160203454176 -0.0000000000000000
  0.1458705877836368  0.1038932010776410  0.5000000000000000
  0.1406656534818582  0.6091547025032577 -0.0000000000000000
  0.1440892417194987  0.6080446169127234  0.5000000000000000
  0.6402147121948486  0.1098212160606670 -0.0000000000000000
  0.6399492703185877  0.1174395963481619  0.5000000000000000
  0.6400365707202061  0.6090805362072278 -0.0000000000000000
  0.1098412428174012  0.3588227579936615 -0.0000000000000000
  0.1214577451935772  0.3628984661638580  0.5000000000000000
  0.1091649859105124  0.8598230971323961 -0.0000000000000000
  0.1045258442229968  0.8545873347019938  0.5000000000000000
  0.6102192369619167  0.3601351876383568 -0.0000000000000000
  0.6086370754296238  0.8600904086772322 -0.0000000000000000
  0.6022224985459289  0.8633708716135331  0.5000000000000000
  0.3901978779559107  0.1410253715372846 -0.0000000000000000
  0.3961548272648929  0.1545931810610875  0.5000000000000000
  0.3905632710475024  0.6404498185658186 -0.0000000000000000
  0.8909669403149252  0.1410219606581181 -0.0000000000000000
  0.8991869587449738  0.1465965723713707  0.5000000000000000
  0.8907978509479093  0.6403484521896881 -0.0000000000000000
 -0.0001400554488539  0.0052082964422859  0.1256201948069049
  0.0025048570836888  0.9985326526949548  0.6246398672394714
  0.0014305206681187  0.4992216878489159  0.1245837964819606
  0.0011253737085685  0.4976035750194308  0.6259483509776449
  0.4975153797337379  0.0015934354805853  0.1246190799417776
  0.4987780376844989  0.0013920427530240  0.6256812047539160
  0.4988292801990172  0.5022474612557358  0.1253146542334989
  0.4935625643885786  0.4777030248758007  0.6198424877087558
  0.0025048570836888  0.9985326526949548  0.3753601327605282
 -0.0001400554488539  0.0052082964422859  0.8743798051930952
  0.0011253737085685  0.4976035750194308  0.3740516490223553
  0.0014305206681187  0.4992216878489159  0.8754162035180391
  0.4987780376844989  0.0013920427530240  0.3743187952460843
  0.4975153797337379  0.0015934354805853  0.8753809200582224
  0.4988292801990172  0.5022474612557358  0.8746853457665080
  0.2585497901319094  0.2616759542187052  0.3774999937163288
  0.2480182477669593  0.2474798629598682  0.8750112760720156
  0.2500968499128238  0.7528279614385239  0.3753702219883770
  0.2507099979979560  0.7475467692413492  0.8745599327346273
  0.7520676358097786  0.2485305200180042  0.8744529932099697
  0.7473619948576198  0.7486339775192288  0.8762275844210584
  0.2480182477669593  0.2474798629598682  0.1249887239279844
  0.2585497901319094  0.2616759542187052  0.6225000062836711
  0.2507099979979560  0.7475467692413492  0.1254400672653725
  0.2500968499128238  0.7528279614385239  0.6246297780116228
  0.7520676358097786  0.2485305200180042  0.1255470067900305
  0.7400360491859403  0.2607558573285938  0.6215789058240178
  0.7473619948576198  0.7486339775192288  0.1237724155789415
  0.7503741832440554  0.7510316744226041  0.6313500106965650
  0.7400360491859403  0.2607558573285938  0.3784210941759825
  0.8576216483516839  0.3914313367350638  0.5000000000000000
  0.3876321963551058  0.6377614129035544  0.5000000000000000
  0.4935625643885786  0.4777030248758007  0.3801575122912443
  0.8995458246504401  0.6393353742286776  0.5000000000000000
  0.7503741832440554  0.7510316744226041  0.3686499893034348
  0.6538813881894709  0.5838677097146142  0.5000000000000000
 
  0.00000000E+00  0.00000000E+00  0.00000000E+00
  0.00000000E+00  0.00000000E+00  0.00000000E+00
  0.00000000E+00  0.00000000E+00  0.00000000E+00
  0.00000000E+00  0.00000000E+00  0.00000000E+00
  0.00000000E+00  0.00000000E+00  0.00000000E+00
  0.00000000E+00  0.00000000E+00  0.00000000E+00
  0.00000000E+00  0.00000000E+00  0.00000000E+00
  0.00000000E+00  0.00000000E+00  0.00000000E+00
  0.00000000E+00  0.00000000E+00  0.00000000E+00
  0.00000000E+00  0.00000000E+00  0.00000000E+00
  0.00000000E+00  0.00000000E+00  0.00000000E+00
  0.00000000E+00  0.00000000E+00  0.00000000E+00
  0.00000000E+00  0.00000000E+00  0.00000000E+00
  0.00000000E+00  0.00000000E+00  0.00000000E+00
  0.00000000E+00  0.00000000E+00  0.00000000E+00
  0.00000000E+00  0.00000000E+00  0.00000000E+00
  0.00000000E+00  0.00000000E+00  0.00000000E+00
  0.00000000E+00  0.00000000E+00  0.00000000E+00
  0.00000000E+00  0.00000000E+00  0.00000000E+00
  0.00000000E+00  0.00000000E+00  0.00000000E+00
  0.00000000E+00  0.00000000E+00  0.00000000E+00
  0.00000000E+00  0.00000000E+00  0.00000000E+00
  0.00000000E+00  0.00000000E+00  0.00000000E+00
  0.00000000E+00  0.00000000E+00  0.00000000E+00
  0.00000000E+00  0.00000000E+00  0.00000000E+00
  0.00000000E+00  0.00000000E+00  0.00000000E+00
  0.00000000E+00  0.00000000E+00  0.00000000E+00
  0.00000000E+00  0.00000000E+00  0.00000000E+00
  0.00000000E+00  0.00000000E+00  0.00000000E+00
  0.00000000E+00  0.00000000E+00  0.00000000E+00
  0.00000000E+00  0.00000000E+00  0.00000000E+00
  0.00000000E+00  0.00000000E+00  0.00000000E+00
  0.00000000E+00  0.00000000E+00  0.00000000E+00
  0.00000000E+00  0.00000000E+00  0.00000000E+00
  0.00000000E+00  0.00000000E+00  0.00000000E+00
  0.00000000E+00  0.00000000E+00  0.00000000E+00
  0.00000000E+00  0.00000000E+00  0.00000000E+00
  0.00000000E+00  0.00000000E+00  0.00000000E+00
  0.00000000E+00  0.00000000E+00  0.00000000E+00
  0.00000000E+00  0.00000000E+00  0.00000000E+00
  0.00000000E+00  0.00000000E+00  0.00000000E+00
  0.00000000E+00  0.00000000E+00  0.00000000E+00
  0.00000000E+00  0.00000000E+00  0.00000000E+00
  0.00000000E+00  0.00000000E+00  0.00000000E+00
  0.00000000E+00  0.00000000E+00  0.00000000E+00
  0.00000000E+00  0.00000000E+00  0.00000000E+00
  0.00000000E+00  0.00000000E+00  0.00000000E+00
  0.00000000E+00  0.00000000E+00  0.00000000E+00
  0.00000000E+00  0.00000000E+00  0.00000000E+00
  0.00000000E+00  0.00000000E+00  0.00000000E+00
  0.00000000E+00  0.00000000E+00  0.00000000E+00
  0.00000000E+00  0.00000000E+00  0.00000000E+00
  0.00000000E+00  0.00000000E+00  0.00000000E+00
  0.00000000E+00  0.00000000E+00  0.00000000E+00
  0.00000000E+00  0.00000000E+00  0.00000000E+00
  0.00000000E+00  0.00000000E+00  0.00000000E+00
  0.00000000E+00  0.00000000E+00  0.00000000E+00
  0.00000000E+00  0.00000000E+00  0.00000000E+00
  0.00000000E+00  0.00000000E+00  0.00000000E+00
  0.00000000E+00  0.00000000E+00  0.00000000E+00
  0.00000000E+00  0.00000000E+00  0.00000000E+00
  0.00000000E+00  0.00000000E+00  0.00000000E+00
  0.00000000E+00  0.00000000E+00  0.00000000E+00
  0.00000000E+00  0.00000000E+00  0.00000000E+00
  0.00000000E+00  0.00000000E+00  0.00000000E+00
  0.00000000E+00  0.00000000E+00  0.00000000E+00
  0.00000000E+00  0.00000000E+00  0.00000000E+00
  0.00000000E+00  0.00000000E+00  0.00000000E+00
  0.00000000E+00  0.00000000E+00  0.00000000E+00
  0.00000000E+00  0.00000000E+00  0.00000000E+00
  0.00000000E+00  0.00000000E+00  0.00000000E+00
  0.00000000E+00  0.00000000E+00  0.00000000E+00
  0.00000000E+00  0.00000000E+00  0.00000000E+00
  0.00000000E+00  0.00000000E+00  0.00000000E+00
  0.00000000E+00  0.00000000E+00  0.00000000E+00
  0.00000000E+00  0.00000000E+00  0.00000000E+00
  0.00000000E+00  0.00000000E+00  0.00000000E+00
  0.00000000E+00  0.00000000E+00  0.00000000E+00
  0.00000000E+00  0.00000000E+00  0.00000000E+00
  0.00000000E+00  0.00000000E+00  0.00000000E+00
  0.00000000E+00  0.00000000E+00  0.00000000E+00
  0.00000000E+00  0.00000000E+00  0.00000000E+00
  0.00000000E+00  0.00000000E+00  0.00000000E+00
  0.00000000E+00  0.00000000E+00  0.00000000E+00
  0.00000000E+00  0.00000000E+00  0.00000000E+00
  0.00000000E+00  0.00000000E+00  0.00000000E+00
  0.00000000E+00  0.00000000E+00  0.00000000E+00
  0.00000000E+00  0.00000000E+00  0.00000000E+00
  0.00000000E+00  0.00000000E+00  0.00000000E+00
  0.00000000E+00  0.00000000E+00  0.00000000E+00
  0.00000000E+00  0.00000000E+00  0.00000000E+00
  0.00000000E+00  0.00000000E+00  0.00000000E+00
  0.00000000E+00  0.00000000E+00  0.00000000E+00
  0.00000000E+00  0.00000000E+00  0.00000000E+00
  0.00000000E+00  0.00000000E+00  0.00000000E+00
  0.00000000E+00  0.00000000E+00  0.00000000E+00
  0.00000000E+00  0.00000000E+00  0.00000000E+00
  0.00000000E+00  0.00000000E+00  0.00000000E+00
  0.00000000E+00  0.00000000E+00  0.00000000E+00
  0.00000000E+00  0.00000000E+00  0.00000000E+00
  0.00000000E+00  0.00000000E+00  0.00000000E+00
  0.00000000E+00  0.00000000E+00  0.00000000E+00
  0.00000000E+00  0.00000000E+00  0.00000000E+00
  0.00000000E+00  0.00000000E+00  0.00000000E+00
  0.00000000E+00  0.00000000E+00  0.00000000E+00
  0.00000000E+00  0.00000000E+00  0.00000000E+00
  0.00000000E+00  0.00000000E+00  0.00000000E+00
  0.00000000E+00  0.00000000E+00  0.00000000E+00
  0.00000000E+00  0.00000000E+00  0.00000000E+00
  0.00000000E+00  0.00000000E+00  0.00000000E+00
  0.00000000E+00  0.00000000E+00  0.00000000E+00
  0.00000000E+00  0.00000000E+00  0.00000000E+00
  0.00000000E+00  0.00000000E+00  0.00000000E+00
  0.00000000E+00  0.00000000E+00  0.00000000E+00
  0.00000000E+00  0.00000000E+00  0.00000000E+00
  0.00000000E+00  0.00000000E+00  0.00000000E+00
  0.00000000E+00  0.00000000E+00  0.00000000E+00
  0.00000000E+00  0.00000000E+00  0.00000000E+00
  0.00000000E+00  0.00000000E+00  0.00000000E+00
  0.00000000E+00  0.00000000E+00  0.00000000E+00
  0.00000000E+00  0.00000000E+00  0.00000000E+00
  0.00000000E+00  0.00000000E+00  0.00000000E+00
  0.00000000E+00  0.00000000E+00  0.00000000E+00
  0.00000000E+00  0.00000000E+00  0.00000000E+00
  0.00000000E+00  0.00000000E+00  0.00000000E+00
  0.00000000E+00  0.00000000E+00  0.00000000E+00
  0.00000000E+00  0.00000000E+00  0.00000000E+00
  0.00000000E+00  0.00000000E+00  0.00000000E+00
  0.00000000E+00  0.00000000E+00  0.00000000E+00
  0.00000000E+00  0.00000000E+00  0.00000000E+00
  0.00000000E+00  0.00000000E+00  0.00000000E+00
  0.00000000E+00  0.00000000E+00  0.00000000E+00
  0.00000000E+00  0.00000000E+00  0.00000000E+00
  0.00000000E+00  0.00000000E+00  0.00000000E+00
  0.00000000E+00  0.00000000E+00  0.00000000E+00
  0.00000000E+00  0.00000000E+00  0.00000000E+00
  0.00000000E+00  0.00000000E+00  0.00000000E+00
  0.00000000E+00  0.00000000E+00  0.00000000E+00
  0.00000000E+00  0.00000000E+00  0.00000000E+00
  0.00000000E+00  0.00000000E+00  0.00000000E+00
  0.00000000E+00  0.00000000E+00  0.00000000E+00
  0.00000000E+00  0.00000000E+00  0.00000000E+00
  0.00000000E+00  0.00000000E+00  0.00000000E+00
  0.00000000E+00  0.00000000E+00  0.00000000E+00
  0.00000000E+00  0.00000000E+00  0.00000000E+00
  0.00000000E+00  0.00000000E+00  0.00000000E+00
  0.00000000E+00  0.00000000E+00  0.00000000E+00
  0.00000000E+00  0.00000000E+00  0.00000000E+00
  0.00000000E+00  0.00000000E+00  0.00000000E+00
  0.00000000E+00  0.00000000E+00  0.00000000E+00
  0.00000000E+00  0.00000000E+00  0.00000000E+00
  0.00000000E+00  0.00000000E+00  0.00000000E+00
  0.00000000E+00  0.00000000E+00  0.00000000E+00
  0.00000000E+00  0.00000000E+00  0.00000000E+00
  0.00000000E+00  0.00000000E+00  0.00000000E+00
  0.00000000E+00  0.00000000E+00  0.00000000E+00
  0.00000000E+00  0.00000000E+00  0.00000000E+00
  0.00000000E+00  0.00000000E+00  0.00000000E+00
