Sr   Ti   Fe   O                        
   1.00000000000000     
    11.1989999999999998    0.0000000000000000    0.0000000000000000
     0.0000000000000000   11.1989999999999998    0.0000000000000000
     0.0000000000000000    0.0000000000000000   15.9830000000000005
   Sr   Ti   Fe   O 
    32    31     1    94
Direct
  0.9994771180347195  0.2493751625493191  0.1248711818347042
  0.0020017455633257  0.2486818322619924  0.6240387475136157
  0.9984131769951586  0.7508114873740768  0.1257864415127082
  0.9980778473150613  0.7509602173402044  0.6228354938848114
  0.4989881395698990  0.2499210129599616  0.1260542525249623
  0.4999761913090353  0.2365427531697901  0.6197750607517711
  0.4997208009984060  0.7508883472175182  0.1232656395036845
  0.4997761714927096  0.7569321042051327  0.6236947647133281
  0.9991901193645243  0.2486973853319714  0.3762828070187370
  0.0021188225394920  0.2509207594593661  0.8756928734079903
  0.9949441577603914  0.7493496037625269  0.3786135542942791
  1.0003076380890144  0.7506791188984447  0.8750573338304601
  0.5008243805373039  0.2424624865710359  0.3726101565896807
  0.4990808124586908  0.2475309255589192  0.8780659214930008
  0.4975766444256451  0.7534553653154912  0.3710309063065173
  0.5025099981789048  0.7521594526247425  0.8755851612768206
  0.2493146166263711  1.0001919106053188  0.1248974108351893
  0.2485892249307798  0.9988472477772405  0.6236297467342335
  0.2503924134623490  0.5007423465269085  0.1248835123942466
  0.2369340813098586  0.5006358635876373  0.6251482288464266
  0.7499229052018569  0.9989247573511769  0.1254495816140600
  0.7517024456432153  0.9929890122909999  0.6215135845074747
  0.7495285193692902  0.5005582699795558  0.1249233735652712
  0.7694122562388210  0.5007092992056482  0.6266573411634007
  0.2481336713889897  0.9995646481130425  0.3750561220202639
  0.2505222589198379  0.9995813191324624  0.8754147401743803
  0.2441496690690885  0.5014601776956819  0.3741858257556497
  0.2493470472432989  0.5015200006178496  0.8765224698781973
  0.7499689043375871  0.9979880864243823  0.3761619710122944
  0.7508978311405016  0.9958155538415583  0.8760697739697443
  0.7564449411541931  0.4965376136759799  0.3709626129540984
  0.7551994080290435  0.5049003478060813  0.8787532653437079
  0.9999935689674596  0.0003559690501760  0.9997260904288426
  0.9979974024229805  0.9989820965050459  0.4996656511648348
  0.0006925807669066  0.4999508964024503  0.0007256882876988
  0.9985784658178737  0.5005536193108662  0.4991937305138466
  0.5001838792752282  0.0001871624199835  0.0001833540973387
  0.5003067643485316  0.9960787115364884  0.4986296006613768
  0.5003866656887416  0.4990504924264190  0.9997664522801456
  0.2507847867775531  0.2508708484922048  0.0000973543040767
  0.2479353834197432  0.2471001633015363  0.5001482481565562
  0.2503672578078108  0.7499253818211042  0.9997927985401108
  0.2494218062098520  0.7503592105796479  0.4994774271252234
  0.7493765762307202  0.2506740441990497  0.0002024008712803
  0.7484254507866258  0.2501099237039834  0.4998782210732992
  0.7504832831504503  0.7504883099770676  0.0007376208129945
  0.2498037206962696  0.2508168962401434  0.2501273136726156
  0.2514944624825518  0.2492694233133728  0.7486923223861854
  0.2486323310809362  0.7501312072252232  0.2499439885588873
  0.2513516130130058  0.7495220039061617  0.7492103191355720
  0.7502375295205811  0.2487167724765172  0.2497557844898791
  0.7535150943486808  0.2425575629181097  0.7499977362255965
  0.7483821319812102  0.7484832259307699  0.2522935926282713
  0.7516534942122027  0.7502380948158769  0.7484749509011714
  0.9992805370176948 -0.0000168316115310  0.2506353752858297
  0.0036291277842584  0.9979794480590465  0.7503501919277059
  0.0002778860573014  0.4999125404826643  0.2493003024872423
  0.0017276711934663  0.5008770666805972  0.7517096040267233
  0.4995959672344958  0.9996246879057751  0.2492207912359292
  0.4995995091098572  0.0003440973801450  0.7503651955390889
  0.5005223336528773  0.5012075097248012  0.2475663608455479
  0.4998668144144122  0.5014601117984070  0.7529929358345591
  0.4934951447570476  0.4944126982116775  0.4933148464421129
  0.7497453693644169  0.7519857195249513  0.5012280582946957
  0.1099162461021726  0.1422265972222211  0.2496818499559466
  0.1080965593999636  0.1431007974809294  0.7528142937592632
  0.1084008357517051  0.6410120773627531  0.2502232925172467
  0.1097387401925053  0.6410026914448765  0.7497466760192479
  0.6090666371328147  0.1405961144208696  0.2484964979846846
  0.6056073908763302  0.1460702532236351  0.7510683417960934
  0.6079178476861450  0.6409251419647652  0.2422325658104228
  0.3923127727854190  0.3610271190267306  0.2539454899861254
  0.3995162777927646  0.3580424918447824  0.7364201904799567
  0.3899508761477851  0.8598934233565084  0.2485337308982656
  0.3912042876505549  0.8594303881733768  0.7512324414142993
  0.8905221513706993  0.3592400229999586  0.2510622300495276
  0.8830499898589800  0.3640895221124922  0.7498868831479214
  0.8899260207596339  0.8590582738457190  0.2538611204119769
  0.8927476507329756  0.8607685886681320  0.7526239500799125
  0.3591934005431429  0.1104032167747239  0.2494590391368526
  0.3574538642117914  0.1079763187260568  0.7506368073407534
  0.3585133305053338  0.6088632488685477  0.2519702879109469
  0.3577182015803432  0.6104252437533028  0.7429710725259024
  0.8587328339482130  0.1084080906895491  0.2500207907929319
  0.8577393311323517  0.1075148380503362  0.7498067807628789
  0.8595210641767097  0.6079078957283038  0.2483206579930588
  0.8643638835993974  0.6112835412008230  0.7529006822074631
  0.1414652773555597  0.3916985154836828  0.2485832564085465
  0.1422412451783105  0.3907544667295763  0.7519792343097956
  0.1399835960414194  0.8914227637375812  0.2481305269885749
  0.1423929386523809  0.8923225471495692  0.7514762744681132
  0.6410796011515808  0.3905609441991510  0.2492289930409355
  0.6397746275632149  0.8907839363488438  0.2506003187401398
  0.6394175905459564  0.8908148524221223  0.7510973065179469
  0.3586859042203120  0.3910954982109074  1.0006697531169571
  0.3595305984293053  0.8904857391256453 -0.0001037289877802
  0.3562603518070336  0.8919339765271005  0.4996055154709859
  0.8595758189088841  0.3908276629351211  0.0000707351736783
  0.8597350617628824  0.3870108419157777  0.4989351029431071
  0.8600096713392932  0.8912898328850756  0.9998041265835740
  0.8647228965960215  0.8961595346439223  0.4967119570893400
  0.1409498876296933  0.1108372187260807  0.9994154497748083
  0.1412251891278062  0.1107755153246907  0.4987008534725970
  0.1407883759958127  0.6090754001624075  0.0000059336443802
  0.1377707903715004  0.6108725474288154  0.4990941480502318
  0.6410142766853555  0.1093479837282558  0.9988923314153855
  0.6405607983399413  0.1081659853475914  0.5010896349171337
  0.6403662941287166  0.6092086185007376  0.0012151112620767
  0.1096756417652058  0.3589685915870881  0.9998601809867552
  0.1114237854998945  0.3596113814439663  0.4998948700893406
  0.1097062500374302  0.8598394193239245  0.0003552755835487
  0.1090997937295431  0.8603858106216523  0.4986290824682327
  0.6093040270303083  0.3578285635437372  0.0056949254259340
  0.6091470744856935  0.8598164285092643  0.9998650967846404
  0.6002859660808459  0.8588547968718521  0.4981809753652094
  0.3905764680505247  0.1405560802139556  0.0005423589304862
  0.3892365089589679  0.1412694131900318  0.4985809296855860
  0.3910552322334163  0.6405139424173627  0.9986009011665897
  0.3851137841430537  0.6388554967592390  0.4968750440517049
  0.8898615349450505  0.1416443119771621  0.9965279659896362
  0.8897241437722279  0.1425204359221769  0.5033580951272768
  0.8907444446129550  0.6397827575710520  0.9990264601507587
  0.9981216513840367  0.0015775662928986  0.1247404175995097
  0.0026409749551604  0.0008042099313820  0.6260872451477438
  0.0003299473199373  0.4993303490527894  0.1245883589442495
  0.0040007046391660  0.4964048135979969  0.6263276103102929
  0.5002487460442476  0.0002253153069621  0.1244623527514467
  0.4985815788616494  0.0015722197542032  0.6255946037493428
  0.4957134755630743  0.4988108185167858  0.1254280965651030
  0.0022315066051295  0.0052051574093600  0.3740800253035733
  0.0009623066686535  1.0005579102782050  0.8754778947031663
  0.0014129464970535  0.4987002325184879  0.3740229571773713
  0.0019253389794298  0.4982803118836203  0.8757040883636530
  0.4984367985735272  0.0024086063413961  0.3736199110903445
  0.4994667212119339  0.0004986066622502  0.8753610683469324
  0.5049023212238927  0.4896329242963599  0.8776340956017090
  0.2523188999277002  0.2551949869883246  0.3756442955589157
  0.2563211799927831  0.2544393118347542  0.8740599939575058
  0.2481895042105673  0.7523350879582288  0.3738121240822981
  0.2506134675655045  0.7481918720683587  0.8746742990416089
  0.7503195533473358  0.2470674119696635  0.3745117122012024
  0.7420526962138679  0.2600366903699061  0.8732244644919819
  0.7391467639886308  0.7359653941171590  0.3730529315922869
  0.7491346031294168  0.7508518694285997  0.8763976281502620
  0.2520170867983592  0.2516074503445673  0.1252578066650204
  0.2436294695971642  0.2444034005291362  0.6256680962947851
  0.2504206262906286  0.7485811647550822  0.1247163742585822
  0.2462638375356769  0.7535523032606036  0.6241536960959050
  0.7533755584699690  0.2479140398724607  0.1248852592414424
  0.7411914607646702  0.2586600633158529  0.6267589792944727
  0.7528231425276688  0.7524531700416811  0.1243623739070272
  0.6170895095225218  0.6317112802047012  0.7512031871862739
  0.5157004141704451  0.5151091975299574  0.3757872617148530
  0.6049148859001164  0.3555112423803170  0.4942127584267102
  0.3605402311584244  0.3923162126827985  0.5134893432957431
  0.7549829733637871  0.7542254879632893  0.6293237423175231
  0.8873282090687040  0.6290634618963199  0.5025896833110700
  0.5839888025605707  0.5695836470586201  0.5737168612049536
 
  0.00000000E+00  0.00000000E+00  0.00000000E+00
  0.00000000E+00  0.00000000E+00  0.00000000E+00
  0.00000000E+00  0.00000000E+00  0.00000000E+00
  0.00000000E+00  0.00000000E+00  0.00000000E+00
  0.00000000E+00  0.00000000E+00  0.00000000E+00
  0.00000000E+00  0.00000000E+00  0.00000000E+00
  0.00000000E+00  0.00000000E+00  0.00000000E+00
  0.00000000E+00  0.00000000E+00  0.00000000E+00
  0.00000000E+00  0.00000000E+00  0.00000000E+00
  0.00000000E+00  0.00000000E+00  0.00000000E+00
  0.00000000E+00  0.00000000E+00  0.00000000E+00
  0.00000000E+00  0.00000000E+00  0.00000000E+00
  0.00000000E+00  0.00000000E+00  0.00000000E+00
  0.00000000E+00  0.00000000E+00  0.00000000E+00
  0.00000000E+00  0.00000000E+00  0.00000000E+00
  0.00000000E+00  0.00000000E+00  0.00000000E+00
  0.00000000E+00  0.00000000E+00  0.00000000E+00
  0.00000000E+00  0.00000000E+00  0.00000000E+00
  0.00000000E+00  0.00000000E+00  0.00000000E+00
  0.00000000E+00  0.00000000E+00  0.00000000E+00
  0.00000000E+00  0.00000000E+00  0.00000000E+00
  0.00000000E+00  0.00000000E+00  0.00000000E+00
  0.00000000E+00  0.00000000E+00  0.00000000E+00
  0.00000000E+00  0.00000000E+00  0.00000000E+00
  0.00000000E+00  0.00000000E+00  0.00000000E+00
  0.00000000E+00  0.00000000E+00  0.00000000E+00
  0.00000000E+00  0.00000000E+00  0.00000000E+00
  0.00000000E+00  0.00000000E+00  0.00000000E+00
  0.00000000E+00  0.00000000E+00  0.00000000E+00
  0.00000000E+00  0.00000000E+00  0.00000000E+00
  0.00000000E+00  0.00000000E+00  0.00000000E+00
  0.00000000E+00  0.00000000E+00  0.00000000E+00
  0.00000000E+00  0.00000000E+00  0.00000000E+00
  0.00000000E+00  0.00000000E+00  0.00000000E+00
  0.00000000E+00  0.00000000E+00  0.00000000E+00
  0.00000000E+00  0.00000000E+00  0.00000000E+00
  0.00000000E+00  0.00000000E+00  0.00000000E+00
  0.00000000E+00  0.00000000E+00  0.00000000E+00
  0.00000000E+00  0.00000000E+00  0.00000000E+00
  0.00000000E+00  0.00000000E+00  0.00000000E+00
  0.00000000E+00  0.00000000E+00  0.00000000E+00
  0.00000000E+00  0.00000000E+00  0.00000000E+00
  0.00000000E+00  0.00000000E+00  0.00000000E+00
  0.00000000E+00  0.00000000E+00  0.00000000E+00
  0.00000000E+00  0.00000000E+00  0.00000000E+00
  0.00000000E+00  0.00000000E+00  0.00000000E+00
  0.00000000E+00  0.00000000E+00  0.00000000E+00
  0.00000000E+00  0.00000000E+00  0.00000000E+00
  0.00000000E+00  0.00000000E+00  0.00000000E+00
  0.00000000E+00  0.00000000E+00  0.00000000E+00
  0.00000000E+00  0.00000000E+00  0.00000000E+00
  0.00000000E+00  0.00000000E+00  0.00000000E+00
  0.00000000E+00  0.00000000E+00  0.00000000E+00
  0.00000000E+00  0.00000000E+00  0.00000000E+00
  0.00000000E+00  0.00000000E+00  0.00000000E+00
  0.00000000E+00  0.00000000E+00  0.00000000E+00
  0.00000000E+00  0.00000000E+00  0.00000000E+00
  0.00000000E+00  0.00000000E+00  0.00000000E+00
  0.00000000E+00  0.00000000E+00  0.00000000E+00
  0.00000000E+00  0.00000000E+00  0.00000000E+00
  0.00000000E+00  0.00000000E+00  0.00000000E+00
  0.00000000E+00  0.00000000E+00  0.00000000E+00
  0.00000000E+00  0.00000000E+00  0.00000000E+00
  0.00000000E+00  0.00000000E+00  0.00000000E+00
  0.00000000E+00  0.00000000E+00  0.00000000E+00
  0.00000000E+00  0.00000000E+00  0.00000000E+00
  0.00000000E+00  0.00000000E+00  0.00000000E+00
  0.00000000E+00  0.00000000E+00  0.00000000E+00
  0.00000000E+00  0.00000000E+00  0.00000000E+00
  0.00000000E+00  0.00000000E+00  0.00000000E+00
  0.00000000E+00  0.00000000E+00  0.00000000E+00
  0.00000000E+00  0.00000000E+00  0.00000000E+00
  0.00000000E+00  0.00000000E+00  0.00000000E+00
  0.00000000E+00  0.00000000E+00  0.00000000E+00
  0.00000000E+00  0.00000000E+00  0.00000000E+00
  0.00000000E+00  0.00000000E+00  0.00000000E+00
  0.00000000E+00  0.00000000E+00  0.00000000E+00
  0.00000000E+00  0.00000000E+00  0.00000000E+00
  0.00000000E+00  0.00000000E+00  0.00000000E+00
  0.00000000E+00  0.00000000E+00  0.00000000E+00
  0.00000000E+00  0.00000000E+00  0.00000000E+00
  0.00000000E+00  0.00000000E+00  0.00000000E+00
  0.00000000E+00  0.00000000E+00  0.00000000E+00
  0.00000000E+00  0.00000000E+00  0.00000000E+00
  0.00000000E+00  0.00000000E+00  0.00000000E+00
  0.00000000E+00  0.00000000E+00  0.00000000E+00
  0.00000000E+00  0.00000000E+00  0.00000000E+00
  0.00000000E+00  0.00000000E+00  0.00000000E+00
  0.00000000E+00  0.00000000E+00  0.00000000E+00
  0.00000000E+00  0.00000000E+00  0.00000000E+00
  0.00000000E+00  0.00000000E+00  0.00000000E+00
  0.00000000E+00  0.00000000E+00  0.00000000E+00
  0.00000000E+00  0.00000000E+00  0.00000000E+00
  0.00000000E+00  0.00000000E+00  0.00000000E+00
  0.00000000E+00  0.00000000E+00  0.00000000E+00
  0.00000000E+00  0.00000000E+00  0.00000000E+00
  0.00000000E+00  0.00000000E+00  0.00000000E+00
  0.00000000E+00  0.00000000E+00  0.00000000E+00
  0.00000000E+00  0.00000000E+00  0.00000000E+00
  0.00000000E+00  0.00000000E+00  0.00000000E+00
  0.00000000E+00  0.00000000E+00  0.00000000E+00
  0.00000000E+00  0.00000000E+00  0.00000000E+00
  0.00000000E+00  0.00000000E+00  0.00000000E+00
  0.00000000E+00  0.00000000E+00  0.00000000E+00
  0.00000000E+00  0.00000000E+00  0.00000000E+00
  0.00000000E+00  0.00000000E+00  0.00000000E+00
  0.00000000E+00  0.00000000E+00  0.00000000E+00
  0.00000000E+00  0.00000000E+00  0.00000000E+00
  0.00000000E+00  0.00000000E+00  0.00000000E+00
  0.00000000E+00  0.00000000E+00  0.00000000E+00
  0.00000000E+00  0.00000000E+00  0.00000000E+00
  0.00000000E+00  0.00000000E+00  0.00000000E+00
  0.00000000E+00  0.00000000E+00  0.00000000E+00
  0.00000000E+00  0.00000000E+00  0.00000000E+00
  0.00000000E+00  0.00000000E+00  0.00000000E+00
  0.00000000E+00  0.00000000E+00  0.00000000E+00
  0.00000000E+00  0.00000000E+00  0.00000000E+00
  0.00000000E+00  0.00000000E+00  0.00000000E+00
  0.00000000E+00  0.00000000E+00  0.00000000E+00
  0.00000000E+00  0.00000000E+00  0.00000000E+00
  0.00000000E+00  0.00000000E+00  0.00000000E+00
  0.00000000E+00  0.00000000E+00  0.00000000E+00
  0.00000000E+00  0.00000000E+00  0.00000000E+00
  0.00000000E+00  0.00000000E+00  0.00000000E+00
  0.00000000E+00  0.00000000E+00  0.00000000E+00
  0.00000000E+00  0.00000000E+00  0.00000000E+00
  0.00000000E+00  0.00000000E+00  0.00000000E+00
  0.00000000E+00  0.00000000E+00  0.00000000E+00
  0.00000000E+00  0.00000000E+00  0.00000000E+00
  0.00000000E+00  0.00000000E+00  0.00000000E+00
  0.00000000E+00  0.00000000E+00  0.00000000E+00
  0.00000000E+00  0.00000000E+00  0.00000000E+00
  0.00000000E+00  0.00000000E+00  0.00000000E+00
  0.00000000E+00  0.00000000E+00  0.00000000E+00
  0.00000000E+00  0.00000000E+00  0.00000000E+00
  0.00000000E+00  0.00000000E+00  0.00000000E+00
  0.00000000E+00  0.00000000E+00  0.00000000E+00
  0.00000000E+00  0.00000000E+00  0.00000000E+00
  0.00000000E+00  0.00000000E+00  0.00000000E+00
  0.00000000E+00  0.00000000E+00  0.00000000E+00
  0.00000000E+00  0.00000000E+00  0.00000000E+00
  0.00000000E+00  0.00000000E+00  0.00000000E+00
  0.00000000E+00  0.00000000E+00  0.00000000E+00
  0.00000000E+00  0.00000000E+00  0.00000000E+00
  0.00000000E+00  0.00000000E+00  0.00000000E+00
  0.00000000E+00  0.00000000E+00  0.00000000E+00
  0.00000000E+00  0.00000000E+00  0.00000000E+00
  0.00000000E+00  0.00000000E+00  0.00000000E+00
  0.00000000E+00  0.00000000E+00  0.00000000E+00
  0.00000000E+00  0.00000000E+00  0.00000000E+00
  0.00000000E+00  0.00000000E+00  0.00000000E+00
  0.00000000E+00  0.00000000E+00  0.00000000E+00
  0.00000000E+00  0.00000000E+00  0.00000000E+00
  0.00000000E+00  0.00000000E+00  0.00000000E+00
  0.00000000E+00  0.00000000E+00  0.00000000E+00
  0.00000000E+00  0.00000000E+00  0.00000000E+00
  0.00000000E+00  0.00000000E+00  0.00000000E+00
  0.00000000E+00  0.00000000E+00  0.00000000E+00
