SrTiFeO                                 
   1.00000000000000     
    11.1989999999999998    0.0000000000000000    0.0000000000000000
     0.0000000000000000   11.1989999999999998    0.0000000000000000
     0.0000000000000000    0.0000000000000000   15.9830000000000005
   Sr   Ti   Fe   O 
    32    31     1    94
Direct
  0.9990935011703406  0.2495755236294004  0.1247813485180456
  0.0021756428832456  0.2506962200019746  0.6246550474969372
  0.9985445627849380  0.7503683611279632  0.1257836096617028
  0.9980122057435489  0.7489689032376025  0.6227673677581504
  0.4996531090932943  0.2503088588852990  0.1264039166515017
  0.5008325109686268  0.2436902250173653  0.6223609362532661
  0.4991129822913412  0.7504239149524103  0.1231474020431432
  0.5009936879797195  0.7548915746659485  0.6276590569427473
  0.9992765563737736  0.2487361967229421  0.3750500419428173
  0.0018549830332538  0.2515739878046003  0.8760089997364022
  0.9974659429931571  0.7483511378906793  0.3767164884986117
  0.9988889028295392  0.7508087661251687  0.8750596351513622
  0.5022587096543824  0.2451866815095507  0.3736857701277375
  0.4985124363853871  0.2488696963698310  0.8778798678578261
  0.4981020417610451  0.7526953008529772  0.3709686653649167
  0.5017267548241875  0.7528216877144133  0.8766880996807243
  0.2497494386386893  0.9994177061559453  0.1251484534871794
  0.2498827364920945  0.9991670433300407  0.6246831524722830
  0.2505352019595891  0.5005904984449232  0.1248039185391068
  0.2408758196303514  0.5001709034896257  0.6260191673195735
  0.7494822693509973  0.9989819896308438  0.1253012757444554
  0.7492797255091258  0.9935704415964741  0.6222757745168837
  0.7487547800919574  0.5003819340994101  0.1249172658364482
  0.7613550519166755  0.4994123588545913  0.6259346901978690
  0.2493060826687319  0.9990144172823482  0.3739947086865111
  0.2503919915874588 -0.0000062706328109  0.8763919816196281
  0.2439556193554928  0.5000118961496083  0.3719944895841352
  0.2479430694504623  0.5006564446209759  0.8773404618483329
  0.7496326888288194  0.9988480890457149  0.3752543198217583
  0.7499878841449250  0.9960685507115972  0.8767049443303204
  0.7556848254311860  0.4946297274790037  0.3705318557091115
  0.7530645962663959  0.5046681077197462  0.8783028779657168
  0.9996491567506663  1.0000765473798598  0.9999301659859681
  0.9981953246813052  0.9988305325714751  0.5002996345922160
  0.0001954053945681  0.4999991030757794  0.0005638657351345
  0.9992767439177672  0.4999703108617560  0.4994281619057271
  0.5001496251085784  0.0003617747889013  0.0003305515384983
  0.5002937075228105  0.9968055291733663  0.4993549235939213
  0.5001421282252783  0.4988094956131328  1.0002094778606354
  0.2504666181485424  0.2504364233046619  0.0003691277608224
  0.2461560305020452  0.2441346088901384  0.4994230253690300
  0.2496369312681045  0.7499108605426988  0.9998347415333823
  0.2505683888364015  0.7512366657461237  0.5001159888023515
  0.7495237463389749  0.2506412586148603  1.0000846684933011
  0.7511015301587498  0.2504667149249634  0.5000854244576188
  0.7506550523447715  0.7507142820828872  0.0005494753246383
  0.2498853066689754  0.2498510958217546  0.2500881815674431
  0.2511821904392696  0.2496331214670917  0.7498267782620514
  0.2492043385615970  0.7496700790152327  0.2499301049466906
  0.2487661110449647  0.7520665647033741  0.7501334608789356
  0.7501451076648271  0.2486573687188953  0.2495516629160952
  0.7539676325071896  0.2419578797390857  0.7502032144782996
  0.7485188431660785  0.7481801785093728  0.2517736619391611
  0.7503452540044029  0.7491540980155930  0.7481648284358717
  0.9992313231215546  0.9995672651101113  0.2505551281069686
  0.0026664664145288  0.9987099266347107  0.7496241937198659
  0.0000366858956777  0.4996980868181917  0.2490391421583733
  0.0004882076838053  0.5012840675079071  0.7510503925173098
  0.4999792547583645  0.9996378819509811  0.2494391798490217
  0.4994537373322239  0.0009063522375647  0.7504851268726799
  0.5002526055354266  0.5013262556788535  0.2499608977692103
  0.4943256073896976  0.5050010908541670  0.7499650431216773
  0.4881135504809526  0.4928453439710015  0.5001104720942039
  0.7531149439773448  0.7546901548329336  0.4983752143676705
  0.1098347563175402  0.1410350635713801  0.2486629300121879
  0.1078156838747503  0.1433346657589127  0.7518851531649063
  0.1090304234990093  0.6404773314132739  0.2507827153997534
  0.1087298682940938  0.6414334421553490  0.7492165320258115
  0.6093359475599324  0.1404214225659918  0.2492260170497789
  0.6048871365223827  0.1469307474676851  0.7506228947186012
  0.6078211797115680  0.6398449906629725  0.2421069872579436
  0.3913468926229114  0.3610401374437218  0.2557492524468967
  0.3983299342596827  0.3565397459797452  0.7444053255411911
  0.3895163006063914  0.8603718609820085  0.2490966103865087
  0.3917689518449791  0.8578651258199833  0.7507191216523386
  0.8901286647656933  0.3594336387524910  0.2513406084924084
  0.8817937710358488  0.3643423251769769  0.7488316849074139
  0.8897933352637526  0.8587036499637530  0.2541907371175896
  0.8910888205152592  0.8592116405676558  0.7464609210367767
  0.3595730847004849  0.1105337054000230  0.2494630901303777
  0.3562981480677577  0.1069701482160516  0.7502653656411755
  0.3590426093372420  0.6088460124219315  0.2517506752065504
  0.3565300867136652  0.6066331293378421  0.7484198888750979
  0.8589287911978563  0.1084956460663376  0.2504828311728111
  0.8569256526826859  0.1066947245767583  0.7492726665609308
  0.8597435694695544  0.6079333171563246  0.2478032811438777
  0.8615541455264507  0.6099657526828293  0.7521151392297999
  0.1409093355563706  0.3906282008780276  0.2487686388366696
  0.1410977530526463  0.3905432070756639  0.7512019361711074
  0.1398136351396764  0.8900973380166084  0.2496314967063754
  0.1423133452601183  0.8922915423372568  0.7504906753243235
  0.6399335626328765  0.3900318517219962  0.2500119218105604
  0.6397878159666784  0.8905317778530780  0.2504783856605121
  0.6396570917450212  0.8906956226873232  0.7501420029494223
  0.3590716918190295  0.3905857126192299  0.9989578416409136
  0.3600862386118809  0.8898218419451299  0.9999430762523399
  0.3558381094380291  0.8941197265410822  0.4999813280718616
  0.8595645921068892  0.3907581885494748  0.0000050059122437
  0.8628003195413826  0.3871469570916432  0.5000770505019760
  0.8598809941183948  0.8913036652357654  0.0000012684106797
  0.8632668360524384  0.8982009794342078  0.5014932199812391
  0.1403670907600746  0.1104342557062090  0.9999899371495149
  0.1428629230459383  0.1084181731802202  0.4999032130982735
  0.1404081474039937  0.6092238582027492  0.0001270061138064
  0.1424704181908040  0.6089948673329044  0.5000229967029748
  0.6407429446214737  0.1097113463826759  0.9989605809539300
  0.6389066885467222  0.1132125603775585  0.5010326834446743
  0.6396191568992905  0.6095919532637040  0.0001117927831676
  0.1098567526800616  0.3590105457262619  0.9998808165104285
  0.1108415065300923  0.3585658516761367  0.5002245122229795
  0.1097530821854595  0.8598660902642463  0.0003413995566592
  0.1092559863861827  0.8578537817572525  0.4998304355516752
  0.6090775130075856  0.3592525847556224  0.0038170870451167
  0.6097178074612195  0.8601352452416199  0.9998548659266968
  0.6027051244798621  0.8587029060186079  0.4989597873821566
  0.3900653758249245  0.1402523631828164  0.0004319306509845
  0.3909697099932874  0.1440578494644522  0.4995383478172982
  0.3909738350309274  0.6387824499246548  0.9962186111669552
  0.4028532737378935  0.6456240918761358  0.5032759250866788
  0.8898684463424439  0.1414344236840912  0.9962886704727993
  0.8909620350674530  0.1435579780450109  0.5037358751651249
  0.8905639294402483  0.6400255854630713  0.9991933576293057
  0.9977975529205122  0.0002382176244636  0.1249466072072665
  0.0051303722777516  0.0031380872098916  0.6260634150623433
  0.0005425626772077  0.4990781220032932  0.1246539146818181
  0.0024562598439397  0.4983591501435710  0.6258804485426558
  0.5003445085599389  0.0002548723995308  0.1246394370838932
  0.4994883281630083  0.0013443091796705  0.6256010888960039
  0.4947627582171993  0.4978821819121224  0.1249038555724115
  0.0016627968839883  0.0040797428627790  0.3752431189504149
  0.9996096342166845  0.9982987753236268  0.8743317946722765
  0.0016626099664772  0.4997670789854407  0.3745285210416446
  0.0012808310052522  0.4984785019973660  0.8752438014859709
  0.4990631654729054  0.0025436235253996  0.3743865686262509
  0.4996660841596866  0.0002357916649121  0.8750155086545149
  0.5060079423473286  0.4885034473347415  0.8725338275436669
  0.2485514598934269  0.2502536698921668  0.3751829948350169
  0.2530396036470194  0.2520114684316518  0.8745493096234928
  0.2517283999545371  0.7490700389892094  0.3756938691749616
  0.2490947349046745  0.7494273200938253  0.8743867215026390
  0.7501490311537615  0.2479756470764686  0.3754375479718299
  0.7425637533309598  0.2596291130127709  0.8726833065355500
  0.7387370091905051  0.7358162455999888  0.3717532424211992
  0.7516058662138090  0.7526731128761391  0.8759090111972396
  0.2530720508216732  0.2523698324299266  0.1252273204305596
  0.2487184026776160  0.2501651257165623  0.6250056020642769
  0.2515179520636982  0.7478413671337907  0.1247308770139095
  0.2501091479820592  0.7503826146947149  0.6251302312531141
  0.7524831378533716  0.2485020475873653  0.1248099253681673
  0.7403769119332482  0.2594516481819948  0.6270889281894990
  0.7525375609088050  0.7521759322026138  0.1240510591746585
  0.6129001515869036  0.6323647785512176  0.7571604664898371
  0.5127500961300533  0.5148699221193689  0.3788975035001167
  0.6163086129444901  0.3738452442064060  0.4964404550476255
  0.3572356609869928  0.3940237989780579  0.5006131905838822
  0.7410646752647339  0.7391425677994674  0.6284964443111692
  0.8842803857453535  0.6299862198206410  0.5019196280073417
  0.5209452970953768  0.5065149911427940  0.6229948391306593
 
  0.00000000E+00  0.00000000E+00  0.00000000E+00
  0.00000000E+00  0.00000000E+00  0.00000000E+00
  0.00000000E+00  0.00000000E+00  0.00000000E+00
  0.00000000E+00  0.00000000E+00  0.00000000E+00
  0.00000000E+00  0.00000000E+00  0.00000000E+00
  0.00000000E+00  0.00000000E+00  0.00000000E+00
  0.00000000E+00  0.00000000E+00  0.00000000E+00
  0.00000000E+00  0.00000000E+00  0.00000000E+00
  0.00000000E+00  0.00000000E+00  0.00000000E+00
  0.00000000E+00  0.00000000E+00  0.00000000E+00
  0.00000000E+00  0.00000000E+00  0.00000000E+00
  0.00000000E+00  0.00000000E+00  0.00000000E+00
  0.00000000E+00  0.00000000E+00  0.00000000E+00
  0.00000000E+00  0.00000000E+00  0.00000000E+00
  0.00000000E+00  0.00000000E+00  0.00000000E+00
  0.00000000E+00  0.00000000E+00  0.00000000E+00
  0.00000000E+00  0.00000000E+00  0.00000000E+00
  0.00000000E+00  0.00000000E+00  0.00000000E+00
  0.00000000E+00  0.00000000E+00  0.00000000E+00
  0.00000000E+00  0.00000000E+00  0.00000000E+00
  0.00000000E+00  0.00000000E+00  0.00000000E+00
  0.00000000E+00  0.00000000E+00  0.00000000E+00
  0.00000000E+00  0.00000000E+00  0.00000000E+00
  0.00000000E+00  0.00000000E+00  0.00000000E+00
  0.00000000E+00  0.00000000E+00  0.00000000E+00
  0.00000000E+00  0.00000000E+00  0.00000000E+00
  0.00000000E+00  0.00000000E+00  0.00000000E+00
  0.00000000E+00  0.00000000E+00  0.00000000E+00
  0.00000000E+00  0.00000000E+00  0.00000000E+00
  0.00000000E+00  0.00000000E+00  0.00000000E+00
  0.00000000E+00  0.00000000E+00  0.00000000E+00
  0.00000000E+00  0.00000000E+00  0.00000000E+00
  0.00000000E+00  0.00000000E+00  0.00000000E+00
  0.00000000E+00  0.00000000E+00  0.00000000E+00
  0.00000000E+00  0.00000000E+00  0.00000000E+00
  0.00000000E+00  0.00000000E+00  0.00000000E+00
  0.00000000E+00  0.00000000E+00  0.00000000E+00
  0.00000000E+00  0.00000000E+00  0.00000000E+00
  0.00000000E+00  0.00000000E+00  0.00000000E+00
  0.00000000E+00  0.00000000E+00  0.00000000E+00
  0.00000000E+00  0.00000000E+00  0.00000000E+00
  0.00000000E+00  0.00000000E+00  0.00000000E+00
  0.00000000E+00  0.00000000E+00  0.00000000E+00
  0.00000000E+00  0.00000000E+00  0.00000000E+00
  0.00000000E+00  0.00000000E+00  0.00000000E+00
  0.00000000E+00  0.00000000E+00  0.00000000E+00
  0.00000000E+00  0.00000000E+00  0.00000000E+00
  0.00000000E+00  0.00000000E+00  0.00000000E+00
  0.00000000E+00  0.00000000E+00  0.00000000E+00
  0.00000000E+00  0.00000000E+00  0.00000000E+00
  0.00000000E+00  0.00000000E+00  0.00000000E+00
  0.00000000E+00  0.00000000E+00  0.00000000E+00
  0.00000000E+00  0.00000000E+00  0.00000000E+00
  0.00000000E+00  0.00000000E+00  0.00000000E+00
  0.00000000E+00  0.00000000E+00  0.00000000E+00
  0.00000000E+00  0.00000000E+00  0.00000000E+00
  0.00000000E+00  0.00000000E+00  0.00000000E+00
  0.00000000E+00  0.00000000E+00  0.00000000E+00
  0.00000000E+00  0.00000000E+00  0.00000000E+00
  0.00000000E+00  0.00000000E+00  0.00000000E+00
  0.00000000E+00  0.00000000E+00  0.00000000E+00
  0.00000000E+00  0.00000000E+00  0.00000000E+00
  0.00000000E+00  0.00000000E+00  0.00000000E+00
  0.00000000E+00  0.00000000E+00  0.00000000E+00
  0.00000000E+00  0.00000000E+00  0.00000000E+00
  0.00000000E+00  0.00000000E+00  0.00000000E+00
  0.00000000E+00  0.00000000E+00  0.00000000E+00
  0.00000000E+00  0.00000000E+00  0.00000000E+00
  0.00000000E+00  0.00000000E+00  0.00000000E+00
  0.00000000E+00  0.00000000E+00  0.00000000E+00
  0.00000000E+00  0.00000000E+00  0.00000000E+00
  0.00000000E+00  0.00000000E+00  0.00000000E+00
  0.00000000E+00  0.00000000E+00  0.00000000E+00
  0.00000000E+00  0.00000000E+00  0.00000000E+00
  0.00000000E+00  0.00000000E+00  0.00000000E+00
  0.00000000E+00  0.00000000E+00  0.00000000E+00
  0.00000000E+00  0.00000000E+00  0.00000000E+00
  0.00000000E+00  0.00000000E+00  0.00000000E+00
  0.00000000E+00  0.00000000E+00  0.00000000E+00
  0.00000000E+00  0.00000000E+00  0.00000000E+00
  0.00000000E+00  0.00000000E+00  0.00000000E+00
  0.00000000E+00  0.00000000E+00  0.00000000E+00
  0.00000000E+00  0.00000000E+00  0.00000000E+00
  0.00000000E+00  0.00000000E+00  0.00000000E+00
  0.00000000E+00  0.00000000E+00  0.00000000E+00
  0.00000000E+00  0.00000000E+00  0.00000000E+00
  0.00000000E+00  0.00000000E+00  0.00000000E+00
  0.00000000E+00  0.00000000E+00  0.00000000E+00
  0.00000000E+00  0.00000000E+00  0.00000000E+00
  0.00000000E+00  0.00000000E+00  0.00000000E+00
  0.00000000E+00  0.00000000E+00  0.00000000E+00
  0.00000000E+00  0.00000000E+00  0.00000000E+00
  0.00000000E+00  0.00000000E+00  0.00000000E+00
  0.00000000E+00  0.00000000E+00  0.00000000E+00
  0.00000000E+00  0.00000000E+00  0.00000000E+00
  0.00000000E+00  0.00000000E+00  0.00000000E+00
  0.00000000E+00  0.00000000E+00  0.00000000E+00
  0.00000000E+00  0.00000000E+00  0.00000000E+00
  0.00000000E+00  0.00000000E+00  0.00000000E+00
  0.00000000E+00  0.00000000E+00  0.00000000E+00
  0.00000000E+00  0.00000000E+00  0.00000000E+00
  0.00000000E+00  0.00000000E+00  0.00000000E+00
  0.00000000E+00  0.00000000E+00  0.00000000E+00
  0.00000000E+00  0.00000000E+00  0.00000000E+00
  0.00000000E+00  0.00000000E+00  0.00000000E+00
  0.00000000E+00  0.00000000E+00  0.00000000E+00
  0.00000000E+00  0.00000000E+00  0.00000000E+00
  0.00000000E+00  0.00000000E+00  0.00000000E+00
  0.00000000E+00  0.00000000E+00  0.00000000E+00
  0.00000000E+00  0.00000000E+00  0.00000000E+00
  0.00000000E+00  0.00000000E+00  0.00000000E+00
  0.00000000E+00  0.00000000E+00  0.00000000E+00
  0.00000000E+00  0.00000000E+00  0.00000000E+00
  0.00000000E+00  0.00000000E+00  0.00000000E+00
  0.00000000E+00  0.00000000E+00  0.00000000E+00
  0.00000000E+00  0.00000000E+00  0.00000000E+00
  0.00000000E+00  0.00000000E+00  0.00000000E+00
  0.00000000E+00  0.00000000E+00  0.00000000E+00
  0.00000000E+00  0.00000000E+00  0.00000000E+00
  0.00000000E+00  0.00000000E+00  0.00000000E+00
  0.00000000E+00  0.00000000E+00  0.00000000E+00
  0.00000000E+00  0.00000000E+00  0.00000000E+00
  0.00000000E+00  0.00000000E+00  0.00000000E+00
  0.00000000E+00  0.00000000E+00  0.00000000E+00
  0.00000000E+00  0.00000000E+00  0.00000000E+00
  0.00000000E+00  0.00000000E+00  0.00000000E+00
  0.00000000E+00  0.00000000E+00  0.00000000E+00
  0.00000000E+00  0.00000000E+00  0.00000000E+00
  0.00000000E+00  0.00000000E+00  0.00000000E+00
  0.00000000E+00  0.00000000E+00  0.00000000E+00
  0.00000000E+00  0.00000000E+00  0.00000000E+00
  0.00000000E+00  0.00000000E+00  0.00000000E+00
  0.00000000E+00  0.00000000E+00  0.00000000E+00
  0.00000000E+00  0.00000000E+00  0.00000000E+00
  0.00000000E+00  0.00000000E+00  0.00000000E+00
  0.00000000E+00  0.00000000E+00  0.00000000E+00
  0.00000000E+00  0.00000000E+00  0.00000000E+00
  0.00000000E+00  0.00000000E+00  0.00000000E+00
  0.00000000E+00  0.00000000E+00  0.00000000E+00
  0.00000000E+00  0.00000000E+00  0.00000000E+00
  0.00000000E+00  0.00000000E+00  0.00000000E+00
  0.00000000E+00  0.00000000E+00  0.00000000E+00
  0.00000000E+00  0.00000000E+00  0.00000000E+00
  0.00000000E+00  0.00000000E+00  0.00000000E+00
  0.00000000E+00  0.00000000E+00  0.00000000E+00
  0.00000000E+00  0.00000000E+00  0.00000000E+00
  0.00000000E+00  0.00000000E+00  0.00000000E+00
  0.00000000E+00  0.00000000E+00  0.00000000E+00
  0.00000000E+00  0.00000000E+00  0.00000000E+00
  0.00000000E+00  0.00000000E+00  0.00000000E+00
  0.00000000E+00  0.00000000E+00  0.00000000E+00
  0.00000000E+00  0.00000000E+00  0.00000000E+00
  0.00000000E+00  0.00000000E+00  0.00000000E+00
  0.00000000E+00  0.00000000E+00  0.00000000E+00
  0.00000000E+00  0.00000000E+00  0.00000000E+00
  0.00000000E+00  0.00000000E+00  0.00000000E+00
  0.00000000E+00  0.00000000E+00  0.00000000E+00
  0.00000000E+00  0.00000000E+00  0.00000000E+00
