SrTiFeO                                 
   1.00000000000000     
    11.1989999999999998    0.0000000000000000    0.0000000000000000
     0.0000000000000000   11.1989999999999998    0.0000000000000000
     0.0000000000000000    0.0000000000000000   15.9830000000000005
   Sr   Ti   Fe   O 
    32    30     2    94
Direct
  0.9992871921805816  0.2507128078194182  0.1240707867193454
  0.0057977944476211  0.2442022055523790  0.6293902527848376
  0.9988580526498785  0.7495003466635848  0.1246568386173792
  0.0032386482621911  0.7543767665642368  0.6284007100272194
  0.5004996533364223  0.2511419473501216  0.1246568386173792
  0.4956232334357632  0.2467613517378089  0.6284007100272194
  0.5010609677197523  0.7489390322802477  0.1248343124918740
  0.5010067063302823  0.7489932936697177  0.6243686262781619
  0.0057977944476211  0.2442022055523790  0.3706097472151625
  0.9992871921805816  0.2507128078194182  0.8759292132806548
  0.0032386482621911  0.7543767665642368  0.3715992899727805
  0.9988580526498785  0.7495003466635848  0.8753431613826211
  0.4956232334357632  0.2467613517378089  0.3715992899727805
  0.5004996533364223  0.2511419473501216  0.8753431613826211
  0.5010067063302823  0.7489932936697177  0.3756313737218382
  0.5010609677197523  0.7489390322802477  0.8751656875081260
  0.2494740602607967  0.0005259397392033  0.1248165693055928
  0.2504264703787727  0.9995735296212271  0.6250199310968626
  0.2509742712480361  0.4997524170406437  0.1259441746191764
  0.2594692363537082  0.5005328816171448  0.6224154706210914
  0.7502475829593568  0.9990257287519638  0.1259441746191764
  0.7494671183828552  0.9905307636462922  0.6224154706210914
  0.7491925582254122  0.5008074417745878  0.1223286898672607
  0.7492108502213806  0.5007891497786194  0.6319520088318408
  0.2504264703787727  0.9995735296212271  0.3749800689031375
  0.2494740602607967  0.0005259397392033  0.8751834306944070
  0.2594692363537082  0.5005328816171448  0.3775845293789087
  0.2509742712480361  0.4997524170406437  0.8740558253808235
  0.7494671183828552  0.9905307636462922  0.3775845293789087
  0.7502475829593568  0.9990257287519638  0.8740558253808235
  0.7492108502213806  0.5007891497786194  0.3680479911681592
  0.7491925582254122  0.5008074417745878  0.8776713101327391
  0.9995297460192776  0.0002712351423437 -0.0000000000000000
  0.0032054017024298  0.9937556096223974  0.5000000000000000
  0.0011767657969651  0.4994017036209135 -0.0000000000000000
  0.0051376865501909  0.4881486539460262  0.5000000000000000
  0.4999287816325144  0.9996349636178252 -0.0000000000000000
  0.4998538574012702  0.9992202192194853  0.5000000000000000
  0.4990580779693915  0.5006678311369254 -0.0000000000000000
  0.2497287648576563  0.2504702539807223 -0.0000000000000000
  0.2562443903776029  0.2467945982975702  0.5000000000000000
  0.2503650363821749  0.7500712183674855 -0.0000000000000000
  0.2507797807805146  0.7501461425987300  0.5000000000000000
  0.7505982963790865  0.2488232342030349 -0.0000000000000000
  0.7493321688630746  0.7509419220306085 -0.0000000000000000
  0.2499532012081662  0.2501868557596663  0.2496569491837047
  0.2499532012081662  0.2501868557596663  0.7503430508162953
  0.2507767666915506  0.7495830301679278  0.2500119302001897
  0.2507767666915506  0.7495830301679278  0.7499880697998104
  0.7489531588400417  0.2503419738453789  0.2500156688719032
  0.7489531588400417  0.2503419738453789  0.7499843311280966
  0.7507498806250159  0.7489064943291552  0.2509547029177103
  0.7507498806250159  0.7489064943291552  0.7490452970822969
  0.9998131442403337  0.0000467987918338  0.2496569491837047
  0.9998131442403337  0.0000467987918338  0.7503430508162953
  0.9996580261546211  0.5010468411599583  0.2500156688719032
  0.9996580261546211  0.5010468411599583  0.7499843311280966
  0.5004169698320722  0.9992232333084494  0.2500119302001897
  0.5004169698320722  0.9992232333084494  0.7499880697998104
  0.5010935056708448  0.4992501193749837  0.2509547029177103
  0.5010935056708448  0.4992501193749837  0.7490452970822969
  0.7618513460539740  0.2448623134498091  0.5000000000000000
  0.5071169275361370  0.5057964724680267  0.5000000000000000
  0.7442035275319733  0.7428830724638630  0.5000000000000000
  0.1088139154123996  0.1411860845876005  0.2474127295230016
  0.1088139154123996  0.1411860845876005  0.7525872704769985
  0.1089210852753042  0.6410170215405741  0.2496578570675835
  0.1089210852753042  0.6410170215405741  0.7503421429324166
  0.6089829784594259  0.1410789147246959  0.2496578570675835
  0.6089829784594259  0.1410789147246959  0.7503421429324166
  0.6092831299116397  0.6407168700883603  0.2501596058079444
  0.6092831299116397  0.6407168700883603  0.7498403941920558
  0.3890333119471137  0.3590046566793028  0.2481094224508926
  0.3890333119471137  0.3590046566793028  0.7518905775491075
  0.3912795560032321  0.8587204439967676  0.2509599294689566
  0.3912795560032321  0.8587204439967676  0.7490400705310434
  0.8907949216074972  0.3592050783925029  0.2531618729586319
  0.8907949216074972  0.3592050783925029  0.7468381270413680
  0.8909953433206972  0.8609666880528868  0.2481094224508926
  0.8909953433206972  0.8609666880528868  0.7518905775491075
  0.3591742637530526  0.1099434124640613  0.2492765431562741
  0.3591742637530526  0.1099434124640613  0.7507234568437255
  0.3596020598388610  0.6093215222714110  0.2526573339048457
  0.3596020598388610  0.6093215222714110  0.7473426660951545
  0.8580261257641949  0.1111349607388410  0.2566564113558793
  0.8580261257641949  0.1111349607388410  0.7433435886441209
  0.8603381313194661  0.6092522471126411  0.2425884016808384
  0.8603381313194661  0.6092522471126411  0.7574115983191616
  0.1388650392611590  0.3919738742358054  0.2566564113558793
  0.1388650392611590  0.3919738742358054  0.7433435886441209
  0.1400565875359387  0.8908257362469475  0.2492765431562741
  0.1400565875359387  0.8908257362469475  0.7507234568437255
  0.6407477528873589  0.3896618686805337  0.2425884016808384
  0.6407477528873589  0.3896618686805337  0.7574115983191616
  0.6406784777285890  0.8903979401611388  0.2526573339048457
  0.6406784777285890  0.8903979401611388  0.7473426660951545
  0.3589973411862068  0.3905591275544900 -0.0000000000000000
  0.3584973890165916  0.8915026109834085 -0.0000000000000000
  0.3589950113686270  0.8910049886313730  0.5000000000000000
  0.8600391593129230  0.3899608406870771 -0.0000000000000000
  0.8594408724455099  0.8910026588137931 -0.0000000000000000
  0.8672272660273392  0.8908687031262705  0.5000000000000000
  0.1410689670009111  0.1089310329990889 -0.0000000000000000
  0.1393987303670061  0.1106012696329938  0.5000000000000000
  0.1406194746234189  0.6091902589815962 -0.0000000000000000
  0.1230383484842427  0.6169372770818100  0.5000000000000000
  0.6408097410184038  0.1093805253765811 -0.0000000000000000
  0.6330627229181900  0.1269616515157573  0.5000000000000000
  0.6400283656380832  0.6099716343619168 -0.0000000000000000
  0.1090639049613756  0.3585597206994185 -0.0000000000000000
  0.1060372027251867  0.3584946583491620  0.5000000000000000
  0.1089324810395017  0.8595994945290182 -0.0000000000000000
  0.1109896537086538  0.8612462681473947  0.5000000000000000
  0.6108761799268544  0.3594898479265441 -0.0000000000000000
  0.6081321762093035  0.8598512495703033 -0.0000000000000000
  0.6102511408368322  0.8721083139224984  0.5000000000000000
  0.3904005054709819  0.1410675189604983 -0.0000000000000000
  0.3887537318526050  0.1390103462913462  0.5000000000000000
  0.3901487504296967  0.6418678237906965 -0.0000000000000000
  0.8914402793005815  0.1409360950386245 -0.0000000000000000
  0.8915053416508382  0.1439627972748132  0.5000000000000000
  0.8905101520734486  0.6391238200731456 -0.0000000000000000
  0.9974805131746486  0.0023316676557515  0.1250599733554237
  0.0026574390737243  0.0015748932434753  0.6256944336431716
  0.0035161474905553  0.4960000502822760  0.1254836694974752
  0.9856603674982135  0.5145414521185878  0.6212526361126149
  0.5004215360179194  0.9992268994248846  0.1252144144843539
  0.4982421836523783  0.0026018444185601  0.6254877291780293
  0.4975411625407846  0.5019810894192901  0.1240137801911453
  0.5062503516725529  0.4894871096832265  0.6278670829176463
  0.0026574390737243  0.0015748932434753  0.3743055663568283
  0.9974805131746486  0.0023316676557515  0.8749400266445765
  0.9856603674982135  0.5145414521185878  0.3787473638873849
  0.0035161474905553  0.4960000502822760  0.8745163305025250
  0.4982421836523783  0.0026018444185601  0.3745122708219707
  0.5004215360179194  0.9992268994248846  0.8747855855156461
  0.4975411625407846  0.5019810894192901  0.8759862198088546
  0.2484251067565248  0.2473425609262757  0.3743055663568283
  0.2476683323442485  0.2525194868253514  0.8749400266445765
  0.2473981555814399  0.7517578163476217  0.3745122708219707
  0.2507731005751154  0.7495784639820806  0.8747855855156461
  0.7539999497177239  0.2464838525094447  0.8745163305025250
  0.7480189105807099  0.7524588374592156  0.8759862198088546
  0.2476683323442485  0.2525194868253514  0.1250599733554237
  0.2484251067565248  0.2473425609262757  0.6256944336431716
  0.2507731005751154  0.7495784639820806  0.1252144144843539
  0.2473981555814399  0.7517578163476217  0.6254877291780293
  0.7539999497177239  0.2464838525094447  0.1254836694974752
  0.7354585478814122  0.2643396325017864  0.6212526361126149
  0.7480189105807099  0.7524588374592156  0.1240137801911453
  0.7605128903167733  0.7437496483274471  0.6278670829176463
  0.7354585478814122  0.2643396325017864  0.3787473638873849
  0.8522926061256298  0.3977073938743702  0.5000000000000000
  0.3778916860775016  0.6397488591631678  0.5000000000000000
  0.5062503516725529  0.4894871096832265  0.3721329170823540
  0.3591312968737294  0.3827727339726608  0.5000000000000000
  0.7605128903167733  0.7437496483274471  0.3721329170823540
  0.6645761163833981  0.5854238836166019  0.5000000000000000
 
  0.00000000E+00  0.00000000E+00  0.00000000E+00
  0.00000000E+00  0.00000000E+00  0.00000000E+00
  0.00000000E+00  0.00000000E+00  0.00000000E+00
  0.00000000E+00  0.00000000E+00  0.00000000E+00
  0.00000000E+00  0.00000000E+00  0.00000000E+00
  0.00000000E+00  0.00000000E+00  0.00000000E+00
  0.00000000E+00  0.00000000E+00  0.00000000E+00
  0.00000000E+00  0.00000000E+00  0.00000000E+00
  0.00000000E+00  0.00000000E+00  0.00000000E+00
  0.00000000E+00  0.00000000E+00  0.00000000E+00
  0.00000000E+00  0.00000000E+00  0.00000000E+00
  0.00000000E+00  0.00000000E+00  0.00000000E+00
  0.00000000E+00  0.00000000E+00  0.00000000E+00
  0.00000000E+00  0.00000000E+00  0.00000000E+00
  0.00000000E+00  0.00000000E+00  0.00000000E+00
  0.00000000E+00  0.00000000E+00  0.00000000E+00
  0.00000000E+00  0.00000000E+00  0.00000000E+00
  0.00000000E+00  0.00000000E+00  0.00000000E+00
  0.00000000E+00  0.00000000E+00  0.00000000E+00
  0.00000000E+00  0.00000000E+00  0.00000000E+00
  0.00000000E+00  0.00000000E+00  0.00000000E+00
  0.00000000E+00  0.00000000E+00  0.00000000E+00
  0.00000000E+00  0.00000000E+00  0.00000000E+00
  0.00000000E+00  0.00000000E+00  0.00000000E+00
  0.00000000E+00  0.00000000E+00  0.00000000E+00
  0.00000000E+00  0.00000000E+00  0.00000000E+00
  0.00000000E+00  0.00000000E+00  0.00000000E+00
  0.00000000E+00  0.00000000E+00  0.00000000E+00
  0.00000000E+00  0.00000000E+00  0.00000000E+00
  0.00000000E+00  0.00000000E+00  0.00000000E+00
  0.00000000E+00  0.00000000E+00  0.00000000E+00
  0.00000000E+00  0.00000000E+00  0.00000000E+00
  0.00000000E+00  0.00000000E+00  0.00000000E+00
  0.00000000E+00  0.00000000E+00  0.00000000E+00
  0.00000000E+00  0.00000000E+00  0.00000000E+00
  0.00000000E+00  0.00000000E+00  0.00000000E+00
  0.00000000E+00  0.00000000E+00  0.00000000E+00
  0.00000000E+00  0.00000000E+00  0.00000000E+00
  0.00000000E+00  0.00000000E+00  0.00000000E+00
  0.00000000E+00  0.00000000E+00  0.00000000E+00
  0.00000000E+00  0.00000000E+00  0.00000000E+00
  0.00000000E+00  0.00000000E+00  0.00000000E+00
  0.00000000E+00  0.00000000E+00  0.00000000E+00
  0.00000000E+00  0.00000000E+00  0.00000000E+00
  0.00000000E+00  0.00000000E+00  0.00000000E+00
  0.00000000E+00  0.00000000E+00  0.00000000E+00
  0.00000000E+00  0.00000000E+00  0.00000000E+00
  0.00000000E+00  0.00000000E+00  0.00000000E+00
  0.00000000E+00  0.00000000E+00  0.00000000E+00
  0.00000000E+00  0.00000000E+00  0.00000000E+00
  0.00000000E+00  0.00000000E+00  0.00000000E+00
  0.00000000E+00  0.00000000E+00  0.00000000E+00
  0.00000000E+00  0.00000000E+00  0.00000000E+00
  0.00000000E+00  0.00000000E+00  0.00000000E+00
  0.00000000E+00  0.00000000E+00  0.00000000E+00
  0.00000000E+00  0.00000000E+00  0.00000000E+00
  0.00000000E+00  0.00000000E+00  0.00000000E+00
  0.00000000E+00  0.00000000E+00  0.00000000E+00
  0.00000000E+00  0.00000000E+00  0.00000000E+00
  0.00000000E+00  0.00000000E+00  0.00000000E+00
  0.00000000E+00  0.00000000E+00  0.00000000E+00
  0.00000000E+00  0.00000000E+00  0.00000000E+00
  0.00000000E+00  0.00000000E+00  0.00000000E+00
  0.00000000E+00  0.00000000E+00  0.00000000E+00
  0.00000000E+00  0.00000000E+00  0.00000000E+00
  0.00000000E+00  0.00000000E+00  0.00000000E+00
  0.00000000E+00  0.00000000E+00  0.00000000E+00
  0.00000000E+00  0.00000000E+00  0.00000000E+00
  0.00000000E+00  0.00000000E+00  0.00000000E+00
  0.00000000E+00  0.00000000E+00  0.00000000E+00
  0.00000000E+00  0.00000000E+00  0.00000000E+00
  0.00000000E+00  0.00000000E+00  0.00000000E+00
  0.00000000E+00  0.00000000E+00  0.00000000E+00
  0.00000000E+00  0.00000000E+00  0.00000000E+00
  0.00000000E+00  0.00000000E+00  0.00000000E+00
  0.00000000E+00  0.00000000E+00  0.00000000E+00
  0.00000000E+00  0.00000000E+00  0.00000000E+00
  0.00000000E+00  0.00000000E+00  0.00000000E+00
  0.00000000E+00  0.00000000E+00  0.00000000E+00
  0.00000000E+00  0.00000000E+00  0.00000000E+00
  0.00000000E+00  0.00000000E+00  0.00000000E+00
  0.00000000E+00  0.00000000E+00  0.00000000E+00
  0.00000000E+00  0.00000000E+00  0.00000000E+00
  0.00000000E+00  0.00000000E+00  0.00000000E+00
  0.00000000E+00  0.00000000E+00  0.00000000E+00
  0.00000000E+00  0.00000000E+00  0.00000000E+00
  0.00000000E+00  0.00000000E+00  0.00000000E+00
  0.00000000E+00  0.00000000E+00  0.00000000E+00
  0.00000000E+00  0.00000000E+00  0.00000000E+00
  0.00000000E+00  0.00000000E+00  0.00000000E+00
  0.00000000E+00  0.00000000E+00  0.00000000E+00
  0.00000000E+00  0.00000000E+00  0.00000000E+00
  0.00000000E+00  0.00000000E+00  0.00000000E+00
  0.00000000E+00  0.00000000E+00  0.00000000E+00
  0.00000000E+00  0.00000000E+00  0.00000000E+00
  0.00000000E+00  0.00000000E+00  0.00000000E+00
  0.00000000E+00  0.00000000E+00  0.00000000E+00
  0.00000000E+00  0.00000000E+00  0.00000000E+00
  0.00000000E+00  0.00000000E+00  0.00000000E+00
  0.00000000E+00  0.00000000E+00  0.00000000E+00
  0.00000000E+00  0.00000000E+00  0.00000000E+00
  0.00000000E+00  0.00000000E+00  0.00000000E+00
  0.00000000E+00  0.00000000E+00  0.00000000E+00
  0.00000000E+00  0.00000000E+00  0.00000000E+00
  0.00000000E+00  0.00000000E+00  0.00000000E+00
  0.00000000E+00  0.00000000E+00  0.00000000E+00
  0.00000000E+00  0.00000000E+00  0.00000000E+00
  0.00000000E+00  0.00000000E+00  0.00000000E+00
  0.00000000E+00  0.00000000E+00  0.00000000E+00
  0.00000000E+00  0.00000000E+00  0.00000000E+00
  0.00000000E+00  0.00000000E+00  0.00000000E+00
  0.00000000E+00  0.00000000E+00  0.00000000E+00
  0.00000000E+00  0.00000000E+00  0.00000000E+00
  0.00000000E+00  0.00000000E+00  0.00000000E+00
  0.00000000E+00  0.00000000E+00  0.00000000E+00
  0.00000000E+00  0.00000000E+00  0.00000000E+00
  0.00000000E+00  0.00000000E+00  0.00000000E+00
  0.00000000E+00  0.00000000E+00  0.00000000E+00
  0.00000000E+00  0.00000000E+00  0.00000000E+00
  0.00000000E+00  0.00000000E+00  0.00000000E+00
  0.00000000E+00  0.00000000E+00  0.00000000E+00
  0.00000000E+00  0.00000000E+00  0.00000000E+00
  0.00000000E+00  0.00000000E+00  0.00000000E+00
  0.00000000E+00  0.00000000E+00  0.00000000E+00
  0.00000000E+00  0.00000000E+00  0.00000000E+00
  0.00000000E+00  0.00000000E+00  0.00000000E+00
  0.00000000E+00  0.00000000E+00  0.00000000E+00
  0.00000000E+00  0.00000000E+00  0.00000000E+00
  0.00000000E+00  0.00000000E+00  0.00000000E+00
  0.00000000E+00  0.00000000E+00  0.00000000E+00
  0.00000000E+00  0.00000000E+00  0.00000000E+00
  0.00000000E+00  0.00000000E+00  0.00000000E+00
  0.00000000E+00  0.00000000E+00  0.00000000E+00
  0.00000000E+00  0.00000000E+00  0.00000000E+00
  0.00000000E+00  0.00000000E+00  0.00000000E+00
  0.00000000E+00  0.00000000E+00  0.00000000E+00
  0.00000000E+00  0.00000000E+00  0.00000000E+00
  0.00000000E+00  0.00000000E+00  0.00000000E+00
  0.00000000E+00  0.00000000E+00  0.00000000E+00
  0.00000000E+00  0.00000000E+00  0.00000000E+00
  0.00000000E+00  0.00000000E+00  0.00000000E+00
  0.00000000E+00  0.00000000E+00  0.00000000E+00
  0.00000000E+00  0.00000000E+00  0.00000000E+00
  0.00000000E+00  0.00000000E+00  0.00000000E+00
  0.00000000E+00  0.00000000E+00  0.00000000E+00
  0.00000000E+00  0.00000000E+00  0.00000000E+00
  0.00000000E+00  0.00000000E+00  0.00000000E+00
  0.00000000E+00  0.00000000E+00  0.00000000E+00
  0.00000000E+00  0.00000000E+00  0.00000000E+00
  0.00000000E+00  0.00000000E+00  0.00000000E+00
  0.00000000E+00  0.00000000E+00  0.00000000E+00
  0.00000000E+00  0.00000000E+00  0.00000000E+00
  0.00000000E+00  0.00000000E+00  0.00000000E+00
  0.00000000E+00  0.00000000E+00  0.00000000E+00
  0.00000000E+00  0.00000000E+00  0.00000000E+00
  0.00000000E+00  0.00000000E+00  0.00000000E+00
  0.00000000E+00  0.00000000E+00  0.00000000E+00
  0.00000000E+00  0.00000000E+00  0.00000000E+00
