SrTiFeO                                 
   1.00000000000000     
    11.1989999999999998    0.0000000000000000    0.0000000000000000
     0.0000000000000000   11.1989999999999998    0.0000000000000000
     0.0000000000000000    0.0000000000000000   15.9830000000000005
   Sr   Ti   Fe   O 
    32    29     3    95
Direct
  0.9991450321417484  0.2500612122864830  0.1250356933178276
  0.9991045255173693  0.2502616795480400  0.6244639449090438
  0.9982722423437710  0.7500915121137072  0.1256103151389023
  0.9998411144972645  0.7475810929997218  0.6239799588324509
  0.4998847161262960  0.2503175780285763  0.1258924792183258
  0.5048839427570038  0.2501012260043393  0.6220585881419293
  0.5002541369150354  0.7511307842480245  0.1242336262221967
  0.4987088058359888  0.7527072931264402  0.6271136514175253
  0.9991045255173693  0.2502616795480400  0.3755360550909562
  0.9991450321417484  0.2500612122864830  0.8749643066821724
  0.9998411144972645  0.7475810929997218  0.3760200411675490
  0.9982722423437710  0.7500915121137072  0.8743896848610978
  0.5048839427570038  0.2501012260043393  0.3779414118580708
  0.4998847161262960  0.2503175780285763  0.8741075207816742
  0.4987088058359888  0.7527072931264402  0.3728863485824748
  0.5002541369150354  0.7511307842480245  0.8757663737778032
  0.2499266178560238  0.9997516542863718  0.1251284282908267
  0.2512813453321686  0.0001823084154359  0.6249290227149170
  0.2494047447046944  0.5004810354428147  0.1248768003426715
  0.2481612152033739  0.4991636374666593  0.6249824333377414
  0.7495144342297531  0.9991181393799919  0.1252508782416150
  0.7497628028007414  0.0038953767094317  0.6243530316502058
  0.7499747346771942  0.5004522401175622  0.1250994554085695
  0.7530713579870119  0.4942988260560835  0.6259161821745806
  0.2512813453321686  0.0001823084154359  0.3750709772850901
  0.2499266178560238  0.9997516542863718  0.8748715717091733
  0.2481612152033739  0.4991636374666593  0.3750175666622587
  0.2494047447046944  0.5004810354428147  0.8751231996573285
  0.7497628028007414  0.0038953767094317  0.3756469683497942
  0.7495144342297531  0.9991181393799919  0.8747491217583849
  0.7530713579870119  0.4942988260560835  0.3740838178254194
  0.7499747346771942  0.5004522401175622  0.8749005445914305
  0.9994965154457031  0.9994680608412863  0.0000000000000000
  0.0014109033835457  0.0025551410566883  0.5000000000000000
  0.9998050649878756  0.4997657216078312  0.0000000000000000
  0.9972699315471384  0.4987343050867051  0.5000000000000000
  0.5000307123245039  0.0003020592784414  0.0000000000000000
  0.5022852511884743  0.9989197837947286  0.5000000000000000
  0.4993126265302724  0.4994752232723409  0.0000000000000000
  0.2503914190369569  0.2504139051589023  0.0000000000000000
  0.2492505367329354  0.2483801649982963  0.5000000000000000
  0.2496120689960988  0.7498660728829086  0.0000000000000000
  0.2492170879599103  0.7502758543911947  0.5000000000000000
  0.7497315814947265  0.2499772272859132  0.0000000000000000
  0.7501154489419718  0.7502629697535861  0.0000000000000000
  0.2502121336564281  0.2499385211458238  0.2506703252756452
  0.2502121336564281  0.2499385211458238  0.7493296747243547
  0.2495704606842418  0.7498196512632503  0.2499951155066142
  0.2495704606842418  0.7498196512632503  0.7500048844933858
  0.7496897100083160  0.2496328990547505  0.2509401574228097
  0.7496897100083160  0.2496328990547505  0.7490598425771902
  0.7490257700398516  0.7489338659849223  0.2527121097470469
  0.7490257700398516  0.7489338659849223  0.7472878902529531
  0.0001038505208557  0.9997449633109819  0.2506790941952431
  0.0001038505208557  0.9997449633109819  0.7493209058047569
  0.0001236916527267  0.4999040400517847  0.2498684688290495
  0.0001236916527267  0.4999040400517847  0.7501315311709505
  0.4998979200244767  0.0004013152726906  0.2500534725060654
  0.4998979200244767  0.0004013152726906  0.7499465274939345
  0.5002769364697965  0.5009646671053248  0.2502674362340998
  0.5002769364697965  0.5009646671053248  0.7497325637659003
  0.7544790606007488  0.2484510459287896  0.5000000000000000
  0.4897376366987846  0.4952666360737195  0.5000000000000000
  0.7587464458955688  0.7627646693392865  0.5000000000000000
  0.1090383655628688  0.1408047369543307  0.2482337321600187
  0.1090383655628688  0.1408047369543307  0.7517662678399814
  0.1087131350628499  0.6411395300970777  0.2498172170659539
  0.1087131350628499  0.6411395300970777  0.7501827829340459
  0.6084953019088011  0.1408178516687378  0.2496673603879916
  0.6084953019088011  0.1408178516687378  0.7503326396120085
  0.6079390467213749  0.6405087914508109  0.2458691192125231
  0.6079390467213749  0.6405087914508109  0.7541308807874770
  0.3919509569469220  0.3605574059660356  0.2565241925904105
  0.3919509569469220  0.3605574059660356  0.7434758074095895
  0.3900098534033757  0.8594356686522829  0.2493238635698443
  0.3900098534033757  0.8594356686522829  0.7506761364301557
  0.8904410825235679  0.3596143793868147  0.2507137517339034
  0.8904410825235679  0.3596143793868147  0.7492862482660966
  0.8895029086693922  0.8582486842516905  0.2549734950916986
  0.8895029086693922  0.8582486842516905  0.7450265049083014
  0.3589983994128405  0.1093328242271725  0.2491369033155153
  0.3589983994128405  0.1093328242271725  0.7508630966844847
  0.3589878112146841  0.6084877583739162  0.2516813750414383
  0.3589878112146841  0.6084877583739162  0.7483186249585617
  0.8589558936712992  0.1086617705856538  0.2500945933473744
  0.8589558936712992  0.1086617705856538  0.7499054066526255
  0.8591084953258606  0.6085793304332197  0.2498293023114473
  0.8591084953258606  0.6085793304332197  0.7501706976885527
  0.1412520362732788  0.3909678302246687  0.2496348499361784
  0.1412520362732788  0.3909678302246687  0.7503651500638217
  0.1407137016280424  0.8902870075963314  0.2499855616722021
  0.1407137016280424  0.8902870075963314  0.7500144383277979
  0.6400027133421340  0.3914504479668886  0.2505943427421903
  0.6400027133421340  0.3914504479668886  0.7494056572578097
  0.6405814153690674  0.8906124040771426  0.2517548526248630
  0.6405814153690674  0.8906124040771426  0.7482451473751370
  0.3587047726343435  0.3913865777528791  0.0000000000000000
  0.3591463320809765  0.8905477335386883  0.0000000000000000
  0.3595702122284208  0.8883725903454129  0.5000000000000000
  0.8591574311910908  0.3907326103162687  0.0000000000000000
  0.8590697584805794  0.8908378010717085  0.0000000000000000
  0.8622687282496627  0.8938821886899883  0.5000000000000000
  0.1407554216489274  0.1093192249667148  0.0000000000000000
  0.1425885424242286  0.1072827504430843  0.5000000000000000
  0.1408044890396199  0.6088184557205270  0.0000000000000000
  0.1411069707176453  0.6093943174177250  0.5000000000000000
  0.6408708562837384  0.1090640231618768  0.0000000000000000
  0.6365548088734947  0.1129006290462470  0.5000000000000000
  0.6397236082807557  0.6089628192117456  0.0000000000000000
  0.1091296148443008  0.3586698924220509  0.0000000000000000
  0.1098196041837905  0.3587151039297840  0.5000000000000000
  0.1092210091628011  0.8588226452017830  0.0000000000000000
  0.1102379930913448  0.8570741128530038  0.5000000000000000
  0.6084999842700717  0.3594913410624936  0.0000000000000000
  0.6092933687203073  0.8592362107364884  0.0000000000000000
  0.6078636446318886  0.8561257206208568  0.5000000000000000
  0.3909972853594119  0.1408297966453906  0.0000000000000000
  0.3896289374931578  0.1396358745468794  0.5000000000000000
  0.3910328532320117  0.6404102287217590  0.0000000000000000
  0.8909716385592135  0.1405542702081425  0.0000000000000000
  0.8930949937570155  0.1392908917376476  0.5000000000000000
  0.8905687117464955  0.6404495185983551  0.0000000000000000
  0.9983894863427198  0.9972332352570257  0.1253621076243709
  0.0030765745957727  0.0013346385651137  0.6250628456738255
 -0.0000067697389564  0.4994713589604178  0.1248871029332166
  0.0017411556549263  0.5004641490519304  0.6253817679432266
  0.5005596766875626  0.9991637481256196  0.1249376063334585
  0.4987169081595042  0.0005310042004027  0.6252841844422750
  0.4969789238137852  0.4972525396496310  0.1260567666472550
  0.5116661710723212  0.5135531459963892  0.6189249780305430
  0.0030765745957727  0.0013346385651137  0.3749371543261745
  0.9983894863427198  0.9972332352570257  0.8746378923756291
  0.0017411556549263  0.5004641490519304  0.3746182320567734
 -0.0000067697389564  0.4994713589604178  0.8751128970667833
  0.4987169081595042  0.0005310042004027  0.3747158155577251
  0.5005596766875626  0.9991637481256196  0.8750623936665415
  0.4969789238137852  0.4972525396496310  0.8739432333527450
  0.2472647106119125  0.2477126858141069  0.3749598576879685
  0.2530542472323107  0.2523280508447789  0.8746154386029779
  0.2504891577019271  0.7486156035840038  0.3751906162557460
  0.2504444207682446  0.7488121653283595  0.8749670165571940
  0.7497691228666966  0.2507313778232714  0.8750688536007644
  0.7513146887276769  0.7514473525050571  0.8745992949441647
  0.2530542472323107  0.2523280508447789  0.1253845613970221
  0.2472647106119125  0.2477126858141069  0.6250401423120315
  0.2504444207682446  0.7488121653283595  0.1250329834428060
  0.2504891577019271  0.7486156035840038  0.6248093837442540
  0.7497691228666966  0.2507313778232714  0.1249311463992357
  0.7477745272629015  0.2500976907654086  0.6258522145225143
  0.7513146887276769  0.7514473525050571  0.1254007050558354
  0.7395173278947238  0.7371586735511970  0.6226116311135032
  0.7477745272629015  0.2500976907654086  0.3741477854774857
  0.8628362124323000  0.3883493498760384  0.5000000000000000
  0.4012375710619793  0.6401361908415218  0.5000000000000000
  0.5116661710723212  0.5135531459963892  0.3810750219694569
  0.3576880199091260  0.3888217649652578  0.5000000000000000
  0.8812515785681913  0.6339902815875259  0.5000000000000000
  0.7395173278947238  0.7371586735511970  0.3773883688864968
  0.6133453777328405  0.3853175203021772  0.5000000000000000
 
  0.00000000E+00  0.00000000E+00  0.00000000E+00
  0.00000000E+00  0.00000000E+00  0.00000000E+00
  0.00000000E+00  0.00000000E+00  0.00000000E+00
  0.00000000E+00  0.00000000E+00  0.00000000E+00
  0.00000000E+00  0.00000000E+00  0.00000000E+00
  0.00000000E+00  0.00000000E+00  0.00000000E+00
  0.00000000E+00  0.00000000E+00  0.00000000E+00
  0.00000000E+00  0.00000000E+00  0.00000000E+00
  0.00000000E+00  0.00000000E+00  0.00000000E+00
  0.00000000E+00  0.00000000E+00  0.00000000E+00
  0.00000000E+00  0.00000000E+00  0.00000000E+00
  0.00000000E+00  0.00000000E+00  0.00000000E+00
  0.00000000E+00  0.00000000E+00  0.00000000E+00
  0.00000000E+00  0.00000000E+00  0.00000000E+00
  0.00000000E+00  0.00000000E+00  0.00000000E+00
  0.00000000E+00  0.00000000E+00  0.00000000E+00
  0.00000000E+00  0.00000000E+00  0.00000000E+00
  0.00000000E+00  0.00000000E+00  0.00000000E+00
  0.00000000E+00  0.00000000E+00  0.00000000E+00
  0.00000000E+00  0.00000000E+00  0.00000000E+00
  0.00000000E+00  0.00000000E+00  0.00000000E+00
  0.00000000E+00  0.00000000E+00  0.00000000E+00
  0.00000000E+00  0.00000000E+00  0.00000000E+00
  0.00000000E+00  0.00000000E+00  0.00000000E+00
  0.00000000E+00  0.00000000E+00  0.00000000E+00
  0.00000000E+00  0.00000000E+00  0.00000000E+00
  0.00000000E+00  0.00000000E+00  0.00000000E+00
  0.00000000E+00  0.00000000E+00  0.00000000E+00
  0.00000000E+00  0.00000000E+00  0.00000000E+00
  0.00000000E+00  0.00000000E+00  0.00000000E+00
  0.00000000E+00  0.00000000E+00  0.00000000E+00
  0.00000000E+00  0.00000000E+00  0.00000000E+00
  0.00000000E+00  0.00000000E+00  0.00000000E+00
  0.00000000E+00  0.00000000E+00  0.00000000E+00
  0.00000000E+00  0.00000000E+00  0.00000000E+00
  0.00000000E+00  0.00000000E+00  0.00000000E+00
  0.00000000E+00  0.00000000E+00  0.00000000E+00
  0.00000000E+00  0.00000000E+00  0.00000000E+00
  0.00000000E+00  0.00000000E+00  0.00000000E+00
  0.00000000E+00  0.00000000E+00  0.00000000E+00
  0.00000000E+00  0.00000000E+00  0.00000000E+00
  0.00000000E+00  0.00000000E+00  0.00000000E+00
  0.00000000E+00  0.00000000E+00  0.00000000E+00
  0.00000000E+00  0.00000000E+00  0.00000000E+00
  0.00000000E+00  0.00000000E+00  0.00000000E+00
  0.00000000E+00  0.00000000E+00  0.00000000E+00
  0.00000000E+00  0.00000000E+00  0.00000000E+00
  0.00000000E+00  0.00000000E+00  0.00000000E+00
  0.00000000E+00  0.00000000E+00  0.00000000E+00
  0.00000000E+00  0.00000000E+00  0.00000000E+00
  0.00000000E+00  0.00000000E+00  0.00000000E+00
  0.00000000E+00  0.00000000E+00  0.00000000E+00
  0.00000000E+00  0.00000000E+00  0.00000000E+00
  0.00000000E+00  0.00000000E+00  0.00000000E+00
  0.00000000E+00  0.00000000E+00  0.00000000E+00
  0.00000000E+00  0.00000000E+00  0.00000000E+00
  0.00000000E+00  0.00000000E+00  0.00000000E+00
  0.00000000E+00  0.00000000E+00  0.00000000E+00
  0.00000000E+00  0.00000000E+00  0.00000000E+00
  0.00000000E+00  0.00000000E+00  0.00000000E+00
  0.00000000E+00  0.00000000E+00  0.00000000E+00
  0.00000000E+00  0.00000000E+00  0.00000000E+00
  0.00000000E+00  0.00000000E+00  0.00000000E+00
  0.00000000E+00  0.00000000E+00  0.00000000E+00
  0.00000000E+00  0.00000000E+00  0.00000000E+00
  0.00000000E+00  0.00000000E+00  0.00000000E+00
  0.00000000E+00  0.00000000E+00  0.00000000E+00
  0.00000000E+00  0.00000000E+00  0.00000000E+00
  0.00000000E+00  0.00000000E+00  0.00000000E+00
  0.00000000E+00  0.00000000E+00  0.00000000E+00
  0.00000000E+00  0.00000000E+00  0.00000000E+00
  0.00000000E+00  0.00000000E+00  0.00000000E+00
  0.00000000E+00  0.00000000E+00  0.00000000E+00
  0.00000000E+00  0.00000000E+00  0.00000000E+00
  0.00000000E+00  0.00000000E+00  0.00000000E+00
  0.00000000E+00  0.00000000E+00  0.00000000E+00
  0.00000000E+00  0.00000000E+00  0.00000000E+00
  0.00000000E+00  0.00000000E+00  0.00000000E+00
  0.00000000E+00  0.00000000E+00  0.00000000E+00
  0.00000000E+00  0.00000000E+00  0.00000000E+00
  0.00000000E+00  0.00000000E+00  0.00000000E+00
  0.00000000E+00  0.00000000E+00  0.00000000E+00
  0.00000000E+00  0.00000000E+00  0.00000000E+00
  0.00000000E+00  0.00000000E+00  0.00000000E+00
  0.00000000E+00  0.00000000E+00  0.00000000E+00
  0.00000000E+00  0.00000000E+00  0.00000000E+00
  0.00000000E+00  0.00000000E+00  0.00000000E+00
  0.00000000E+00  0.00000000E+00  0.00000000E+00
  0.00000000E+00  0.00000000E+00  0.00000000E+00
  0.00000000E+00  0.00000000E+00  0.00000000E+00
  0.00000000E+00  0.00000000E+00  0.00000000E+00
  0.00000000E+00  0.00000000E+00  0.00000000E+00
  0.00000000E+00  0.00000000E+00  0.00000000E+00
  0.00000000E+00  0.00000000E+00  0.00000000E+00
  0.00000000E+00  0.00000000E+00  0.00000000E+00
  0.00000000E+00  0.00000000E+00  0.00000000E+00
  0.00000000E+00  0.00000000E+00  0.00000000E+00
  0.00000000E+00  0.00000000E+00  0.00000000E+00
  0.00000000E+00  0.00000000E+00  0.00000000E+00
  0.00000000E+00  0.00000000E+00  0.00000000E+00
  0.00000000E+00  0.00000000E+00  0.00000000E+00
  0.00000000E+00  0.00000000E+00  0.00000000E+00
  0.00000000E+00  0.00000000E+00  0.00000000E+00
  0.00000000E+00  0.00000000E+00  0.00000000E+00
  0.00000000E+00  0.00000000E+00  0.00000000E+00
  0.00000000E+00  0.00000000E+00  0.00000000E+00
  0.00000000E+00  0.00000000E+00  0.00000000E+00
  0.00000000E+00  0.00000000E+00  0.00000000E+00
  0.00000000E+00  0.00000000E+00  0.00000000E+00
  0.00000000E+00  0.00000000E+00  0.00000000E+00
  0.00000000E+00  0.00000000E+00  0.00000000E+00
  0.00000000E+00  0.00000000E+00  0.00000000E+00
  0.00000000E+00  0.00000000E+00  0.00000000E+00
  0.00000000E+00  0.00000000E+00  0.00000000E+00
  0.00000000E+00  0.00000000E+00  0.00000000E+00
  0.00000000E+00  0.00000000E+00  0.00000000E+00
  0.00000000E+00  0.00000000E+00  0.00000000E+00
  0.00000000E+00  0.00000000E+00  0.00000000E+00
  0.00000000E+00  0.00000000E+00  0.00000000E+00
  0.00000000E+00  0.00000000E+00  0.00000000E+00
  0.00000000E+00  0.00000000E+00  0.00000000E+00
  0.00000000E+00  0.00000000E+00  0.00000000E+00
  0.00000000E+00  0.00000000E+00  0.00000000E+00
  0.00000000E+00  0.00000000E+00  0.00000000E+00
  0.00000000E+00  0.00000000E+00  0.00000000E+00
  0.00000000E+00  0.00000000E+00  0.00000000E+00
  0.00000000E+00  0.00000000E+00  0.00000000E+00
  0.00000000E+00  0.00000000E+00  0.00000000E+00
  0.00000000E+00  0.00000000E+00  0.00000000E+00
  0.00000000E+00  0.00000000E+00  0.00000000E+00
  0.00000000E+00  0.00000000E+00  0.00000000E+00
  0.00000000E+00  0.00000000E+00  0.00000000E+00
  0.00000000E+00  0.00000000E+00  0.00000000E+00
  0.00000000E+00  0.00000000E+00  0.00000000E+00
  0.00000000E+00  0.00000000E+00  0.00000000E+00
  0.00000000E+00  0.00000000E+00  0.00000000E+00
  0.00000000E+00  0.00000000E+00  0.00000000E+00
  0.00000000E+00  0.00000000E+00  0.00000000E+00
  0.00000000E+00  0.00000000E+00  0.00000000E+00
  0.00000000E+00  0.00000000E+00  0.00000000E+00
  0.00000000E+00  0.00000000E+00  0.00000000E+00
  0.00000000E+00  0.00000000E+00  0.00000000E+00
  0.00000000E+00  0.00000000E+00  0.00000000E+00
  0.00000000E+00  0.00000000E+00  0.00000000E+00
  0.00000000E+00  0.00000000E+00  0.00000000E+00
  0.00000000E+00  0.00000000E+00  0.00000000E+00
  0.00000000E+00  0.00000000E+00  0.00000000E+00
  0.00000000E+00  0.00000000E+00  0.00000000E+00
  0.00000000E+00  0.00000000E+00  0.00000000E+00
  0.00000000E+00  0.00000000E+00  0.00000000E+00
  0.00000000E+00  0.00000000E+00  0.00000000E+00
  0.00000000E+00  0.00000000E+00  0.00000000E+00
  0.00000000E+00  0.00000000E+00  0.00000000E+00
  0.00000000E+00  0.00000000E+00  0.00000000E+00
  0.00000000E+00  0.00000000E+00  0.00000000E+00
  0.00000000E+00  0.00000000E+00  0.00000000E+00
  0.00000000E+00  0.00000000E+00  0.00000000E+00
  0.00000000E+00  0.00000000E+00  0.00000000E+00
  0.00000000E+00  0.00000000E+00  0.00000000E+00
