SrTiFeO                                 
   1.00000000000000     
    11.1989999999999998    0.0000000000000000    0.0000000000000000
     0.0000000000000000   11.1989999999999998    0.0000000000000000
     0.0000000000000000    0.0000000000000000   15.9830000000000005
   Sr   Ti   Fe   O 
    32    30     2    94
Direct
  0.0011106857599281  0.2493253389702016  0.1252515379307159
  0.9979707834958156  0.2512150623683995  0.6245583642427750
  0.9980181437822969  0.7503583662290931  0.1257107045605604
  0.9966111457089483  0.7477841782576196  0.6223213507932309
  0.5005353606910282  0.2508062067210883  0.1240807622290939
  0.5050197197600899  0.2492573215242691  0.6279005582606046
  0.4998185785804408  0.7493973107893457  0.1240777565942401
  0.4971099766898736  0.7512395071221677  0.6278550876088466
  0.9979707834958156  0.2512150623683995  0.3754416357572253
  0.0011106857599281  0.2493253389702016  0.8747484620692844
  0.9966111457089483  0.7477841782576196  0.3776786492067686
  0.9980181437822969  0.7503583662290931  0.8742892954394393
  0.5050197197600899  0.2492573215242691  0.3720994417393955
  0.5005353606910282  0.2508062067210883  0.8759192377709072
  0.4971099766898736  0.7512395071221677  0.3721449123911528
  0.4998185785804408  0.7493973107893457  0.8759222434057589
  0.2502629084781795  0.0002259353529783  0.1247151276869432
  0.2486772824883292  0.9954510287828673  0.6280520038833144
  0.2514448172962135  0.4996881731283898  0.1241429140399802
  0.2443256592508004  0.5051483568575997  0.6287653454853966
  0.7491902969578283  0.9985509079593151  0.1251213123923042
  0.7489466398779228  0.9987191705479361  0.6245692603262821
  0.7483730854511577  0.5008994859132228  0.1245639456440144
  0.7552335290333152  0.4951491642306995  0.6277667601153545
  0.2486772824883292  0.9954510287828673  0.3719479961166869
  0.2502629084781795  0.0002259353529783  0.8752848723130567
  0.2443256592508004  0.5051483568575997  0.3712346545146042
  0.2514448172962135  0.4996881731283898  0.8758570859600212
  0.7489466398779228  0.9987191705479361  0.3754307396737174
  0.7491902969578283  0.9985509079593151  0.8748786876077029
  0.7552335290333152  0.4951491642306995  0.3722332398846448
  0.7483730854511577  0.5008994859132228  0.8754360543559855
 -0.0003068020587327  0.0000100644812229  0.0000000000000000
  0.9944144858229824  0.9958882696588750  0.5000000000000000
 -0.0000957377940891  0.4998145245860949  0.0000000000000000
  0.9997656594894234  0.5014985566955336  0.5000000000000000
  0.4998334783332674 -0.0001224519585397  0.0000000000000000
  0.4999413075304221  0.9980848784153297  0.5000000000000000
  0.4999096087698024  0.4997594384258266  0.0000000000000000
  0.2498941561034002  0.2496183638744983  0.0000000000000000
  0.2452925570180041  0.2378886921817198  0.5000000000000000
  0.2489990302638010  0.7497475601204182  0.0000000000000000
  0.2509110429330967  0.7508517034177746  0.5000000000000000
  0.7506806563702914  0.2498127549520714  0.0000000000000000
  0.7499113719859772  0.2496554253348590  0.5000000000000000
  0.7502030985670780  0.7501936541748508  0.0000000000000000
  0.2514288730381006  0.2509384179180632  0.2501813331768859
  0.2514288730381006  0.2509384179180632  0.7498186668231128
  0.2488326746277191  0.7500955071367996  0.2492068031422369
  0.2488326746277191  0.7500955071367996  0.7507931968577639
  0.7504278902137104  0.2490686335772947  0.2492538469964634
  0.7504278902137104  0.2490686335772947  0.7507461530035362
  0.7479497297228591  0.7480423212679420  0.2524101678032296
  0.7479497297228591  0.7480423212679420  0.7475898321967706
  0.9993360449620143  0.9996201284336693  0.2509763819562888
  0.9993360449620143  0.9996201284336693  0.7490236180437115
  1.0000772561732634  0.4995635822206980  0.2491020578713279
  1.0000772561732634  0.4995635822206980  0.7508979421286720
  0.4995587575172017  1.0001731246174548  0.2498994207183425
  0.4995587575172017  1.0001731246174548  0.7501005792816571
  0.4997844243256344  0.4999587487181229  0.2511964469520792
  0.4997844243256344  0.4999587487181229  0.7488035530479195
  0.5012672381700066  0.5023606474453275  0.5000000000000000
  0.7492796337556787  0.7532748365250640  0.5000000000000000
  0.1110294200052893  0.1419046279308444  0.2542710153394477
  0.1110294200052893  0.1419046279308444  0.7457289846605510
  0.1088557876996047  0.6406568262279509  0.2515038892099827
  0.1088557876996047  0.6406568262279509  0.7484961107900173
  0.6098707189146108  0.1402292977678938  0.2487839660965498
  0.6098707189146108  0.1402292977678938  0.7512160339034514
  0.6074066178378972  0.6395645172624868  0.2454192457802088
  0.3919367191451041  0.3593900422954664  0.2475279940167229
  0.3919367191451041  0.3593900422954664  0.7524720059832783
  0.3891592086850719  0.8602748983405105  0.2494244751536022
  0.3891592086850719  0.8602748983405105  0.7505755248463978
  0.8911517952611326  0.3587686314390208  0.2508796139260779
  0.8911517952611326  0.3587686314390208  0.7491203860739224
  0.8891535016534824  0.8588168395077541  0.2546433521648738
  0.8891535016534824  0.8588168395077541  0.7453566478351262
  0.3590086051080774  0.1100976534231564  0.2501988979534902
  0.3590086051080774  0.1100976534231564  0.7498011020465091
  0.3581974955105083  0.6096345444678682  0.2496292302244914
  0.3581974955105083  0.6096345444678682  0.7503707697755088
  0.8594986074107974  0.1086870000303914  0.2498379904170746
  0.8594986074107974  0.1086870000303914  0.7501620095829269
  0.8592725573647394  0.6077467150004575  0.2489722313145012
  0.8592725573647394  0.6077467150004575  0.7510277686854986
  0.1418522947899175  0.3911565418448046  0.2488562705102652
  0.1418522947899175  0.3911565418448046  0.7511437294897345
  0.1397738104318326  0.8906482456524818  0.2484571914203448
  0.1397738104318326  0.8906482456524818  0.7515428085796557
  0.6415824834875999  0.3901464461310271  0.2502242158360916
  0.6391971964348859  0.8901557468642302  0.2512756343129886
  0.6391971964348859  0.8901557468642302  0.7487243656870115
  0.3588992254528846  0.3895027963763426  0.0000000000000000
  0.3588448741619154  0.8904484103065702  0.0000000000000000
  0.3522062658844685  0.8990646249588192  0.5000000000000000
  0.8593232434642617  0.3911070401892384  0.0000000000000000
  0.8697495474149277  0.3822806493186461  0.5000000000000000
  0.8595657762772934  0.8917385818352221  0.0000000000000000
  0.8601516024470298  0.8966773546775014  0.5000000000000000
  0.1406998566511155  0.1085826257415462  0.0000000000000000
  0.1450813902344232  0.1080201232210542  0.5000000000000000
  0.1407467021337106  0.6087509430404217  0.0000000000000000
  0.1393942118887334  0.6133647758542256  0.5000000000000000
  0.6408986577899278  0.1093666414837958  0.0000000000000000
  0.6425141404011167  0.1097491687651857  0.5000000000000000
  0.6404476758885022  0.6100857118194701  0.0000000000000000
  0.1092367820083389  0.3586526994324027  0.0000000000000000
  0.1296203579996481  0.3686626244104230  0.5000000000000000
  0.1083912892953873  0.8590086469382392  0.0000000000000000
  0.1076687445259862  0.8588283175123839  0.5000000000000000
  0.6100794330228594  0.3591893692686767  0.0000000000000000
  0.6091202430763865  0.8597891143442903  0.0000000000000000
  0.5959269613249363  0.8588904961472141  0.5000000000000000
  0.3906431432434634  0.1405716943021585  0.0000000000000000
  0.3987771174434946  0.1578841554243557  0.5000000000000000
  0.3898999755960528  0.6404215241749954  0.0000000000000000
  0.3904372136341652  0.6412492773878398  0.5000000000000000
  0.8915106725460107  0.1412170804275359  0.0000000000000000
  0.8940579063671797  0.1420291526369943  0.5000000000000000
  0.8910590200242641  0.6407754834724215  0.0000000000000000
 -0.0002784606618131  0.0006838738186554  0.1258409184862074
  0.0022621546328748  0.0014965018485842  0.6249132390005884
  0.0007545502571417  0.4995821866215626  0.1248725264557599
  0.0023354500689426  0.4975906962784196  0.6258444823631055
  0.4994118031342338  0.0000332875488708  0.1249247621557871
  0.4975381551875374  0.0032602985428830  0.6255185007086188
  0.4993027648578618  0.4987976281859055  0.1241638130341141
  0.0022621546328748  0.0014965018485842  0.3750867609994119
 -0.0002784606618131  0.0006838738186554  0.8741590815137936
  0.0023354500689426  0.4975906962784196  0.3741555176368943
  0.0007545502571417  0.4995821866215626  0.8751274735442391
  0.4975381551875374  0.0032602985428830  0.3744814992913818
  0.4994118031342338  0.0000332875488708  0.8750752378442130
  0.4993027648578618  0.4987976281859055  0.8758361869658858
  0.2618330232937333  0.2627041177926983  0.3775181243968484
  0.2489988767695520  0.2484377582584462  0.8747466780238831
  0.2498453605054156  0.7522605817777164  0.3744343499468220
  0.2488023376522595  0.7494542852672479  0.8751924689880667
  0.7511471075631085  0.2484000520915771  0.3744457409399964
  0.7511912077288297  0.2500526795331215  0.8751089675179636
  0.7381941169543959  0.7354886011302153  0.3742394080013289
  0.7514934705954187  0.7519000342791791  0.8750539340833114
  0.2489988767695520  0.2484377582584462  0.1252533219761171
  0.2618330232937333  0.2627041177926983  0.6224818756031517
  0.2488023376522595  0.7494542852672479  0.1248075310119341
  0.2498453605054156  0.7522605817777164  0.6255656500531774
  0.7511912077288297  0.2500526795331215  0.1248910324820372
  0.7511471075631085  0.2484000520915771  0.6255542590600045
  0.7514934705954187  0.7519000342791791  0.1249460659166890
  0.6415824834875999  0.3901464461310271  0.7497757841639077
  0.6074066178378972  0.6395645172624868  0.7545807542197918
  0.4998890779486559  0.5007595167124546  0.3755761960668135
  0.6184984663977476  0.3686759978514212  0.5000000000000000
  0.7381941169543959  0.7354886011302153  0.6257605919986715
  0.8872245579206065  0.6281646953114737  0.5000000000000000
  0.4998890779486559  0.5007595167124546  0.6244238039331862
 
  0.00000000E+00  0.00000000E+00  0.00000000E+00
  0.00000000E+00  0.00000000E+00  0.00000000E+00
  0.00000000E+00  0.00000000E+00  0.00000000E+00
  0.00000000E+00  0.00000000E+00  0.00000000E+00
  0.00000000E+00  0.00000000E+00  0.00000000E+00
  0.00000000E+00  0.00000000E+00  0.00000000E+00
  0.00000000E+00  0.00000000E+00  0.00000000E+00
  0.00000000E+00  0.00000000E+00  0.00000000E+00
  0.00000000E+00  0.00000000E+00  0.00000000E+00
  0.00000000E+00  0.00000000E+00  0.00000000E+00
  0.00000000E+00  0.00000000E+00  0.00000000E+00
  0.00000000E+00  0.00000000E+00  0.00000000E+00
  0.00000000E+00  0.00000000E+00  0.00000000E+00
  0.00000000E+00  0.00000000E+00  0.00000000E+00
  0.00000000E+00  0.00000000E+00  0.00000000E+00
  0.00000000E+00  0.00000000E+00  0.00000000E+00
  0.00000000E+00  0.00000000E+00  0.00000000E+00
  0.00000000E+00  0.00000000E+00  0.00000000E+00
  0.00000000E+00  0.00000000E+00  0.00000000E+00
  0.00000000E+00  0.00000000E+00  0.00000000E+00
  0.00000000E+00  0.00000000E+00  0.00000000E+00
  0.00000000E+00  0.00000000E+00  0.00000000E+00
  0.00000000E+00  0.00000000E+00  0.00000000E+00
  0.00000000E+00  0.00000000E+00  0.00000000E+00
  0.00000000E+00  0.00000000E+00  0.00000000E+00
  0.00000000E+00  0.00000000E+00  0.00000000E+00
  0.00000000E+00  0.00000000E+00  0.00000000E+00
  0.00000000E+00  0.00000000E+00  0.00000000E+00
  0.00000000E+00  0.00000000E+00  0.00000000E+00
  0.00000000E+00  0.00000000E+00  0.00000000E+00
  0.00000000E+00  0.00000000E+00  0.00000000E+00
  0.00000000E+00  0.00000000E+00  0.00000000E+00
  0.00000000E+00  0.00000000E+00  0.00000000E+00
  0.00000000E+00  0.00000000E+00  0.00000000E+00
  0.00000000E+00  0.00000000E+00  0.00000000E+00
  0.00000000E+00  0.00000000E+00  0.00000000E+00
  0.00000000E+00  0.00000000E+00  0.00000000E+00
  0.00000000E+00  0.00000000E+00  0.00000000E+00
  0.00000000E+00  0.00000000E+00  0.00000000E+00
  0.00000000E+00  0.00000000E+00  0.00000000E+00
  0.00000000E+00  0.00000000E+00  0.00000000E+00
  0.00000000E+00  0.00000000E+00  0.00000000E+00
  0.00000000E+00  0.00000000E+00  0.00000000E+00
  0.00000000E+00  0.00000000E+00  0.00000000E+00
  0.00000000E+00  0.00000000E+00  0.00000000E+00
  0.00000000E+00  0.00000000E+00  0.00000000E+00
  0.00000000E+00  0.00000000E+00  0.00000000E+00
  0.00000000E+00  0.00000000E+00  0.00000000E+00
  0.00000000E+00  0.00000000E+00  0.00000000E+00
  0.00000000E+00  0.00000000E+00  0.00000000E+00
  0.00000000E+00  0.00000000E+00  0.00000000E+00
  0.00000000E+00  0.00000000E+00  0.00000000E+00
  0.00000000E+00  0.00000000E+00  0.00000000E+00
  0.00000000E+00  0.00000000E+00  0.00000000E+00
  0.00000000E+00  0.00000000E+00  0.00000000E+00
  0.00000000E+00  0.00000000E+00  0.00000000E+00
  0.00000000E+00  0.00000000E+00  0.00000000E+00
  0.00000000E+00  0.00000000E+00  0.00000000E+00
  0.00000000E+00  0.00000000E+00  0.00000000E+00
  0.00000000E+00  0.00000000E+00  0.00000000E+00
  0.00000000E+00  0.00000000E+00  0.00000000E+00
  0.00000000E+00  0.00000000E+00  0.00000000E+00
  0.00000000E+00  0.00000000E+00  0.00000000E+00
  0.00000000E+00  0.00000000E+00  0.00000000E+00
  0.00000000E+00  0.00000000E+00  0.00000000E+00
  0.00000000E+00  0.00000000E+00  0.00000000E+00
  0.00000000E+00  0.00000000E+00  0.00000000E+00
  0.00000000E+00  0.00000000E+00  0.00000000E+00
  0.00000000E+00  0.00000000E+00  0.00000000E+00
  0.00000000E+00  0.00000000E+00  0.00000000E+00
  0.00000000E+00  0.00000000E+00  0.00000000E+00
  0.00000000E+00  0.00000000E+00  0.00000000E+00
  0.00000000E+00  0.00000000E+00  0.00000000E+00
  0.00000000E+00  0.00000000E+00  0.00000000E+00
  0.00000000E+00  0.00000000E+00  0.00000000E+00
  0.00000000E+00  0.00000000E+00  0.00000000E+00
  0.00000000E+00  0.00000000E+00  0.00000000E+00
  0.00000000E+00  0.00000000E+00  0.00000000E+00
  0.00000000E+00  0.00000000E+00  0.00000000E+00
  0.00000000E+00  0.00000000E+00  0.00000000E+00
  0.00000000E+00  0.00000000E+00  0.00000000E+00
  0.00000000E+00  0.00000000E+00  0.00000000E+00
  0.00000000E+00  0.00000000E+00  0.00000000E+00
  0.00000000E+00  0.00000000E+00  0.00000000E+00
  0.00000000E+00  0.00000000E+00  0.00000000E+00
  0.00000000E+00  0.00000000E+00  0.00000000E+00
  0.00000000E+00  0.00000000E+00  0.00000000E+00
  0.00000000E+00  0.00000000E+00  0.00000000E+00
  0.00000000E+00  0.00000000E+00  0.00000000E+00
  0.00000000E+00  0.00000000E+00  0.00000000E+00
  0.00000000E+00  0.00000000E+00  0.00000000E+00
  0.00000000E+00  0.00000000E+00  0.00000000E+00
  0.00000000E+00  0.00000000E+00  0.00000000E+00
  0.00000000E+00  0.00000000E+00  0.00000000E+00
  0.00000000E+00  0.00000000E+00  0.00000000E+00
  0.00000000E+00  0.00000000E+00  0.00000000E+00
  0.00000000E+00  0.00000000E+00  0.00000000E+00
  0.00000000E+00  0.00000000E+00  0.00000000E+00
  0.00000000E+00  0.00000000E+00  0.00000000E+00
  0.00000000E+00  0.00000000E+00  0.00000000E+00
  0.00000000E+00  0.00000000E+00  0.00000000E+00
  0.00000000E+00  0.00000000E+00  0.00000000E+00
  0.00000000E+00  0.00000000E+00  0.00000000E+00
  0.00000000E+00  0.00000000E+00  0.00000000E+00
  0.00000000E+00  0.00000000E+00  0.00000000E+00
  0.00000000E+00  0.00000000E+00  0.00000000E+00
  0.00000000E+00  0.00000000E+00  0.00000000E+00
  0.00000000E+00  0.00000000E+00  0.00000000E+00
  0.00000000E+00  0.00000000E+00  0.00000000E+00
  0.00000000E+00  0.00000000E+00  0.00000000E+00
  0.00000000E+00  0.00000000E+00  0.00000000E+00
  0.00000000E+00  0.00000000E+00  0.00000000E+00
  0.00000000E+00  0.00000000E+00  0.00000000E+00
  0.00000000E+00  0.00000000E+00  0.00000000E+00
  0.00000000E+00  0.00000000E+00  0.00000000E+00
  0.00000000E+00  0.00000000E+00  0.00000000E+00
  0.00000000E+00  0.00000000E+00  0.00000000E+00
  0.00000000E+00  0.00000000E+00  0.00000000E+00
  0.00000000E+00  0.00000000E+00  0.00000000E+00
  0.00000000E+00  0.00000000E+00  0.00000000E+00
  0.00000000E+00  0.00000000E+00  0.00000000E+00
  0.00000000E+00  0.00000000E+00  0.00000000E+00
  0.00000000E+00  0.00000000E+00  0.00000000E+00
  0.00000000E+00  0.00000000E+00  0.00000000E+00
  0.00000000E+00  0.00000000E+00  0.00000000E+00
  0.00000000E+00  0.00000000E+00  0.00000000E+00
  0.00000000E+00  0.00000000E+00  0.00000000E+00
  0.00000000E+00  0.00000000E+00  0.00000000E+00
  0.00000000E+00  0.00000000E+00  0.00000000E+00
  0.00000000E+00  0.00000000E+00  0.00000000E+00
  0.00000000E+00  0.00000000E+00  0.00000000E+00
  0.00000000E+00  0.00000000E+00  0.00000000E+00
  0.00000000E+00  0.00000000E+00  0.00000000E+00
  0.00000000E+00  0.00000000E+00  0.00000000E+00
  0.00000000E+00  0.00000000E+00  0.00000000E+00
  0.00000000E+00  0.00000000E+00  0.00000000E+00
  0.00000000E+00  0.00000000E+00  0.00000000E+00
  0.00000000E+00  0.00000000E+00  0.00000000E+00
  0.00000000E+00  0.00000000E+00  0.00000000E+00
  0.00000000E+00  0.00000000E+00  0.00000000E+00
  0.00000000E+00  0.00000000E+00  0.00000000E+00
  0.00000000E+00  0.00000000E+00  0.00000000E+00
  0.00000000E+00  0.00000000E+00  0.00000000E+00
  0.00000000E+00  0.00000000E+00  0.00000000E+00
  0.00000000E+00  0.00000000E+00  0.00000000E+00
  0.00000000E+00  0.00000000E+00  0.00000000E+00
  0.00000000E+00  0.00000000E+00  0.00000000E+00
  0.00000000E+00  0.00000000E+00  0.00000000E+00
  0.00000000E+00  0.00000000E+00  0.00000000E+00
  0.00000000E+00  0.00000000E+00  0.00000000E+00
  0.00000000E+00  0.00000000E+00  0.00000000E+00
  0.00000000E+00  0.00000000E+00  0.00000000E+00
  0.00000000E+00  0.00000000E+00  0.00000000E+00
  0.00000000E+00  0.00000000E+00  0.00000000E+00
  0.00000000E+00  0.00000000E+00  0.00000000E+00
  0.00000000E+00  0.00000000E+00  0.00000000E+00
  0.00000000E+00  0.00000000E+00  0.00000000E+00
  0.00000000E+00  0.00000000E+00  0.00000000E+00
