SrTiFeO                                 
   1.00000000000000     
    11.1989999999999998    0.0000000000000000    0.0000000000000000
     0.0000000000000000   11.1989999999999998    0.0000000000000000
     0.0000000000000000    0.0000000000000000   15.9830000000000005
   Sr   Ti   Fe   O 
    32    30     2    94
Direct
  0.0009123261784653  0.2495329981837165  0.1251575915523319
  0.9952181897812187  0.2503139931053433  0.6242951001999633
  0.9994262994858119  0.7501649101157314  0.1251421565842152
  0.9957527535907925  0.7512971613194251  0.6229715763515115
  0.5007624585893364  0.2478056419959853  0.1239894813625776
  0.5040915437557711  0.2381708073681498  0.6278582676617882
  0.5007600211471648  0.7499664172892656  0.1269673583905219
  0.5054849346110620  0.7539671619298214  0.6210205563685318
  0.9942063844080007  0.2511830267620168  0.3745175634425580
  0.0013233955413441  0.2491643601128088  0.8741548185256396
  0.9945054453466994  0.7503455339086423  0.3767557132760815
  0.0008789603700495  0.7492674940085621  0.8751174433433465
  0.5022295563591826  0.2480425605123021  0.3718753635436374
  0.4996358830590898  0.2456008486747374  0.8767923475136695
  0.5017305785950709  0.7519948188031865  0.3770492695958221
  0.5017349570728585  0.7544172046327093  0.8764567738958811
  0.2493383243130256  0.0003333459637704  0.1244049608535009
  0.2486273408181633  0.9937156821529943  0.6270330401615127
  0.2491555500990339  0.4984204120210406  0.1249993630359245
  0.2364981501030977  0.5047331310651290  0.6271171594321411
  0.7503602530409635  0.9991122041992174  0.1254690473305482
  0.7500803675359135  0.9964547475473097  0.6235048930593816
  0.7499347056069805  0.5001117704533006  0.1264235133231876
  0.7602513866055920  0.5043038357933859  0.6247778919358212
  0.2493196806385791  0.9926704350861680  0.3727685094061964
  0.2508299815567682  0.0010330287556726  0.8750643403540883
  0.2428809577408998  0.5045348243968428  0.3708299553636532
  0.2465219345009757  0.4997251980816153  0.8769496547386538
  0.7477684597497348  0.9965278767264842  0.3760924966927655
  0.7513201848174921  0.9994508724341923  0.8748356096526019
  0.7526624016490042  0.5068228336043812  0.3788601712524597
  0.7544209260134309  0.5005145528370999  0.8770216821027949
  0.0007027546929284  0.0007429937223690  0.9993713053683053
  0.9928727115508791  0.9951252517880750  0.4990598993698451
  0.0001239770503186  0.5000528857352523  0.0006144080586361
  0.9989910858812742  0.5019597092483047  0.4993900696293304
  0.4999333125350063  0.9996049411631338  0.0003994120401659
  0.5006688941449390  0.9991153722218289  0.4993433855518146
  0.5009381190567633  0.5002943973203091  0.0055936440835601
  0.2502037934263359  0.2501081654598284  0.0002216330504942
  0.2426814109891690  0.2365905062393529  0.4990419268287251
  0.2507106200136595  0.7495210038410117  0.0001431444660218
  0.2501544615710738  0.7473049117464586  0.5009143452701289
  0.7499365298196267  0.2503645329891064  0.0001100442869826
  0.7456561144965593  0.2511495807791275  0.5006782616377436
  0.7497610007492800  0.7494427427185524  0.0003014641131657
  0.2507178607033084  0.2506027328745556  0.2499526251520960
  0.2510653148246433  0.2513666973583623  0.7481400225108825
  0.2500010281136921  0.7489290789369533  0.2496319782765858
  0.2509736582613987  0.7499117484312271  0.7493901487527093
  0.7492152251491663  0.2505815944174043  0.2501263693160057
  0.7502624521849253  0.2497095061696628  0.7495523812818990
  0.7486512703723035  0.7495410131031734  0.2517836004484083
  0.7507366663571499  0.7507279302197000  0.7494177973291192
  0.9994919524446386  0.0002040118569332  0.2505536014260518
  0.0001418713711564  0.9992640476134863  0.7503365942769958
  0.9986614475104381  0.4997422066575268  0.2497589619155865
  0.9996735302066265  0.4998140820596368  0.7511380465144014
  0.4989760724202102  0.9999344926233664  0.2498592022828172
  0.5002238975398466  0.9988892251700832  0.7504305849650098
  0.4978221767449018  0.4982057848489806  0.2524689632208440
  0.5011268420680647  0.5003235468942513  0.7604459695545358
  0.5107287650251811  0.5068478879108458  0.4928235829488662
  0.7479581590346949  0.7486618334854535  0.5020385928900428
  0.1101410421632418  0.1416003523428944  0.2545653344111593
  0.1131337236149166  0.1423552854578783  0.7446988421803818
  0.1089651316918992  0.6402124973001141  0.2522034667938280
  0.1124519455688077  0.6382423503955477  0.7490552486137526
  0.6090807803196583  0.1404132843346975  0.2488087437447823
  0.6108992649843152  0.1398078485148329  0.7522156992487162
  0.6060188780230169  0.6387516228510541  0.2525736976534175
  0.3899122290662198  0.3566249716558605  0.2404743595018184
  0.3944351142529997  0.3649782393872849  0.7412306691248677
  0.3902474465523741  0.8586211330336947  0.2503649169615182
  0.3899843439720053  0.8600974665876434  0.7499282239227247
  0.8905389746987179  0.3582925794105402  0.2481580539669359
  0.8898921422022811  0.3602245698272714  0.7509427464767414
  0.8902587026906076  0.8605047608580457  0.2473174678261847
  0.8922433587018879  0.8622467532428347  0.7576424514960098
  0.3573912345973920  0.1087071944698001  0.2496837610009622
  0.3608309023657232  0.1121975677012165  0.7485676349364683
  0.3571094913065432  0.6084256424011248  0.2455226074764454
  0.3650281127630033  0.6079095732905105  0.7389807222801406
  0.8591193784887992  0.1099333959648029  0.2509766424040459
  0.8612258590870338  0.1113675552083750  0.7516719825663711
  0.8592454250632438  0.6076912422180297  0.2485145200762431
  0.8622639251188693  0.6097873210796421  0.7533418455082758
  0.1405626091258908  0.3903493587156706  0.2486719378086104
  0.1411965691425188  0.3902346487868040  0.7515450724361732
  0.1404948802953546  0.8896851755403417  0.2497660573450715
  0.1414575722282633  0.8904819765654485  0.7538139044737450
  0.6405920638994342  0.3909956177111970  0.2514381458768934
  0.6384314809774586  0.8909589878626679  0.2480684494968120
  0.6384771568040739  0.8908025311598662  0.7532898204232010
  0.3594825772025277  0.3910720234775839  0.0009528808563102
  0.3590545316529929  0.8902912089352407  0.9989337739885709
  0.3575835468330216  0.8911182360696213  0.5005069098065347
  0.8593339296369914  0.3909460259353353  0.0005758674959525
  0.8626795484292508  0.3864639432739483  0.5005208318566120
  0.8606168651517334  0.8907380468134738  0.9990952671714580
  0.8607555190615533  0.8938552814995249  0.4976918741302649
  0.1414945663932881  0.1102969925908844  0.9974870449336453
  0.1432130246094863  0.1063547881785830  0.4993610034979033
  0.1409915814000205  0.6094558446447308 -0.0000964921166094
  0.1383618220310363  0.6113717726079155  0.4989271781007965
  0.6403933371502096  0.1095774844175840  0.9989879760294145
  0.6420287181080894  0.1090052335280206  0.4999631194290609
  0.6408011037919875  0.6075905516022330  0.9995636050301038
  0.1098882504151742  0.3594815100083023  0.9986305547864136
  0.1259358216151517  0.3660648395777027  0.4990363060693960
  0.1101917099297778  0.8595995240161293  0.9979498027374292
  0.1092298961643107  0.8589646045886494  0.4980480310714109
  0.6083483094091601  0.3590547035000943  0.9998774549469441
  0.6087404992571905  0.8599937696185505  0.0004454642479865
  0.6020164724532332  0.8667042519163830  0.4983431628411276
  0.3903183822579404  0.1409936478731579  0.9998264102676717
  0.3947171410720217  0.1527960951266456  0.4994800917750388
  0.3918792593261454  0.6406342208182889  0.0007802039047487
  0.3804930018141042  0.6262800184509710  0.5119001541943250
  0.8898813706942538  0.1414112026923083  0.9986545715086975
  0.8928262084984041  0.1413119847129375  0.4991998656841978
  0.8911056938378634  0.6403341848326205  0.9992648892446638
  0.0026488585327983  0.0038687530254486  0.1244108364851418
  0.9997900761199725  0.9971636088182220  0.6257449367034714
  0.0015092060146294  0.5003569757605482  0.1245158190918533
  0.0020819572402214  0.4964305325894273  0.6262045813307988
  0.4976266746404197  0.0009713445604334  0.1243983863102053
  0.4988722539655603  0.0023086498508548  0.6258852447569208
  0.5030949305310467  0.5008935334609639  0.1247300463385538
  0.0007131931539471  0.9992081795321064  0.3741037958843147
  0.0036321919681997  0.0064942971848007  0.8750941965186181
  0.9990662727381695  0.4952074723929625  0.3736841274026156
  0.0014614359733581  0.4995765290256265  0.8756901001910923
  0.4966284752886886  0.0027758732815494  0.3737396891336914
  0.4970779248221866  0.0010476465059728  0.8754321096155319
  0.4997726998181875  0.4997439185377510  0.8756008386344754
  0.2624113723260387  0.2630261569376996  0.3768569226356828
  0.2553269336879753  0.2533599854964566  0.8726290164218067
  0.2565741676170410  0.7468889195916351  0.3753436249001676
  0.2547497491387936  0.7432342242535008  0.8737880350323126
  0.7480405617606442  0.2524938419891661  0.3753899044355938
  0.7463031035815623  0.2560702815529066  0.8740671222530692
  0.7484934487856620  0.7478303771511402  0.3697994379087572
  0.7447511988855536  0.7468924640433768  0.8764507125647818
  0.2447747674850312  0.2463128322029859  0.1238759046158654
  0.2598005504231047  0.2622222087963840  0.6207187313442940
  0.2482428095419899  0.7511355518223808  0.1242930383885060
  0.2434149300061247  0.7560544946694044  0.6259080692269751
  0.7489092095214769  0.2496625228857748  0.1245734170881576
  0.7540825874037371  0.2450533755348619  0.6257746803073606
  0.7481673585217357  0.7481730148015101  0.1237446734750565
  0.6368582033780762  0.3929171289073558  0.7391288718539888
  0.6084216374459033  0.6364780454095842  0.7421078051906927
  0.4784354620228634  0.4861427370652457  0.3716123239899074
  0.6027257303593002  0.3553061270019625  0.5070128149871224
  0.7602333526574108  0.7609649086525312  0.6334641503979779
  0.8961673635134920  0.6333988769669400  0.4997674271287628
  0.6377596541738939  0.6107370091120999  0.5222121408124113
 
  0.00000000E+00  0.00000000E+00  0.00000000E+00
  0.00000000E+00  0.00000000E+00  0.00000000E+00
  0.00000000E+00  0.00000000E+00  0.00000000E+00
  0.00000000E+00  0.00000000E+00  0.00000000E+00
  0.00000000E+00  0.00000000E+00  0.00000000E+00
  0.00000000E+00  0.00000000E+00  0.00000000E+00
  0.00000000E+00  0.00000000E+00  0.00000000E+00
  0.00000000E+00  0.00000000E+00  0.00000000E+00
  0.00000000E+00  0.00000000E+00  0.00000000E+00
  0.00000000E+00  0.00000000E+00  0.00000000E+00
  0.00000000E+00  0.00000000E+00  0.00000000E+00
  0.00000000E+00  0.00000000E+00  0.00000000E+00
  0.00000000E+00  0.00000000E+00  0.00000000E+00
  0.00000000E+00  0.00000000E+00  0.00000000E+00
  0.00000000E+00  0.00000000E+00  0.00000000E+00
  0.00000000E+00  0.00000000E+00  0.00000000E+00
  0.00000000E+00  0.00000000E+00  0.00000000E+00
  0.00000000E+00  0.00000000E+00  0.00000000E+00
  0.00000000E+00  0.00000000E+00  0.00000000E+00
  0.00000000E+00  0.00000000E+00  0.00000000E+00
  0.00000000E+00  0.00000000E+00  0.00000000E+00
  0.00000000E+00  0.00000000E+00  0.00000000E+00
  0.00000000E+00  0.00000000E+00  0.00000000E+00
  0.00000000E+00  0.00000000E+00  0.00000000E+00
  0.00000000E+00  0.00000000E+00  0.00000000E+00
  0.00000000E+00  0.00000000E+00  0.00000000E+00
  0.00000000E+00  0.00000000E+00  0.00000000E+00
  0.00000000E+00  0.00000000E+00  0.00000000E+00
  0.00000000E+00  0.00000000E+00  0.00000000E+00
  0.00000000E+00  0.00000000E+00  0.00000000E+00
  0.00000000E+00  0.00000000E+00  0.00000000E+00
  0.00000000E+00  0.00000000E+00  0.00000000E+00
  0.00000000E+00  0.00000000E+00  0.00000000E+00
  0.00000000E+00  0.00000000E+00  0.00000000E+00
  0.00000000E+00  0.00000000E+00  0.00000000E+00
  0.00000000E+00  0.00000000E+00  0.00000000E+00
  0.00000000E+00  0.00000000E+00  0.00000000E+00
  0.00000000E+00  0.00000000E+00  0.00000000E+00
  0.00000000E+00  0.00000000E+00  0.00000000E+00
  0.00000000E+00  0.00000000E+00  0.00000000E+00
  0.00000000E+00  0.00000000E+00  0.00000000E+00
  0.00000000E+00  0.00000000E+00  0.00000000E+00
  0.00000000E+00  0.00000000E+00  0.00000000E+00
  0.00000000E+00  0.00000000E+00  0.00000000E+00
  0.00000000E+00  0.00000000E+00  0.00000000E+00
  0.00000000E+00  0.00000000E+00  0.00000000E+00
  0.00000000E+00  0.00000000E+00  0.00000000E+00
  0.00000000E+00  0.00000000E+00  0.00000000E+00
  0.00000000E+00  0.00000000E+00  0.00000000E+00
  0.00000000E+00  0.00000000E+00  0.00000000E+00
  0.00000000E+00  0.00000000E+00  0.00000000E+00
  0.00000000E+00  0.00000000E+00  0.00000000E+00
  0.00000000E+00  0.00000000E+00  0.00000000E+00
  0.00000000E+00  0.00000000E+00  0.00000000E+00
  0.00000000E+00  0.00000000E+00  0.00000000E+00
  0.00000000E+00  0.00000000E+00  0.00000000E+00
  0.00000000E+00  0.00000000E+00  0.00000000E+00
  0.00000000E+00  0.00000000E+00  0.00000000E+00
  0.00000000E+00  0.00000000E+00  0.00000000E+00
  0.00000000E+00  0.00000000E+00  0.00000000E+00
  0.00000000E+00  0.00000000E+00  0.00000000E+00
  0.00000000E+00  0.00000000E+00  0.00000000E+00
  0.00000000E+00  0.00000000E+00  0.00000000E+00
  0.00000000E+00  0.00000000E+00  0.00000000E+00
  0.00000000E+00  0.00000000E+00  0.00000000E+00
  0.00000000E+00  0.00000000E+00  0.00000000E+00
  0.00000000E+00  0.00000000E+00  0.00000000E+00
  0.00000000E+00  0.00000000E+00  0.00000000E+00
  0.00000000E+00  0.00000000E+00  0.00000000E+00
  0.00000000E+00  0.00000000E+00  0.00000000E+00
  0.00000000E+00  0.00000000E+00  0.00000000E+00
  0.00000000E+00  0.00000000E+00  0.00000000E+00
  0.00000000E+00  0.00000000E+00  0.00000000E+00
  0.00000000E+00  0.00000000E+00  0.00000000E+00
  0.00000000E+00  0.00000000E+00  0.00000000E+00
  0.00000000E+00  0.00000000E+00  0.00000000E+00
  0.00000000E+00  0.00000000E+00  0.00000000E+00
  0.00000000E+00  0.00000000E+00  0.00000000E+00
  0.00000000E+00  0.00000000E+00  0.00000000E+00
  0.00000000E+00  0.00000000E+00  0.00000000E+00
  0.00000000E+00  0.00000000E+00  0.00000000E+00
  0.00000000E+00  0.00000000E+00  0.00000000E+00
  0.00000000E+00  0.00000000E+00  0.00000000E+00
  0.00000000E+00  0.00000000E+00  0.00000000E+00
  0.00000000E+00  0.00000000E+00  0.00000000E+00
  0.00000000E+00  0.00000000E+00  0.00000000E+00
  0.00000000E+00  0.00000000E+00  0.00000000E+00
  0.00000000E+00  0.00000000E+00  0.00000000E+00
  0.00000000E+00  0.00000000E+00  0.00000000E+00
  0.00000000E+00  0.00000000E+00  0.00000000E+00
  0.00000000E+00  0.00000000E+00  0.00000000E+00
  0.00000000E+00  0.00000000E+00  0.00000000E+00
  0.00000000E+00  0.00000000E+00  0.00000000E+00
  0.00000000E+00  0.00000000E+00  0.00000000E+00
  0.00000000E+00  0.00000000E+00  0.00000000E+00
  0.00000000E+00  0.00000000E+00  0.00000000E+00
  0.00000000E+00  0.00000000E+00  0.00000000E+00
  0.00000000E+00  0.00000000E+00  0.00000000E+00
  0.00000000E+00  0.00000000E+00  0.00000000E+00
  0.00000000E+00  0.00000000E+00  0.00000000E+00
  0.00000000E+00  0.00000000E+00  0.00000000E+00
  0.00000000E+00  0.00000000E+00  0.00000000E+00
  0.00000000E+00  0.00000000E+00  0.00000000E+00
  0.00000000E+00  0.00000000E+00  0.00000000E+00
  0.00000000E+00  0.00000000E+00  0.00000000E+00
  0.00000000E+00  0.00000000E+00  0.00000000E+00
  0.00000000E+00  0.00000000E+00  0.00000000E+00
  0.00000000E+00  0.00000000E+00  0.00000000E+00
  0.00000000E+00  0.00000000E+00  0.00000000E+00
  0.00000000E+00  0.00000000E+00  0.00000000E+00
  0.00000000E+00  0.00000000E+00  0.00000000E+00
  0.00000000E+00  0.00000000E+00  0.00000000E+00
  0.00000000E+00  0.00000000E+00  0.00000000E+00
  0.00000000E+00  0.00000000E+00  0.00000000E+00
  0.00000000E+00  0.00000000E+00  0.00000000E+00
  0.00000000E+00  0.00000000E+00  0.00000000E+00
  0.00000000E+00  0.00000000E+00  0.00000000E+00
  0.00000000E+00  0.00000000E+00  0.00000000E+00
  0.00000000E+00  0.00000000E+00  0.00000000E+00
  0.00000000E+00  0.00000000E+00  0.00000000E+00
  0.00000000E+00  0.00000000E+00  0.00000000E+00
  0.00000000E+00  0.00000000E+00  0.00000000E+00
  0.00000000E+00  0.00000000E+00  0.00000000E+00
  0.00000000E+00  0.00000000E+00  0.00000000E+00
  0.00000000E+00  0.00000000E+00  0.00000000E+00
  0.00000000E+00  0.00000000E+00  0.00000000E+00
  0.00000000E+00  0.00000000E+00  0.00000000E+00
  0.00000000E+00  0.00000000E+00  0.00000000E+00
  0.00000000E+00  0.00000000E+00  0.00000000E+00
  0.00000000E+00  0.00000000E+00  0.00000000E+00
  0.00000000E+00  0.00000000E+00  0.00000000E+00
  0.00000000E+00  0.00000000E+00  0.00000000E+00
  0.00000000E+00  0.00000000E+00  0.00000000E+00
  0.00000000E+00  0.00000000E+00  0.00000000E+00
  0.00000000E+00  0.00000000E+00  0.00000000E+00
  0.00000000E+00  0.00000000E+00  0.00000000E+00
  0.00000000E+00  0.00000000E+00  0.00000000E+00
  0.00000000E+00  0.00000000E+00  0.00000000E+00
  0.00000000E+00  0.00000000E+00  0.00000000E+00
  0.00000000E+00  0.00000000E+00  0.00000000E+00
  0.00000000E+00  0.00000000E+00  0.00000000E+00
  0.00000000E+00  0.00000000E+00  0.00000000E+00
  0.00000000E+00  0.00000000E+00  0.00000000E+00
  0.00000000E+00  0.00000000E+00  0.00000000E+00
  0.00000000E+00  0.00000000E+00  0.00000000E+00
  0.00000000E+00  0.00000000E+00  0.00000000E+00
  0.00000000E+00  0.00000000E+00  0.00000000E+00
  0.00000000E+00  0.00000000E+00  0.00000000E+00
  0.00000000E+00  0.00000000E+00  0.00000000E+00
  0.00000000E+00  0.00000000E+00  0.00000000E+00
  0.00000000E+00  0.00000000E+00  0.00000000E+00
  0.00000000E+00  0.00000000E+00  0.00000000E+00
  0.00000000E+00  0.00000000E+00  0.00000000E+00
  0.00000000E+00  0.00000000E+00  0.00000000E+00
  0.00000000E+00  0.00000000E+00  0.00000000E+00
  0.00000000E+00  0.00000000E+00  0.00000000E+00
  0.00000000E+00  0.00000000E+00  0.00000000E+00
  0.00000000E+00  0.00000000E+00  0.00000000E+00
