Sr   Ti   Fe   O                        
   1.00000000000000     
    11.1989999999999998    0.0000000000000000    0.0000000000000000
     0.0000000000000000   11.1989999999999998    0.0000000000000000
     0.0000000000000000    0.0000000000000000   15.9830000000000005
   Sr   Ti   Fe   O 
    32    30     2    94
Direct
  0.0002592791267797  0.2488782145672742  0.1253816730267021
  0.9961937158085541  0.2492556176071224  0.6240991442982898
  0.9979003827718922  0.7510468370215128  0.1261302465419525
  0.9951893164462211  0.7499875078591399  0.6234767680474695
  0.5008936268121744  0.2490253076687896  0.1241180477892249
  0.5056799763301077  0.2408151359967651  0.6263885437299274
  0.4997751533055476  0.7505207973319776  0.1254428086778138
  0.4982542305031871  0.7542139614840254  0.6278911875146759
  0.9956608548168359  0.2498988857032037  0.3756304500147229
  0.0015772871805251  0.2492069462230183  0.8740259180497693
  0.9915805882156999  0.7484139712957278  0.3799298276131592
  0.9997186561357487  0.7495813945641864  0.8751851503619039
  0.5023488727507184  0.2467797749266385  0.3711136361819206
  0.5000483330351914  0.2483842163077892  0.8758278713444382
  0.4963533791387088  0.7514783115606495  0.3717835563407882
  0.5016115684664064  0.7544646712776581  0.8779185619880666
  0.2496136442581079  0.0005595343544718  0.1247351146008004
  0.2484357031833655  0.9948319318768620  0.6267742306641798
  0.2494576970474315  0.4990110439191339  0.1252126314643506
  0.2385412049469586  0.5056739272211227  0.6265054395247091
  0.7491937530183369  0.9981109692573586  0.1252550764286920
  0.7515784253434529  0.9950891426400439  0.6242478174910363
  0.7487686002884223  0.5006532160169265  0.1252554210997671
  0.7637667987542146  0.4966965187970005  0.6286012041922752
  0.2474300530115947  0.9939001321886356  0.3730685662057929
  0.2511935056944940  0.0013320403749414  0.8749303914307619
  0.2435965375162285  0.5069168970335484  0.3735550194839776
  0.2490402870353944  0.5003015021182499  0.8769437627270333
  0.7491743105530014  0.9955909950668590  0.3747364729367329
  0.7519248652787935  0.9994089056144311  0.8752583321611316
  0.7557360456178889  0.4964624479723910  0.3725318687305098
  0.7527339436087056  0.5014859322696423  0.8762390241914993
  0.0005713851221228  0.0006795089984458  0.9997894032143905
  0.9927390675238751  0.9947157887558216  0.4993209924619756
  0.0001990151762008  0.4999045104827364  0.0007175639819570
  0.9967112857734923  0.5009305499375890  0.5000137349260536
  0.5000591823255155  0.0004183648388667  0.0003150067884205
  0.5014974619463954  0.9955037926189308  0.4995368699911462
  0.4999086940381292  0.4999601537475106  0.0035429332509118
  0.2501600351755563  0.2502377073004076  0.0002757309555594
  0.2443499626266831  0.2380686120682731  0.4992370660139718
  0.2499412880307315  0.7496234635583813  0.0002197372006731
  0.2490488343433766  0.7491874549346603  0.4999207428847837
  0.7505067691801707  0.2504079118614418  0.9999143622549864
  0.7463174671282912  0.2477540705338161  0.4995887903528858
  0.7505715964129944  0.7502166376373087  0.0005520427259157
  0.2502613772545894  0.2511503757721408  0.2501587695992534
  0.2530181252818738  0.2528476340998497  0.7479843928335782
  0.2477082731406947  0.7498052314180378  0.2494564347129673
  0.2509076567273654  0.7503331976620008  0.7500068360536574
  0.7497960041897316  0.2487470692877018  0.2494429922557594
  0.7506669439968898  0.2493741298702278  0.7500338087765309
  0.7469446280516933  0.7471657695279416  0.2527686714047194
  0.7505662144656997  0.7509227919122013  0.7504695278375312
  0.9991820857808518  0.9995027424250211  0.2507482808743056
  0.0008935818973720  0.9996442331816785  0.7500815016272872
  0.9992452382127164  0.4996728063302964  0.2495757205771887
  0.0012375201057024  0.4999054894401186  0.7517329993470316
  0.4987447993692961  0.9997549875789262  0.2497669949991516
  0.5008959867670428  0.0002893066697360  0.7506711753615900
  0.4980711842643369  0.4987048299852717  0.2513984096215036
  0.5042473693419843  0.5035105203616338  0.7564842187499324
  0.5090508788228658  0.5051581178138413  0.4941358240568613
  0.7449286062772048  0.7488349516439112  0.5037428484999643
  0.1104281145664209  0.1424675264651490  0.2541173423190211
  0.1143808810104827  0.1427268389129626  0.7440042659481230
  0.1071500243508819  0.6410305388291340  0.2520067537200691
  0.1132587240130631  0.6386691928312761  0.7489121859881873
  0.6093828482907389  0.1390919967216243  0.2485741037218102
  0.6109299120299496  0.1407839590637633  0.7519643768498976
  0.6050948989336692  0.6382836173911781  0.2462524691910762
  0.3904659130266049  0.3581150086059631  0.2434800593113312
  0.3954615038690161  0.3663123914006268  0.7394286717041900
  0.3886359956102171  0.8596460909483025  0.2491769724555044
  0.3887805050834156  0.8627307463524109  0.7520960216225875
  0.8902289018826122  0.3585315239501459  0.2502244309875377
  0.8909111115723134  0.3604342635698286  0.7495934058946943
  0.8885626262862544  0.8593123196118612  0.2533178052602753
  0.8927740576375723  0.8630010419345467  0.7559189553576821
  0.3582080899036958  0.1095461159951064  0.2509244350394476
  0.3619918024782203  0.1134775198988041  0.7482398190603587
  0.3565849678694957  0.6092454030442848  0.2480948308391166
  0.3662279598988638  0.6109451971620962  0.7391485773575530
  0.8592327868353945  0.1086976517465097  0.2482616084738728
  0.8618678031637296  0.1118146942396465  0.7505555997028547
  0.8582168325122088  0.6067666459749480  0.2481734078715760
  0.8642703971277288  0.6109835323693156  0.7533156269083873
  0.1407238165982855  0.3914232038736273  0.2504772041627155
  0.1426523335760563  0.3910932186429986  0.7518478559701557
  0.1395444166197450  0.8911230254154304  0.2474257214704012
  0.1416687356404070  0.8905225129410741  0.7529670587405480
  0.6405991134880189  0.3893675328904868  0.2505598319049017
  0.6374647792833695  0.8890633771569164  0.2498559613462009
  0.6392070927241156  0.8921549831428947  0.7531479872994989
  0.3587163647103572  0.3907603906913671  0.0012467498603849
  0.3592536314050567  0.8903207561573647  0.9992058952986683
  0.3566934581833502  0.8916278879830714  0.5000494418265091
  0.8593540478689000  0.3912873961822617  0.0005234288596915
  0.8676369242833707  0.3793142250509068  0.4998091707546517
  0.8611111744064465  0.8920239641295354  0.0004812060962401
  0.8626083959276316  0.8906158978807786  0.4950799263693293
  0.1419955705638363  0.1100625668780775  0.9990105057017857
  0.1413302293623319  0.1108002910167405  0.5002165197892889
  0.1409735932718724  0.6088066062875587  0.9999557281992572
  0.1248699298861548  0.6206791066366548  0.4993628440114116
  0.6407848843982531  0.1098711518989694  0.9995812936324266
  0.6435947921577857  0.1023240255360618  0.4999381899626251
  0.6399814068006439  0.6089090237818851  0.9984124350434380
  0.1096444928220337  0.3588560614495873  0.9989646727302272
  0.1294203004400271  0.3717496403764641  0.4984748880428629
  0.1099977650717057  0.8593252012709792  0.9980370449370674
  0.1096539685994757  0.8631542094644132  0.4989496377875451
  0.6089148503163128  0.3596204160082778  0.9989602239591009
  0.6092940917121193  0.8607386398165183  0.0009652682041677
  0.5987216483925992  0.8534847836682458  0.4994120746325001
  0.3906179671831576  0.1412952054828094  0.0004994100827496
  0.3949845471938545  0.1496187972245390  0.4996190211883164
  0.3911712293945531  0.6405027667470276  0.0007350407058750
  0.3695810845447656  0.6247359428499700  0.4980106801286326
  0.8909316121905627  0.1417961817800390  0.9992762247665169
  0.8914396749840009  0.1380674837078420  0.5006225121963555
  0.8914370265602409  0.6400664504496729  0.0005048597147604
  0.0015848442308021  0.0017189613904812  0.1249117823277758
  0.9993517055007582  0.9968834539518016  0.6257457846829034
  0.0017871852988786  0.4989018459236574  0.1251121900483037
  0.0044913740242388  0.4964317547959528  0.6260160020630057
  0.4982926416761458  0.0007185054923752  0.1248857938719310
  0.4997887841968799  0.0020697625872429  0.6255195445961180
  0.5008450890930904  0.4990188484751863  0.1237255586258293
  0.0024408115411174  0.0028325031614293  0.3739882427728580
  0.0039516464438838  0.0067131139044335  0.8750707932128212
  0.9971402902044593  0.4984278190623883  0.3746595718810642
  0.0014633144505814  0.4992191748716176  0.8757105464263019
  0.4978973568459027  0.9999993715366305  0.3745438010906817
  0.4981307996514972  0.0023284553784515  0.8757458654536617
  0.4937166258968301  0.4966266532808625  0.8741641176591393
  0.2630566940223691  0.2632636844684111  0.3774465931799683
  0.2557528772178345  0.2528354663901913  0.8728051301619458
  0.2488420514583357  0.7530743456518731  0.3736469030134010
  0.2540406606141951  0.7434461869608716  0.8740328354751775
  0.7517874105482460  0.2460846209130399  0.3739193994050243
  0.7493428870002672  0.2536309756543627  0.8744261475893143
  0.7382704265873303  0.7354587638385067  0.3716761087118521
  0.7522990082074209  0.7526936258410216  0.8781091328724490
  0.2464360543345702  0.2481969219104743  0.1249097515659013
  0.2605484387684560  0.2635185213417075  0.6203232467143571
  0.2477638240216010  0.7498070926344952  0.1241978107349885
  0.2467143460648850  0.7548987738105559  0.6252271729057058
  0.7494458636720637  0.2504463362353771  0.1243434994986453
  0.7501445466907863  0.2469574849813641  0.6252962180025912
  0.7501488363395143  0.7500325779201720  0.1244878514590500
  0.6398114167732514  0.3926073122778975  0.7453535796132638
  0.6116601695382080  0.6414368327963819  0.7592556388239495
  0.4907702332391373  0.4939733787571451  0.3723777915620315
  0.6072721870737470  0.3515283587939063  0.4969493645685460
  0.7558779006291083  0.7572767371695398  0.6331508271980081
  0.8748942913855100  0.6233129493315208  0.5028209310920932
  0.5748733214947800  0.5654788110597243  0.5911916999227567
 
  0.00000000E+00  0.00000000E+00  0.00000000E+00
  0.00000000E+00  0.00000000E+00  0.00000000E+00
  0.00000000E+00  0.00000000E+00  0.00000000E+00
  0.00000000E+00  0.00000000E+00  0.00000000E+00
  0.00000000E+00  0.00000000E+00  0.00000000E+00
  0.00000000E+00  0.00000000E+00  0.00000000E+00
  0.00000000E+00  0.00000000E+00  0.00000000E+00
  0.00000000E+00  0.00000000E+00  0.00000000E+00
  0.00000000E+00  0.00000000E+00  0.00000000E+00
  0.00000000E+00  0.00000000E+00  0.00000000E+00
  0.00000000E+00  0.00000000E+00  0.00000000E+00
  0.00000000E+00  0.00000000E+00  0.00000000E+00
  0.00000000E+00  0.00000000E+00  0.00000000E+00
  0.00000000E+00  0.00000000E+00  0.00000000E+00
  0.00000000E+00  0.00000000E+00  0.00000000E+00
  0.00000000E+00  0.00000000E+00  0.00000000E+00
  0.00000000E+00  0.00000000E+00  0.00000000E+00
  0.00000000E+00  0.00000000E+00  0.00000000E+00
  0.00000000E+00  0.00000000E+00  0.00000000E+00
  0.00000000E+00  0.00000000E+00  0.00000000E+00
  0.00000000E+00  0.00000000E+00  0.00000000E+00
  0.00000000E+00  0.00000000E+00  0.00000000E+00
  0.00000000E+00  0.00000000E+00  0.00000000E+00
  0.00000000E+00  0.00000000E+00  0.00000000E+00
  0.00000000E+00  0.00000000E+00  0.00000000E+00
  0.00000000E+00  0.00000000E+00  0.00000000E+00
  0.00000000E+00  0.00000000E+00  0.00000000E+00
  0.00000000E+00  0.00000000E+00  0.00000000E+00
  0.00000000E+00  0.00000000E+00  0.00000000E+00
  0.00000000E+00  0.00000000E+00  0.00000000E+00
  0.00000000E+00  0.00000000E+00  0.00000000E+00
  0.00000000E+00  0.00000000E+00  0.00000000E+00
  0.00000000E+00  0.00000000E+00  0.00000000E+00
  0.00000000E+00  0.00000000E+00  0.00000000E+00
  0.00000000E+00  0.00000000E+00  0.00000000E+00
  0.00000000E+00  0.00000000E+00  0.00000000E+00
  0.00000000E+00  0.00000000E+00  0.00000000E+00
  0.00000000E+00  0.00000000E+00  0.00000000E+00
  0.00000000E+00  0.00000000E+00  0.00000000E+00
  0.00000000E+00  0.00000000E+00  0.00000000E+00
  0.00000000E+00  0.00000000E+00  0.00000000E+00
  0.00000000E+00  0.00000000E+00  0.00000000E+00
  0.00000000E+00  0.00000000E+00  0.00000000E+00
  0.00000000E+00  0.00000000E+00  0.00000000E+00
  0.00000000E+00  0.00000000E+00  0.00000000E+00
  0.00000000E+00  0.00000000E+00  0.00000000E+00
  0.00000000E+00  0.00000000E+00  0.00000000E+00
  0.00000000E+00  0.00000000E+00  0.00000000E+00
  0.00000000E+00  0.00000000E+00  0.00000000E+00
  0.00000000E+00  0.00000000E+00  0.00000000E+00
  0.00000000E+00  0.00000000E+00  0.00000000E+00
  0.00000000E+00  0.00000000E+00  0.00000000E+00
  0.00000000E+00  0.00000000E+00  0.00000000E+00
  0.00000000E+00  0.00000000E+00  0.00000000E+00
  0.00000000E+00  0.00000000E+00  0.00000000E+00
  0.00000000E+00  0.00000000E+00  0.00000000E+00
  0.00000000E+00  0.00000000E+00  0.00000000E+00
  0.00000000E+00  0.00000000E+00  0.00000000E+00
  0.00000000E+00  0.00000000E+00  0.00000000E+00
  0.00000000E+00  0.00000000E+00  0.00000000E+00
  0.00000000E+00  0.00000000E+00  0.00000000E+00
  0.00000000E+00  0.00000000E+00  0.00000000E+00
  0.00000000E+00  0.00000000E+00  0.00000000E+00
  0.00000000E+00  0.00000000E+00  0.00000000E+00
  0.00000000E+00  0.00000000E+00  0.00000000E+00
  0.00000000E+00  0.00000000E+00  0.00000000E+00
  0.00000000E+00  0.00000000E+00  0.00000000E+00
  0.00000000E+00  0.00000000E+00  0.00000000E+00
  0.00000000E+00  0.00000000E+00  0.00000000E+00
  0.00000000E+00  0.00000000E+00  0.00000000E+00
  0.00000000E+00  0.00000000E+00  0.00000000E+00
  0.00000000E+00  0.00000000E+00  0.00000000E+00
  0.00000000E+00  0.00000000E+00  0.00000000E+00
  0.00000000E+00  0.00000000E+00  0.00000000E+00
  0.00000000E+00  0.00000000E+00  0.00000000E+00
  0.00000000E+00  0.00000000E+00  0.00000000E+00
  0.00000000E+00  0.00000000E+00  0.00000000E+00
  0.00000000E+00  0.00000000E+00  0.00000000E+00
  0.00000000E+00  0.00000000E+00  0.00000000E+00
  0.00000000E+00  0.00000000E+00  0.00000000E+00
  0.00000000E+00  0.00000000E+00  0.00000000E+00
  0.00000000E+00  0.00000000E+00  0.00000000E+00
  0.00000000E+00  0.00000000E+00  0.00000000E+00
  0.00000000E+00  0.00000000E+00  0.00000000E+00
  0.00000000E+00  0.00000000E+00  0.00000000E+00
  0.00000000E+00  0.00000000E+00  0.00000000E+00
  0.00000000E+00  0.00000000E+00  0.00000000E+00
  0.00000000E+00  0.00000000E+00  0.00000000E+00
  0.00000000E+00  0.00000000E+00  0.00000000E+00
  0.00000000E+00  0.00000000E+00  0.00000000E+00
  0.00000000E+00  0.00000000E+00  0.00000000E+00
  0.00000000E+00  0.00000000E+00  0.00000000E+00
  0.00000000E+00  0.00000000E+00  0.00000000E+00
  0.00000000E+00  0.00000000E+00  0.00000000E+00
  0.00000000E+00  0.00000000E+00  0.00000000E+00
  0.00000000E+00  0.00000000E+00  0.00000000E+00
  0.00000000E+00  0.00000000E+00  0.00000000E+00
  0.00000000E+00  0.00000000E+00  0.00000000E+00
  0.00000000E+00  0.00000000E+00  0.00000000E+00
  0.00000000E+00  0.00000000E+00  0.00000000E+00
  0.00000000E+00  0.00000000E+00  0.00000000E+00
  0.00000000E+00  0.00000000E+00  0.00000000E+00
  0.00000000E+00  0.00000000E+00  0.00000000E+00
  0.00000000E+00  0.00000000E+00  0.00000000E+00
  0.00000000E+00  0.00000000E+00  0.00000000E+00
  0.00000000E+00  0.00000000E+00  0.00000000E+00
  0.00000000E+00  0.00000000E+00  0.00000000E+00
  0.00000000E+00  0.00000000E+00  0.00000000E+00
  0.00000000E+00  0.00000000E+00  0.00000000E+00
  0.00000000E+00  0.00000000E+00  0.00000000E+00
  0.00000000E+00  0.00000000E+00  0.00000000E+00
  0.00000000E+00  0.00000000E+00  0.00000000E+00
  0.00000000E+00  0.00000000E+00  0.00000000E+00
  0.00000000E+00  0.00000000E+00  0.00000000E+00
  0.00000000E+00  0.00000000E+00  0.00000000E+00
  0.00000000E+00  0.00000000E+00  0.00000000E+00
  0.00000000E+00  0.00000000E+00  0.00000000E+00
  0.00000000E+00  0.00000000E+00  0.00000000E+00
  0.00000000E+00  0.00000000E+00  0.00000000E+00
  0.00000000E+00  0.00000000E+00  0.00000000E+00
  0.00000000E+00  0.00000000E+00  0.00000000E+00
  0.00000000E+00  0.00000000E+00  0.00000000E+00
  0.00000000E+00  0.00000000E+00  0.00000000E+00
  0.00000000E+00  0.00000000E+00  0.00000000E+00
  0.00000000E+00  0.00000000E+00  0.00000000E+00
  0.00000000E+00  0.00000000E+00  0.00000000E+00
  0.00000000E+00  0.00000000E+00  0.00000000E+00
  0.00000000E+00  0.00000000E+00  0.00000000E+00
  0.00000000E+00  0.00000000E+00  0.00000000E+00
  0.00000000E+00  0.00000000E+00  0.00000000E+00
  0.00000000E+00  0.00000000E+00  0.00000000E+00
  0.00000000E+00  0.00000000E+00  0.00000000E+00
  0.00000000E+00  0.00000000E+00  0.00000000E+00
  0.00000000E+00  0.00000000E+00  0.00000000E+00
  0.00000000E+00  0.00000000E+00  0.00000000E+00
  0.00000000E+00  0.00000000E+00  0.00000000E+00
  0.00000000E+00  0.00000000E+00  0.00000000E+00
  0.00000000E+00  0.00000000E+00  0.00000000E+00
  0.00000000E+00  0.00000000E+00  0.00000000E+00
  0.00000000E+00  0.00000000E+00  0.00000000E+00
  0.00000000E+00  0.00000000E+00  0.00000000E+00
  0.00000000E+00  0.00000000E+00  0.00000000E+00
  0.00000000E+00  0.00000000E+00  0.00000000E+00
  0.00000000E+00  0.00000000E+00  0.00000000E+00
  0.00000000E+00  0.00000000E+00  0.00000000E+00
  0.00000000E+00  0.00000000E+00  0.00000000E+00
  0.00000000E+00  0.00000000E+00  0.00000000E+00
  0.00000000E+00  0.00000000E+00  0.00000000E+00
  0.00000000E+00  0.00000000E+00  0.00000000E+00
  0.00000000E+00  0.00000000E+00  0.00000000E+00
  0.00000000E+00  0.00000000E+00  0.00000000E+00
  0.00000000E+00  0.00000000E+00  0.00000000E+00
  0.00000000E+00  0.00000000E+00  0.00000000E+00
  0.00000000E+00  0.00000000E+00  0.00000000E+00
  0.00000000E+00  0.00000000E+00  0.00000000E+00
  0.00000000E+00  0.00000000E+00  0.00000000E+00
  0.00000000E+00  0.00000000E+00  0.00000000E+00
  0.00000000E+00  0.00000000E+00  0.00000000E+00
