Sr   Ti   Fe   O                        
   1.00000000000000     
    11.1989999999999998    0.0000000000000000    0.0000000000000000
     0.0000000000000000   11.1989999999999998    0.0000000000000000
     0.0000000000000000    0.0000000000000000   15.9830000000000005
   Sr   Ti   Fe   O 
    32    30     2    94
Direct
  0.9995681410617536  0.2497000791077285  0.1245381621812321
  0.0061197057111634  0.2474639110196096  0.6271801879396152
  0.9987485452474791  0.7511411645848906  0.1257896097361154
  0.9970206655964786  0.7492813877792113  0.6240240599594753
  0.5004305796175401  0.2500533726889405  0.1254366224280223
  0.4965711741823567  0.2375350423242232  0.6263694286576056
  0.4999591047603331  0.7507887165792138  0.1249919801051481
  0.5038878159207677  0.7469532575298143  0.6237836731926384
  0.0067651006600646  0.2492284648646942  0.3731661529906898
  0.9998273078770391  0.2504378606192950  0.8751730840780819
  0.9972121189728206  0.7473687893359855  0.3769014615553923
  0.9998887526338686  0.7502596058470566  0.8744274511880699
  0.4946864100501324  0.2417955347154273  0.3712215854008256
  0.5004042465933792  0.2472570373410189  0.8760150158160472
  0.4986515761076543  0.7515018830924807  0.3730740620411164
  0.5016236149990254  0.7542189434878707  0.8770790948117481
  0.2495805489042598  0.0005143103009079  0.1247037936048813
  0.2488083082849849  0.9995117981609348  0.6245803946055404
  0.2504194260653332  0.5008765635426041  0.1267037405144380
  0.2428047649500711  0.4970161754820848  0.6238518400809000
  0.7500249725762628  0.9993243082373660  0.1257735732706240
  0.7483869373570438  0.9937594754737380  0.6245805243014683
  0.7508143377315948  0.5022153614911971  0.1240074559376158
  0.7690575693170910  0.4986980836324628  0.6323880806307053
  0.2481580285855438  0.9996132209869912  0.3746424893406975
  0.2502018738437153  0.0005923489671605  0.8748778155005384
  0.2474167214698819  0.4984150987524572  0.3765575121172475
  0.2483502210949157  0.5009034149862157  0.8768835653831558
  0.7467146471027506  0.9920427722108777  0.3760790883561024
  0.7517608529267330 -0.0000287222170736  0.8748502173703154
  0.7562280864504219  0.4991046606414805  0.3697737477503796
  0.7535563117017106  0.5016662959926527  0.8766272423879542
  0.9993875158583077  0.0005508205916882  0.9996855595936853
  0.0026706664129068  0.9940455999442769  0.4993857070790427
  0.0005729914903640  0.4999751171753904  0.0005847460398006
  0.9987092732656013  0.5014368645178291  0.4996171698175224
  0.5000090340062294  0.0003634908744654  0.0002411590774982
  0.4973462514756029  0.9969698111579863  0.4997455672582768
  0.4989460599084336  0.5002327635506623  0.0047852243479149
  0.2507839146203770  0.2507023233378805  0.0001649638424571
  0.2495204395984576  0.2486360114955020  0.5003944127375362
  0.2507123553054759  0.7496390893977727  0.9999733415558053
  0.2504363472767986  0.7499067514831502  0.4995367066197783
  0.7503651363142212  0.2499692575129275  0.0002723485107988
  0.7626041431902432  0.2423869990922641  0.4996033470498919
  0.7505120029787334  0.7507165818032808  0.0003690788645985
  0.2499573092221052  0.2498220141601213  0.2493091472881635
  0.2512740602010682  0.2501378336039845  0.7498270498726027
  0.2487700779414631  0.7498359534802728  0.2505693809534186
  0.2513071232915693  0.7499684564922309  0.7481365088459359
  0.7487957660352561  0.2500834588118946  0.2500297926773680
  0.7488944909680827  0.2499994421290033  0.7496233878482593
  0.7482113500903460  0.7478015841165158  0.2521198611036663
  0.7506821310241920  0.7506503620703242  0.7499705519887054
  0.9991340698823719  0.9995374415609540  0.2507657525938528
  0.0008468793758220  0.9996356505736228  0.7500283953302900
  0.0007485841814573  0.4993507542710893  0.2495289939783760
  0.0029829231226994  0.4997608626875084  0.7515721913052610
  0.4996209536709054  0.9989288201988267  0.2494953013063955
  0.5003987788794060  0.9985222666212900  0.7503186055301990
  0.5015308458396615  0.4987762777281680  0.2526828763977943
  0.5025092929009043  0.5014643482251470  0.7583462639587146
  0.4879543961705180  0.5017210506703809  0.4945803592111485
  0.7515047488635807  0.7518678713763477  0.5024695711499546
  0.1093444922291690  0.1408600313207926  0.2482672205279819
  0.1112299295133901  0.1408225633962814  0.7544358958218984
  0.1089965827527792  0.6398503390668197  0.2487822711878692
  0.1137354477476317  0.6382702036300418  0.7509563255927567
  0.6089489409764285  0.1401825271392735  0.2491353554574331
  0.6099362710403040  0.1410803074481834  0.7510961679399069
  0.6082080759155749  0.6395837770288587  0.2444844814561331
  0.3909267244284694  0.3587860933451883  0.2495450878935817
  0.3934627221607120  0.3651132684659149  0.7368175821280054
  0.3896827407929691  0.8594285759843698  0.2492127117814480
  0.3903634941683923  0.8605952192970926  0.7501560282047783
  0.8900670426560080  0.3586180965570308  0.2519231625037797
  0.8899022107805025  0.3608038370865888  0.7486005007830416
  0.8883805525758912  0.8595542995781325  0.2535197418752920
  0.8912856760420048  0.8625613576585751  0.7524244724153702
  0.3596753102380455  0.1100423351468361  0.2506995998094284
  0.3621708169938011  0.1124873751106588  0.7499683316569934
  0.3596043042033224  0.6089024331969453  0.2556078705622306
  0.3668975263799930  0.6093304993480233  0.7364890557302307
  0.8575708863408139  0.1103460281423818  0.2558916176874947
  0.8591593102185610  0.1126298998545283  0.7457416745127389
  0.8604017359783299  0.6083995372828339  0.2485826663664138
  0.8654925394048663  0.6126511782241750  0.7542956870293791
  0.1409471486781279  0.3903359977549252  0.2488130009034568
  0.1417689768903256  0.3897931888214701  0.7519553894453660
  0.1388694828232356  0.8907172087358290  0.2450947948155365
  0.1409460604353382  0.8899937811565011  0.7529112730285695
  0.6421148039628832  0.3895988959923046  0.2411087850990208
  0.6392623907276598  0.8897709126080864  0.2495219856430324
  0.6402149052397395  0.8918424664843381  0.7526557793229449
  0.3585758631376729  0.3917256044439075  0.0014649598428733
  0.3591916326748477  0.8907437840238359  0.9995514501018443
  0.3527717636433472  0.8961288496019163  0.4998590020411702
  0.8591928303392307  0.3906233729421265  0.9999888576975084
  0.8495137357714373  0.3929998347371247  0.4990224583950031
  0.8598004956492394  0.8914050685072300  0.0002394724048424
  0.8602050972105906  0.9025939140029970  0.4983853894532728
  0.1411806353214667  0.1100113000275030  0.9987936164029114
  0.1403574865332446  0.1084117693267790  0.4989756883340660
  0.1409731906831225  0.6089888288288129  1.0000418382129883
  0.1398185086902814  0.6079533900222280  0.4989341136800163
  0.6407914350928069  0.1097751130094029  0.9990980832131620
  0.6329014546333026  0.1237050831294898  0.4993372933743821
  0.6396727795439421  0.6087067075554198  0.9987796629660841
  0.1097279152748769  0.3587719174654525  0.9994708024385530
  0.1071254769222751  0.3574362309325471  0.5001963612112127
  0.1100972796549492  0.8596576172170838  0.9992055727305204
  0.1041202408634963  0.8565600339288916  0.5002166193697544
  0.6091029125179200  0.3596792530903620  0.0005306321565852
  0.6091513040230540  0.8601157954887920  0.0009227519083801
  0.6020612682776606  0.8635582985321345  0.5002566526975571
  0.3911933777053921  0.1411929297947917  0.0001621421027890
  0.3875091015022156  0.1390939413609777  0.4994985294851793
  0.3917073806573856  0.6411855164468155  0.9994620107537370
  0.3848144028294797  0.6506996976134696  0.4943146658680341
  0.8908195734046573  0.1417245559374085  0.9978848651485730
  0.8945111816658572  0.1455836995226437  0.4986481574935228
  0.8911330525181447  0.6398633754931562  0.9997398232646237
  0.9951981191360370  0.0024352211582378  0.1248844176588916
  0.0033463168151807  0.0018633564245394  0.6260943477375595
  0.9998361021277514  0.4978982025187060  0.1247093041199192
  0.0050425557874709  0.4981533462156718  0.6262462491631550
  0.4990527888077017  0.0007755391573418  0.1247843789814177
  0.5002479816880792  0.0030234465875793  0.6259490471613246
  0.4954253811353688  0.5013146593194520  0.1244243771683307
  0.0052065553611782  0.0009988660957470  0.3739030446206281
  0.9977489668590066  0.0021031993953400  0.8752417305339362
  0.0020272184655135  0.4975614611142744  0.3739491108270602
  0.0013659344522574  0.4977812670213969  0.8757902952017249
  0.4994111284247665  0.0004215972497505  0.3738536481733412
  0.4986336192802371  0.0005377501148145  0.8755480615092818
  0.4916527298208223  0.4966018582540342  0.8746471061522756
  0.2490480054949045  0.2522349809193057  0.3741345851097616
  0.2580684401710671  0.2549235274878844  0.8742954785583964
  0.2421367563067487  0.7564510478252368  0.3732401276109192
  0.2553874943249759  0.7444330131291397  0.8736346903161890
  0.7342812300435535  0.2628572328143699  0.3778093944433581
  0.7493475489166775  0.2525310575540724  0.8737248883511046
  0.7393337952442620  0.7372756832757920  0.3735408382583245
  0.7508549430272938  0.7519110845222965  0.8769828084217038
  0.2507259811950581  0.2492448217049765  0.1244917542563128
  0.2431611663368142  0.2444853231899760  0.6264115079523437
  0.2520657306776208  0.7471662690382957  0.1244679742363501
  0.2442691194677363  0.7540475523085878  0.6248565558063032
  0.7540208815774334  0.2452183305658051  0.1246100389596816
  0.7387472524128873  0.2581304694327849  0.6215270554589245
  0.7518382121222180  0.7502839067939954  0.1244064388502803
  0.6386389626443192  0.3930222538263672  0.7481891547540114
  0.6108046748361254  0.6396125222963878  0.7554124545995916
  0.5186054985620889  0.4905807311750311  0.3722415832272291
  0.3609983220884439  0.3819362823906306  0.5066674482701339
  0.7521789091792805  0.7544175350808420  0.6306607171173382
  0.8909196992004971  0.6326699142607648  0.5002528882626387
  0.5897048464931357  0.5554187136411661  0.5764316616608938
 
  0.00000000E+00  0.00000000E+00  0.00000000E+00
  0.00000000E+00  0.00000000E+00  0.00000000E+00
  0.00000000E+00  0.00000000E+00  0.00000000E+00
  0.00000000E+00  0.00000000E+00  0.00000000E+00
  0.00000000E+00  0.00000000E+00  0.00000000E+00
  0.00000000E+00  0.00000000E+00  0.00000000E+00
  0.00000000E+00  0.00000000E+00  0.00000000E+00
  0.00000000E+00  0.00000000E+00  0.00000000E+00
  0.00000000E+00  0.00000000E+00  0.00000000E+00
  0.00000000E+00  0.00000000E+00  0.00000000E+00
  0.00000000E+00  0.00000000E+00  0.00000000E+00
  0.00000000E+00  0.00000000E+00  0.00000000E+00
  0.00000000E+00  0.00000000E+00  0.00000000E+00
  0.00000000E+00  0.00000000E+00  0.00000000E+00
  0.00000000E+00  0.00000000E+00  0.00000000E+00
  0.00000000E+00  0.00000000E+00  0.00000000E+00
  0.00000000E+00  0.00000000E+00  0.00000000E+00
  0.00000000E+00  0.00000000E+00  0.00000000E+00
  0.00000000E+00  0.00000000E+00  0.00000000E+00
  0.00000000E+00  0.00000000E+00  0.00000000E+00
  0.00000000E+00  0.00000000E+00  0.00000000E+00
  0.00000000E+00  0.00000000E+00  0.00000000E+00
  0.00000000E+00  0.00000000E+00  0.00000000E+00
  0.00000000E+00  0.00000000E+00  0.00000000E+00
  0.00000000E+00  0.00000000E+00  0.00000000E+00
  0.00000000E+00  0.00000000E+00  0.00000000E+00
  0.00000000E+00  0.00000000E+00  0.00000000E+00
  0.00000000E+00  0.00000000E+00  0.00000000E+00
  0.00000000E+00  0.00000000E+00  0.00000000E+00
  0.00000000E+00  0.00000000E+00  0.00000000E+00
  0.00000000E+00  0.00000000E+00  0.00000000E+00
  0.00000000E+00  0.00000000E+00  0.00000000E+00
  0.00000000E+00  0.00000000E+00  0.00000000E+00
  0.00000000E+00  0.00000000E+00  0.00000000E+00
  0.00000000E+00  0.00000000E+00  0.00000000E+00
  0.00000000E+00  0.00000000E+00  0.00000000E+00
  0.00000000E+00  0.00000000E+00  0.00000000E+00
  0.00000000E+00  0.00000000E+00  0.00000000E+00
  0.00000000E+00  0.00000000E+00  0.00000000E+00
  0.00000000E+00  0.00000000E+00  0.00000000E+00
  0.00000000E+00  0.00000000E+00  0.00000000E+00
  0.00000000E+00  0.00000000E+00  0.00000000E+00
  0.00000000E+00  0.00000000E+00  0.00000000E+00
  0.00000000E+00  0.00000000E+00  0.00000000E+00
  0.00000000E+00  0.00000000E+00  0.00000000E+00
  0.00000000E+00  0.00000000E+00  0.00000000E+00
  0.00000000E+00  0.00000000E+00  0.00000000E+00
  0.00000000E+00  0.00000000E+00  0.00000000E+00
  0.00000000E+00  0.00000000E+00  0.00000000E+00
  0.00000000E+00  0.00000000E+00  0.00000000E+00
  0.00000000E+00  0.00000000E+00  0.00000000E+00
  0.00000000E+00  0.00000000E+00  0.00000000E+00
  0.00000000E+00  0.00000000E+00  0.00000000E+00
  0.00000000E+00  0.00000000E+00  0.00000000E+00
  0.00000000E+00  0.00000000E+00  0.00000000E+00
  0.00000000E+00  0.00000000E+00  0.00000000E+00
  0.00000000E+00  0.00000000E+00  0.00000000E+00
  0.00000000E+00  0.00000000E+00  0.00000000E+00
  0.00000000E+00  0.00000000E+00  0.00000000E+00
  0.00000000E+00  0.00000000E+00  0.00000000E+00
  0.00000000E+00  0.00000000E+00  0.00000000E+00
  0.00000000E+00  0.00000000E+00  0.00000000E+00
  0.00000000E+00  0.00000000E+00  0.00000000E+00
  0.00000000E+00  0.00000000E+00  0.00000000E+00
  0.00000000E+00  0.00000000E+00  0.00000000E+00
  0.00000000E+00  0.00000000E+00  0.00000000E+00
  0.00000000E+00  0.00000000E+00  0.00000000E+00
  0.00000000E+00  0.00000000E+00  0.00000000E+00
  0.00000000E+00  0.00000000E+00  0.00000000E+00
  0.00000000E+00  0.00000000E+00  0.00000000E+00
  0.00000000E+00  0.00000000E+00  0.00000000E+00
  0.00000000E+00  0.00000000E+00  0.00000000E+00
  0.00000000E+00  0.00000000E+00  0.00000000E+00
  0.00000000E+00  0.00000000E+00  0.00000000E+00
  0.00000000E+00  0.00000000E+00  0.00000000E+00
  0.00000000E+00  0.00000000E+00  0.00000000E+00
  0.00000000E+00  0.00000000E+00  0.00000000E+00
  0.00000000E+00  0.00000000E+00  0.00000000E+00
  0.00000000E+00  0.00000000E+00  0.00000000E+00
  0.00000000E+00  0.00000000E+00  0.00000000E+00
  0.00000000E+00  0.00000000E+00  0.00000000E+00
  0.00000000E+00  0.00000000E+00  0.00000000E+00
  0.00000000E+00  0.00000000E+00  0.00000000E+00
  0.00000000E+00  0.00000000E+00  0.00000000E+00
  0.00000000E+00  0.00000000E+00  0.00000000E+00
  0.00000000E+00  0.00000000E+00  0.00000000E+00
  0.00000000E+00  0.00000000E+00  0.00000000E+00
  0.00000000E+00  0.00000000E+00  0.00000000E+00
  0.00000000E+00  0.00000000E+00  0.00000000E+00
  0.00000000E+00  0.00000000E+00  0.00000000E+00
  0.00000000E+00  0.00000000E+00  0.00000000E+00
  0.00000000E+00  0.00000000E+00  0.00000000E+00
  0.00000000E+00  0.00000000E+00  0.00000000E+00
  0.00000000E+00  0.00000000E+00  0.00000000E+00
  0.00000000E+00  0.00000000E+00  0.00000000E+00
  0.00000000E+00  0.00000000E+00  0.00000000E+00
  0.00000000E+00  0.00000000E+00  0.00000000E+00
  0.00000000E+00  0.00000000E+00  0.00000000E+00
  0.00000000E+00  0.00000000E+00  0.00000000E+00
  0.00000000E+00  0.00000000E+00  0.00000000E+00
  0.00000000E+00  0.00000000E+00  0.00000000E+00
  0.00000000E+00  0.00000000E+00  0.00000000E+00
  0.00000000E+00  0.00000000E+00  0.00000000E+00
  0.00000000E+00  0.00000000E+00  0.00000000E+00
  0.00000000E+00  0.00000000E+00  0.00000000E+00
  0.00000000E+00  0.00000000E+00  0.00000000E+00
  0.00000000E+00  0.00000000E+00  0.00000000E+00
  0.00000000E+00  0.00000000E+00  0.00000000E+00
  0.00000000E+00  0.00000000E+00  0.00000000E+00
  0.00000000E+00  0.00000000E+00  0.00000000E+00
  0.00000000E+00  0.00000000E+00  0.00000000E+00
  0.00000000E+00  0.00000000E+00  0.00000000E+00
  0.00000000E+00  0.00000000E+00  0.00000000E+00
  0.00000000E+00  0.00000000E+00  0.00000000E+00
  0.00000000E+00  0.00000000E+00  0.00000000E+00
  0.00000000E+00  0.00000000E+00  0.00000000E+00
  0.00000000E+00  0.00000000E+00  0.00000000E+00
  0.00000000E+00  0.00000000E+00  0.00000000E+00
  0.00000000E+00  0.00000000E+00  0.00000000E+00
  0.00000000E+00  0.00000000E+00  0.00000000E+00
  0.00000000E+00  0.00000000E+00  0.00000000E+00
  0.00000000E+00  0.00000000E+00  0.00000000E+00
  0.00000000E+00  0.00000000E+00  0.00000000E+00
  0.00000000E+00  0.00000000E+00  0.00000000E+00
  0.00000000E+00  0.00000000E+00  0.00000000E+00
  0.00000000E+00  0.00000000E+00  0.00000000E+00
  0.00000000E+00  0.00000000E+00  0.00000000E+00
  0.00000000E+00  0.00000000E+00  0.00000000E+00
  0.00000000E+00  0.00000000E+00  0.00000000E+00
  0.00000000E+00  0.00000000E+00  0.00000000E+00
  0.00000000E+00  0.00000000E+00  0.00000000E+00
  0.00000000E+00  0.00000000E+00  0.00000000E+00
  0.00000000E+00  0.00000000E+00  0.00000000E+00
  0.00000000E+00  0.00000000E+00  0.00000000E+00
  0.00000000E+00  0.00000000E+00  0.00000000E+00
  0.00000000E+00  0.00000000E+00  0.00000000E+00
  0.00000000E+00  0.00000000E+00  0.00000000E+00
  0.00000000E+00  0.00000000E+00  0.00000000E+00
  0.00000000E+00  0.00000000E+00  0.00000000E+00
  0.00000000E+00  0.00000000E+00  0.00000000E+00
  0.00000000E+00  0.00000000E+00  0.00000000E+00
  0.00000000E+00  0.00000000E+00  0.00000000E+00
  0.00000000E+00  0.00000000E+00  0.00000000E+00
  0.00000000E+00  0.00000000E+00  0.00000000E+00
  0.00000000E+00  0.00000000E+00  0.00000000E+00
  0.00000000E+00  0.00000000E+00  0.00000000E+00
  0.00000000E+00  0.00000000E+00  0.00000000E+00
  0.00000000E+00  0.00000000E+00  0.00000000E+00
  0.00000000E+00  0.00000000E+00  0.00000000E+00
  0.00000000E+00  0.00000000E+00  0.00000000E+00
  0.00000000E+00  0.00000000E+00  0.00000000E+00
  0.00000000E+00  0.00000000E+00  0.00000000E+00
  0.00000000E+00  0.00000000E+00  0.00000000E+00
  0.00000000E+00  0.00000000E+00  0.00000000E+00
  0.00000000E+00  0.00000000E+00  0.00000000E+00
  0.00000000E+00  0.00000000E+00  0.00000000E+00
  0.00000000E+00  0.00000000E+00  0.00000000E+00
  0.00000000E+00  0.00000000E+00  0.00000000E+00
