SrTiFeO                                 
   1.00000000000000     
    11.1989999999999998    0.0000000000000000    0.0000000000000000
     0.0000000000000000   11.1989999999999998    0.0000000000000000
     0.0000000000000000    0.0000000000000000   15.9830000000000005
   Sr   Ti   Fe   O 
    32    30     2    94
Direct
  0.9992724380106556  0.2500176699780617  0.1246234538850912
  0.0055922547419130  0.2485680747802683  0.6266900281259372
  0.9996772774804938  0.7504418980752791  0.1253210635154494
  0.9986317914364619  0.7513044145046134  0.6244512284149768
  0.5016817852776572  0.2489009196925407  0.1249669188925151
  0.4950681952459347  0.2374683033522760  0.6274597464338398
  0.5002981647012864  0.7501465443223614  0.1260357578322725
  0.5023710571119865  0.7584850708652072  0.6242910665578273
  0.0073397940048837  0.2503608949298518  0.3736726704906231
  0.9973628170581494  0.2498959403899942  0.8744979117262597
  0.9979155624197277  0.7489675032291023  0.3756054923488467
  0.0002274517171508  0.7510395379367669  0.8746025376997073
  0.4953582848184903  0.2436156468026456  0.3706925150953014
  0.5001714462839064  0.2468313326261520  0.8769479964985081
  0.5006700901839817  0.7502516789294806  0.3767043898383127
  0.5007646434936844  0.7542932732921700  0.8765792625573458
  0.2491168151328349  0.9997100896196173  0.1249719898239840
  0.2481149635163254  0.9994180875202687  0.6248509593274060
  0.2502696798850999  0.5002244657799780  0.1264992143220962
  0.2419378118133680  0.4985007402684303  0.6236194536275099
  0.7510683868694289  0.0006560164448274  0.1252853928840693
  0.7500589131209472  0.9939064446758211  0.6241084564086971
  0.7513267733253277  0.5011445983313427  0.1242680545014474
  0.7625104067676083  0.5050828488626604  0.6263906867447011
  0.2497556431076564  0.9983214374303729  0.3756360142226240
  0.2489676384991721  0.0003921538350464  0.8747874912232704
  0.2491657153325345  0.4988168612201113  0.3756604632059679
  0.2459953089810725  0.5007740264869943  0.8764734540734943
  0.7486353736300992  0.9916978222501618  0.3753663219104804
  0.7509903156962520  0.0023191681384372  0.8736644477624911
  0.7511123815982973  0.5048308311736890  0.3736384522026854
  0.7533822343825519  0.4995464646545959  0.8764183232564873
  0.9994141883850954  0.0005682210006503  0.9994304554968479
  0.0027474675333428  0.9931022490105836  0.4992846442242086
  0.0001931463193767  0.5000197923150416  0.0004424823816748
  0.9989070050505318  0.5023659042309919  0.4991120828575837
  0.4997232410092737  0.9999426773782575  0.0005054894859608
  0.4999362733015305  0.9982830334780759  0.4991979427188230
  0.4994632016108442  0.5006266398608613  0.0054698066761621
  0.2501431458177948  0.2504040794836024  0.0000864076020755
  0.2523781242692584  0.2498970576319275  0.5011449584406268
  0.2506705590898528  0.7495327478279058  0.0000776491436822
  0.2516522448979569  0.7484311403037873  0.5010420465948796
  0.7499451018732309  0.2500535150164729  0.9987789457020984
  0.7625801294089992  0.2422225546788611  0.4980880123614647
  0.7496260283710283  0.7499869597070438  0.9999669129634496
  0.2508877658976902  0.2502275887417475  0.2492448933350493
  0.2498812320848950  0.2500839248836527  0.7500778518371974
  0.2504938675292213  0.7490133535905391  0.2508050719397747
  0.2491806892425441  0.7512846543739807  0.7486249591309002
  0.7494481846584755  0.2511830436534805  0.2495623120843500
  0.7466756691300704  0.2533413119284843  0.7463452592433364
  0.7492683475831908  0.7491530140738900  0.2509970561936474
  0.7501786571722836  0.7501665879753530  0.7489447059294516
  0.9997842406021242  0.9998885549830344  0.2508519225767300
  0.9978985405637412  0.0010678807618779  0.7501436486185851
  0.0003162875521504  0.4998323363787286  0.2499881223033778
  0.0005379927429461  0.4999226738419864  0.7505671237913848
  0.5000272057135341  0.9987323985903155  0.2497264083372996
  0.5003765141873682  0.9996448218733645  0.7507641348654277
  0.5013540342479328  0.4981027213176861  0.2522460297082730
  0.4988791643527134  0.5018344439677344  0.7600188130671776
  0.4956436309958889  0.5075315599915527  0.4947749159974745
  0.7487337015814595  0.7457614160150924  0.5012958800646224
  0.1102502914737630  0.1411504648184662  0.2507355176548833
  0.1107068925448790  0.1404352888190413  0.7534169916939299
  0.1094727780230083  0.6405290111247732  0.2501266190799907
  0.1111231120523282  0.6388185011321740  0.7505754938816008
  0.6089478934559547  0.1400463712864334  0.2498635788305827
  0.6077729959806026  0.1398155911265141  0.7508569802449246
  0.6083757798867391  0.6404852397236583  0.2496265094140329
  0.3911061767805531  0.3573858531519814  0.2457993652548938
  0.3905386414904967  0.3643792578004053  0.7402170586479944
  0.3913031957187147  0.8581576371084896  0.2504779105828507
  0.3904138385579991  0.8600866205697357  0.7501809245390548
  0.8917197087287084  0.3585846143141292  0.2517763429755825
  0.8900353194965450  0.3620041820838653  0.7475194116447800
  0.8897969671442101  0.8597996340898783  0.2510038670271924
  0.8906528375630003  0.8592755653134454  0.7524660998775776
  0.3592748999281172  0.1091502458282815  0.2516532602010248
  0.3610110026669604  0.1113217140798476  0.7488666779915963
  0.3592655191558097  0.6073291154376725  0.2533343995844617
  0.3632078254058618  0.6086683660006672  0.7362835784068266
  0.8586012248495217  0.1105842949796569  0.2561194724332792
  0.8619863818381553  0.1077007248723611  0.7456983605103061
  0.8600174667172148  0.6089932294291750  0.2491279986439589
  0.8606640898043733  0.6102535897215992  0.7520998557128178
  0.1415080888135930  0.3907244106376679  0.2503223063685025
  0.1399087057835743  0.3896739882778734  0.7507174995068522
  0.1408723530514514  0.8900930377642924  0.2497657917480675
  0.1407347862865676  0.8896762879822114  0.7544600826593577
  0.6423088516529504  0.3907087806833979  0.2416654933179045
  0.6405365182118057  0.8905246489344480  0.2486906353686621
  0.6400606695151804  0.8908420978063317  0.7510609527683002
  0.3586761889105633  0.3918718502321596  0.0006640739355582
  0.3588427126320156  0.8907830398153289  0.9993489815055716
  0.3591689132365889  0.8914401655698272  0.5001869916099460
  0.8597458977359442  0.3910283533558478  0.0011401070932176
  0.8556995128192856  0.3924124405991488  0.4977267979686889
  0.8590313327169868  0.8901087841302638  0.9990676263596747
  0.8610968110517674  0.8929335229495793  0.4989821157042693
  0.1410964617471364  0.1097730343115817  0.9987590107778908
  0.1401368150388701  0.1112039756942298  0.4978612517700715
  0.1408102585228461  0.6089819624857178  0.0005657069517746
  0.1404067382338915  0.6093920794295021  0.4992628744733505
  0.6398139932496987  0.1091683732342228  0.0002840317778400
  0.6338430383682166  0.1210318236205242  0.4973273580628464
  0.6406373504445967  0.6082812832222604 -0.0000242136619666
  0.1094687371396292  0.3590391115524219  0.9988897652515706
  0.1132700158017614  0.3618295119499120  0.5004946539026992
  0.1102611128174479  0.8590452946155556  0.9997838281023509
  0.1091134358514645  0.8588765547215272  0.4972254519073182
  0.6080542240671364  0.3600205785091736  0.0021284425588462
  0.6086213629932602  0.8593586641923617  0.0006672949798135
  0.6101852309489265  0.8631073221700292  0.4998602258968224
  0.3908505663667409  0.1411570876357162  0.0001137496446615
  0.3875905614688325  0.1366382887171342  0.4994773827034448
  0.3917664948378751  0.6415729735846917  0.0001574580304611
  0.3861292962027844  0.6450954654093872  0.5113149268122253
  0.8910938973546730  0.1402620910899717  0.9998447991063775
  0.8930532330156734  0.1416719754719780  0.4991626944108978
  0.8907792558374056  0.6403216767967891  0.9992042019633222
  0.9985347070704819  0.0011611310023035  0.1257127724525944
  0.0049092329675940  0.9982215664094588  0.6244547935200440
  0.0008332146609369  0.4992145329891104  0.1251279558925169
  0.0012531574536429  0.4998915089352989  0.6249678546507407
  0.4977447530951070  1.0000006078873940  0.1251375355977125
  0.5014250686817835  0.0004992356046384  0.6250404730876172
  0.4969347160253710  0.5035252268503712  0.1249081106413747
  0.0022300516124357  0.9999999340908675  0.3745920408156470
  0.9985756377462257  0.0006162432913640  0.8759884062812301
  0.0020976084714977  0.4998977548031039  0.3745190426402683
  0.0002192961351495  0.4987812076329805  0.8753782740536897
  0.5002711555643186  0.9980784116678112  0.3743272931331099
  0.4988185646927517  0.0001106149832545  0.8754671710541594
  0.4976184562858739  0.5007468156833992  0.8757552916433626
  0.2544016985915135  0.2570582403716427  0.3756749401531922
  0.2565238000029696  0.2536031822794469  0.8742224712243168
  0.2526143653989357  0.7487859538782444  0.3756109855016246
  0.2546184376704950  0.7433777697549530  0.8741954256197229
  0.7337135024468080  0.2652566485943046  0.3776268824641530
  0.7486391230048715  0.2530939556738404  0.8772659438177661
  0.7462756327354322  0.7465528637481211  0.3740891761803973
  0.7447516879910137  0.7467520119907273  0.8747583167656315
  0.2485798366985312  0.2486530896274797  0.1245026687144038
  0.2433712350824060  0.2444388325824730  0.6260646804246018
  0.2516554582879265  0.7485642013820343  0.1253637474739885
  0.2401507072184463  0.7587867775918061  0.6257007371927790
  0.7539709306197468  0.2455404331089890  0.1259499084026998
  0.7341460805923073  0.2629432320749531  0.6156353243925107
  0.7506299825540280  0.7492888403109121  0.1244754883824476
  0.6320466953338081  0.3988527750417919  0.7397236398509619
  0.6061897351837222  0.6396615168434183  0.7422226137612944
  0.5091576681120072  0.4831186299305592  0.3713405947675383
  0.3757243457610344  0.3816432673280784  0.5143740389818758
  0.7543672752834081  0.7548876498804048  0.6273112778143787
  0.8929632807775032  0.6395469058558689  0.5001306230676748
  0.6418676397780126  0.5981031610875779  0.5110087123268162
 
  0.00000000E+00  0.00000000E+00  0.00000000E+00
  0.00000000E+00  0.00000000E+00  0.00000000E+00
  0.00000000E+00  0.00000000E+00  0.00000000E+00
  0.00000000E+00  0.00000000E+00  0.00000000E+00
  0.00000000E+00  0.00000000E+00  0.00000000E+00
  0.00000000E+00  0.00000000E+00  0.00000000E+00
  0.00000000E+00  0.00000000E+00  0.00000000E+00
  0.00000000E+00  0.00000000E+00  0.00000000E+00
  0.00000000E+00  0.00000000E+00  0.00000000E+00
  0.00000000E+00  0.00000000E+00  0.00000000E+00
  0.00000000E+00  0.00000000E+00  0.00000000E+00
  0.00000000E+00  0.00000000E+00  0.00000000E+00
  0.00000000E+00  0.00000000E+00  0.00000000E+00
  0.00000000E+00  0.00000000E+00  0.00000000E+00
  0.00000000E+00  0.00000000E+00  0.00000000E+00
  0.00000000E+00  0.00000000E+00  0.00000000E+00
  0.00000000E+00  0.00000000E+00  0.00000000E+00
  0.00000000E+00  0.00000000E+00  0.00000000E+00
  0.00000000E+00  0.00000000E+00  0.00000000E+00
  0.00000000E+00  0.00000000E+00  0.00000000E+00
  0.00000000E+00  0.00000000E+00  0.00000000E+00
  0.00000000E+00  0.00000000E+00  0.00000000E+00
  0.00000000E+00  0.00000000E+00  0.00000000E+00
  0.00000000E+00  0.00000000E+00  0.00000000E+00
  0.00000000E+00  0.00000000E+00  0.00000000E+00
  0.00000000E+00  0.00000000E+00  0.00000000E+00
  0.00000000E+00  0.00000000E+00  0.00000000E+00
  0.00000000E+00  0.00000000E+00  0.00000000E+00
  0.00000000E+00  0.00000000E+00  0.00000000E+00
  0.00000000E+00  0.00000000E+00  0.00000000E+00
  0.00000000E+00  0.00000000E+00  0.00000000E+00
  0.00000000E+00  0.00000000E+00  0.00000000E+00
  0.00000000E+00  0.00000000E+00  0.00000000E+00
  0.00000000E+00  0.00000000E+00  0.00000000E+00
  0.00000000E+00  0.00000000E+00  0.00000000E+00
  0.00000000E+00  0.00000000E+00  0.00000000E+00
  0.00000000E+00  0.00000000E+00  0.00000000E+00
  0.00000000E+00  0.00000000E+00  0.00000000E+00
  0.00000000E+00  0.00000000E+00  0.00000000E+00
  0.00000000E+00  0.00000000E+00  0.00000000E+00
  0.00000000E+00  0.00000000E+00  0.00000000E+00
  0.00000000E+00  0.00000000E+00  0.00000000E+00
  0.00000000E+00  0.00000000E+00  0.00000000E+00
  0.00000000E+00  0.00000000E+00  0.00000000E+00
  0.00000000E+00  0.00000000E+00  0.00000000E+00
  0.00000000E+00  0.00000000E+00  0.00000000E+00
  0.00000000E+00  0.00000000E+00  0.00000000E+00
  0.00000000E+00  0.00000000E+00  0.00000000E+00
  0.00000000E+00  0.00000000E+00  0.00000000E+00
  0.00000000E+00  0.00000000E+00  0.00000000E+00
  0.00000000E+00  0.00000000E+00  0.00000000E+00
  0.00000000E+00  0.00000000E+00  0.00000000E+00
  0.00000000E+00  0.00000000E+00  0.00000000E+00
  0.00000000E+00  0.00000000E+00  0.00000000E+00
  0.00000000E+00  0.00000000E+00  0.00000000E+00
  0.00000000E+00  0.00000000E+00  0.00000000E+00
  0.00000000E+00  0.00000000E+00  0.00000000E+00
  0.00000000E+00  0.00000000E+00  0.00000000E+00
  0.00000000E+00  0.00000000E+00  0.00000000E+00
  0.00000000E+00  0.00000000E+00  0.00000000E+00
  0.00000000E+00  0.00000000E+00  0.00000000E+00
  0.00000000E+00  0.00000000E+00  0.00000000E+00
  0.00000000E+00  0.00000000E+00  0.00000000E+00
  0.00000000E+00  0.00000000E+00  0.00000000E+00
  0.00000000E+00  0.00000000E+00  0.00000000E+00
  0.00000000E+00  0.00000000E+00  0.00000000E+00
  0.00000000E+00  0.00000000E+00  0.00000000E+00
  0.00000000E+00  0.00000000E+00  0.00000000E+00
  0.00000000E+00  0.00000000E+00  0.00000000E+00
  0.00000000E+00  0.00000000E+00  0.00000000E+00
  0.00000000E+00  0.00000000E+00  0.00000000E+00
  0.00000000E+00  0.00000000E+00  0.00000000E+00
  0.00000000E+00  0.00000000E+00  0.00000000E+00
  0.00000000E+00  0.00000000E+00  0.00000000E+00
  0.00000000E+00  0.00000000E+00  0.00000000E+00
  0.00000000E+00  0.00000000E+00  0.00000000E+00
  0.00000000E+00  0.00000000E+00  0.00000000E+00
  0.00000000E+00  0.00000000E+00  0.00000000E+00
  0.00000000E+00  0.00000000E+00  0.00000000E+00
  0.00000000E+00  0.00000000E+00  0.00000000E+00
  0.00000000E+00  0.00000000E+00  0.00000000E+00
  0.00000000E+00  0.00000000E+00  0.00000000E+00
  0.00000000E+00  0.00000000E+00  0.00000000E+00
  0.00000000E+00  0.00000000E+00  0.00000000E+00
  0.00000000E+00  0.00000000E+00  0.00000000E+00
  0.00000000E+00  0.00000000E+00  0.00000000E+00
  0.00000000E+00  0.00000000E+00  0.00000000E+00
  0.00000000E+00  0.00000000E+00  0.00000000E+00
  0.00000000E+00  0.00000000E+00  0.00000000E+00
  0.00000000E+00  0.00000000E+00  0.00000000E+00
  0.00000000E+00  0.00000000E+00  0.00000000E+00
  0.00000000E+00  0.00000000E+00  0.00000000E+00
  0.00000000E+00  0.00000000E+00  0.00000000E+00
  0.00000000E+00  0.00000000E+00  0.00000000E+00
  0.00000000E+00  0.00000000E+00  0.00000000E+00
  0.00000000E+00  0.00000000E+00  0.00000000E+00
  0.00000000E+00  0.00000000E+00  0.00000000E+00
  0.00000000E+00  0.00000000E+00  0.00000000E+00
  0.00000000E+00  0.00000000E+00  0.00000000E+00
  0.00000000E+00  0.00000000E+00  0.00000000E+00
  0.00000000E+00  0.00000000E+00  0.00000000E+00
  0.00000000E+00  0.00000000E+00  0.00000000E+00
  0.00000000E+00  0.00000000E+00  0.00000000E+00
  0.00000000E+00  0.00000000E+00  0.00000000E+00
  0.00000000E+00  0.00000000E+00  0.00000000E+00
  0.00000000E+00  0.00000000E+00  0.00000000E+00
  0.00000000E+00  0.00000000E+00  0.00000000E+00
  0.00000000E+00  0.00000000E+00  0.00000000E+00
  0.00000000E+00  0.00000000E+00  0.00000000E+00
  0.00000000E+00  0.00000000E+00  0.00000000E+00
  0.00000000E+00  0.00000000E+00  0.00000000E+00
  0.00000000E+00  0.00000000E+00  0.00000000E+00
  0.00000000E+00  0.00000000E+00  0.00000000E+00
  0.00000000E+00  0.00000000E+00  0.00000000E+00
  0.00000000E+00  0.00000000E+00  0.00000000E+00
  0.00000000E+00  0.00000000E+00  0.00000000E+00
  0.00000000E+00  0.00000000E+00  0.00000000E+00
  0.00000000E+00  0.00000000E+00  0.00000000E+00
  0.00000000E+00  0.00000000E+00  0.00000000E+00
  0.00000000E+00  0.00000000E+00  0.00000000E+00
  0.00000000E+00  0.00000000E+00  0.00000000E+00
  0.00000000E+00  0.00000000E+00  0.00000000E+00
  0.00000000E+00  0.00000000E+00  0.00000000E+00
  0.00000000E+00  0.00000000E+00  0.00000000E+00
  0.00000000E+00  0.00000000E+00  0.00000000E+00
  0.00000000E+00  0.00000000E+00  0.00000000E+00
  0.00000000E+00  0.00000000E+00  0.00000000E+00
  0.00000000E+00  0.00000000E+00  0.00000000E+00
  0.00000000E+00  0.00000000E+00  0.00000000E+00
  0.00000000E+00  0.00000000E+00  0.00000000E+00
  0.00000000E+00  0.00000000E+00  0.00000000E+00
  0.00000000E+00  0.00000000E+00  0.00000000E+00
  0.00000000E+00  0.00000000E+00  0.00000000E+00
  0.00000000E+00  0.00000000E+00  0.00000000E+00
  0.00000000E+00  0.00000000E+00  0.00000000E+00
  0.00000000E+00  0.00000000E+00  0.00000000E+00
  0.00000000E+00  0.00000000E+00  0.00000000E+00
  0.00000000E+00  0.00000000E+00  0.00000000E+00
  0.00000000E+00  0.00000000E+00  0.00000000E+00
  0.00000000E+00  0.00000000E+00  0.00000000E+00
  0.00000000E+00  0.00000000E+00  0.00000000E+00
  0.00000000E+00  0.00000000E+00  0.00000000E+00
  0.00000000E+00  0.00000000E+00  0.00000000E+00
  0.00000000E+00  0.00000000E+00  0.00000000E+00
  0.00000000E+00  0.00000000E+00  0.00000000E+00
  0.00000000E+00  0.00000000E+00  0.00000000E+00
  0.00000000E+00  0.00000000E+00  0.00000000E+00
  0.00000000E+00  0.00000000E+00  0.00000000E+00
  0.00000000E+00  0.00000000E+00  0.00000000E+00
  0.00000000E+00  0.00000000E+00  0.00000000E+00
  0.00000000E+00  0.00000000E+00  0.00000000E+00
  0.00000000E+00  0.00000000E+00  0.00000000E+00
  0.00000000E+00  0.00000000E+00  0.00000000E+00
  0.00000000E+00  0.00000000E+00  0.00000000E+00
  0.00000000E+00  0.00000000E+00  0.00000000E+00
  0.00000000E+00  0.00000000E+00  0.00000000E+00
  0.00000000E+00  0.00000000E+00  0.00000000E+00
  0.00000000E+00  0.00000000E+00  0.00000000E+00
