SrTiFeO                                 
   1.00000000000000     
    11.1989999999999998    0.0000000000000000    0.0000000000000000
     0.0000000000000000   11.1989999999999998    0.0000000000000000
     0.0000000000000000    0.0000000000000000   15.9830000000000005
   Sr   Ti   Fe   O 
    32    29     3    94
Direct
  0.9996233003448977  0.2496108305240694  0.1250035419345654
  0.0045040766000727  0.2500935711578150  0.6234574261447030
  0.9996956756286758  0.7505928641312268  0.1256099207921381
  0.9985133533699256  0.7517422303933986  0.6222860083919098
  0.4991092133139980  0.2487194343177782  0.1267465484543102
  0.4972522641778749  0.2389145435325108  0.6196825678120709
  0.5002577622490758  0.7489341411961931  0.1245363365248303
  0.5046237787432017  0.7537320360994464  0.6226622535122091
  0.9988647531854666  0.2493922026140116  0.3773164574156584
  0.0054577259722434  0.2515005893921737  0.8755554739840979
  0.9973870854614634  0.7503834497614884  0.3771382383176923
  0.0013056336076065  0.7499135472295965  0.8745620472821729
  0.5000193183799464  0.2498510752989636  0.3749344454703604
  0.4984586087175279  0.2482796177991920  0.8783652269213776
  0.5015414858027214  0.7495578457919941  0.3765943043987185
  0.5019534575110836  0.7515093729483523  0.8748443591356529
  0.2496587328132341  0.9996449458605998  0.1250228235289280
  0.2490759497606597  0.9998224237053829  0.6227346073223682
  0.2507262526918041  0.4998563661315269  0.1249243686289864
  0.2414659936099381  0.4996544462967743  0.6220137680662458
  0.7503357435460060  0.9996410224558715  0.1261204828515463
  0.7512990173059616  0.9916440192570759  0.6203792049516735
  0.7500603253796285  0.4997352806642605  0.1260746164386724
  0.7610697977489007  0.5085782265230204  0.6191153549503278
  0.2490989489498003  0.0000998496532300  0.3767005599203122
  0.2513360488201948  0.9998525484645400  0.8753679277414459
  0.2495156140876350  0.4999504858421009  0.3750541135451332
  0.2483507403661372  0.5013540742053142  0.8753672703075897
  0.7494555348359191  0.9982610487882249  0.3768904550206488
  0.7501704353613722  0.9918568900909289  0.8764255004934265
  0.7487912194386044  0.5027548920931392  0.3767361012117612
  0.7558341874102705  0.5054726805523425  0.8793981077334058
  0.0000909981734222  0.0004560512059839  0.9992360768375036
  0.9985573130021054  0.9993164998806913  0.4997442340995739
  0.0008513842259919  0.5000033446536634  0.0005149090787206
  0.9991358482415504  0.5011972154261259  0.4986201311157143
  0.5004625447126737  0.9997646130950731  0.0002917928842091
  0.5010356521111056  0.9979892851931597  0.4991174749389106
  0.5020128227116346  0.4985055910413460  0.9995219999941745
  0.2508614824157513  0.2506307394906795  0.0002444010639188
  0.2512922745591250  0.2516059451560634  0.5000725488751011
  0.2510430953637435  0.7494438247201011  0.9993574269347610
  0.2512697914118356  0.7490252839953691  0.5006248203801380
  0.7491291364218788  0.2506836323510377  0.0003827681497606
  0.7463562780539444  0.2534839478108746  0.5011374414881474
  0.7499922176940197  0.7494569852083284  0.0010490717519132
  0.2500070000927343  0.2505136385638082  0.2500930498840239
  0.2541659506968716  0.2513253951208035  0.7487177233777605
  0.2504063256851869  0.7492583984073085  0.2503682218566839
  0.2516488087206208  0.7480332999427431  0.7475204802202873
  0.7501400493884559  0.2497979640585941  0.2503286990305456
  0.7579430385909299  0.2365025272436927  0.7504560804868109
  0.7496846969698180  0.7496749178849766  0.2518729408130020
  0.7500764411269734  0.7471451032520330  0.7473908645545418
  0.9996300243940244  0.0007785907205813  0.2510335149417978
  0.0065703767453518  0.9957821424825813  0.7505760525850310
  0.9998987055398649  0.5000524835610074  0.2500644292638110
  0.0004369458243998  0.5010467124673782  0.7500692561821249
  0.4998584099044823  0.9993928707172745  0.2501234766583680
  0.4990041340564813  0.9995864680507665  0.7500007732588589
  0.4995251629905073  0.5004409464921991  0.2475271284990384
  0.4905226235562554  0.5056017158068515  0.7576034616177167
  0.4993091806308811  0.5010241006147906  0.4899664590325227
  0.7482269692329806  0.7485864636440521  0.4999064308317842
  0.1091518791780364  0.1421596195783121  0.2508966688838643
  0.1072968089169387  0.1421060388531040  0.7519234973218751
  0.1085152786555184  0.6418168056372392  0.2505250004660283
  0.1078542332441426  0.6413593921583872  0.7493193231707054
  0.6088744218059310  0.1413824359633836  0.2498351133176540
  0.6056012294248653  0.1477400118701166  0.7509424895359800
  0.6083806246823469  0.6411651724058556  0.2475480378711766
  0.3912642565684576  0.3583991925830147  0.2485420074393571
  0.3986729888468986  0.3565177934165554  0.7402996583696630
  0.3915864954419839  0.8587725674380572  0.2498895377304712
  0.3916648832773236  0.8591487637530257  0.7500005932587910
  0.8912921074819604  0.3584961029685322  0.2506567923730434
  0.8803347008141477  0.3639051742947044  0.7516407298332314
  0.8912837367091612  0.8594896573741421  0.2513738106456693
  0.8911758124232716  0.8596215344249477  0.7532947491871806
  0.3586537686008686  0.1088567098253032  0.2501211323309312
  0.3575701061449529  0.1073292101949213  0.7500858389445145
  0.3574902573595308  0.6084183505078905  0.2486210450819860
  0.3541264744735371  0.6125201821074484  0.7360536263463855
  0.8581509316745199  0.1089949737074388  0.2521607916520440
  0.8567331660846992  0.1055806812276728  0.7502599088604809
  0.8590706432236067  0.6083194863759973  0.2496773837140108
  0.8632614486731591  0.6110194139192562  0.7513784489910071
  0.1415478622567224  0.3918773101840640  0.2491495506318039
  0.1399757024559965  0.3900337406998475  0.7502770393322656
  0.1409239555042287  0.8913184148527105  0.2509742364819900
  0.1425903143684666  0.8929625160535390  0.7530344429840897
  0.6412732029143090  0.3906887374048074  0.2484544770317097
  0.6410649714850444  0.8914455654499100  0.2500275266667150
  0.6385519186149470  0.8883581969764380  0.7500350207578356
  0.3595068006115050  0.3906582781184739 -0.0000465538635433
  0.3601075789497405  0.8900283232258589  0.9993999976110476
  0.3619265326243290  0.8882202594604685  0.4995096208210276
  0.8599169874957836  0.3904816112367450  0.0000019542441086
  0.8614716718076990  0.3879627575333373  0.4994916942183681
  0.8598274988251868  0.8900718567708582  0.9989386990826877
  0.8633488148386671  0.8896418783917196  0.4973611285202839
  0.1405869333756652  0.1104584977514723  0.9984719180323156
  0.1372364685833984  0.1135582945066622  0.4985104173536915
  0.1414410542888944  0.6090164173927182  0.9999907662590029
  0.1369919185077608  0.6123110477495123  0.4993203217908831
  0.6415080048148331  0.1089089912199836  0.9981729930538580
  0.6377758184251026  0.1130577008137145  0.5026838921662342
  0.6422053530508776  0.6089985839398272  0.0037323132794076
  0.1100267042375101  0.3593937417791013  0.9999564068504843
  0.1120982688715931  0.3623539864861900  0.5000219856601326
  0.1103374709221882  0.8598353262783455  0.9996315206119837
  0.1116933139259009  0.8633655566442573  0.4954062481220307
  0.6102998474989055  0.3569880371909589  0.0091791151399604
  0.6095081604708751  0.8592455345357931  0.9995447287689521
  0.6109792043411185  0.8641837832636906  0.4997918560268070
  0.3905757970331313  0.1399851412084914  0.0001028027577538
  0.3871633236238962  0.1373735726447520  0.4987911665522324
  0.3923208380505488  0.6397280189305525  0.9964361061989750
  0.3859519615063530  0.6357744595496132  0.5114010718123337
  0.8893974955211397  0.1416243403638170  0.9943407524684780
  0.8852620816668356  0.1405851768147786  0.5064986212623150
  0.8909187625857107  0.6400310476946476  0.9981477613962365
  0.9984921757888385  0.0028628788357883  0.1245491794108396
  0.0021725602296888  0.9976022279744986  0.6260433775469844
 -0.0000856066789925  0.5004962865579864  0.1247233664268670
  0.0000222002285333  0.4977262033793942  0.6253719168330061
  0.5005643654389995  0.0003673127370573  0.1245913383379243
  0.4995137923552500  0.0007542569028725  0.6254398491733538
  0.4968201498114001  0.5018076637415522  0.1251272571057992
  0.9981268217204782  0.0054470959149647  0.3748226535790224
  1.0002034295580240  0.9999149136947563  0.8752588781687756
  0.0004278805150652  0.4994414396381825  0.3745128206770721
  0.0025736878395761  0.4988430992205083  0.8752952713420714
  0.5009072983902728  0.0012980374261778  0.3746572811709548
  0.5001955258301920  0.9992256831463667  0.8748986337451873
  0.5178012918803002  0.4868192587362697  0.8790408760995988
  0.2534863676544565  0.2554804629499629  0.3752897930451987
  0.2541802133458289  0.2539427794112357  0.8740597797023074
  0.2554619071185140  0.7462585745326135  0.3753613580610164
  0.2518776330307176  0.7462740702200470  0.8738201302295545
  0.7466193695009716  0.2517836194517850  0.3768444448801399
  0.7363714963615573  0.2651059884343861  0.8716031022032729
  0.7461432729397106  0.7449547090078330  0.3740006658459051
  0.7433892734736189  0.7461357430233558  0.8745354498378651
  0.2496463765684651  0.2489685087920237  0.1246078348439993
  0.2446590076739766  0.2450329798402087  0.6252371481535006
  0.2509775284815157  0.7498393769562132  0.1243296284180920
  0.2393990914357835  0.7607879057787436  0.6239821215737912
  0.7554702931918951  0.2453303220870861  0.1251720772984227
  0.7381448287486693  0.2651699518774944  0.6310585985733724
  0.7526394091143311  0.7519054168661432  0.1248277188680455
  0.6179003288616673  0.6231952089687323  0.7368133789854669
  0.4978152007986213  0.5019051856348470  0.3719118260088379
  0.6087188773663949  0.3634913043229474  0.5055742264769092
  0.3639343424700928  0.3889579868873163  0.5101821499559296
  0.7566425558527425  0.7565284201890567  0.6263045393568895
  0.8876252767783612  0.6349110734004374  0.5009769699719897
  0.6318852101262764  0.6097748287257400  0.5112320127893516
 
  0.00000000E+00  0.00000000E+00  0.00000000E+00
  0.00000000E+00  0.00000000E+00  0.00000000E+00
  0.00000000E+00  0.00000000E+00  0.00000000E+00
  0.00000000E+00  0.00000000E+00  0.00000000E+00
  0.00000000E+00  0.00000000E+00  0.00000000E+00
  0.00000000E+00  0.00000000E+00  0.00000000E+00
  0.00000000E+00  0.00000000E+00  0.00000000E+00
  0.00000000E+00  0.00000000E+00  0.00000000E+00
  0.00000000E+00  0.00000000E+00  0.00000000E+00
  0.00000000E+00  0.00000000E+00  0.00000000E+00
  0.00000000E+00  0.00000000E+00  0.00000000E+00
  0.00000000E+00  0.00000000E+00  0.00000000E+00
  0.00000000E+00  0.00000000E+00  0.00000000E+00
  0.00000000E+00  0.00000000E+00  0.00000000E+00
  0.00000000E+00  0.00000000E+00  0.00000000E+00
  0.00000000E+00  0.00000000E+00  0.00000000E+00
  0.00000000E+00  0.00000000E+00  0.00000000E+00
  0.00000000E+00  0.00000000E+00  0.00000000E+00
  0.00000000E+00  0.00000000E+00  0.00000000E+00
  0.00000000E+00  0.00000000E+00  0.00000000E+00
  0.00000000E+00  0.00000000E+00  0.00000000E+00
  0.00000000E+00  0.00000000E+00  0.00000000E+00
  0.00000000E+00  0.00000000E+00  0.00000000E+00
  0.00000000E+00  0.00000000E+00  0.00000000E+00
  0.00000000E+00  0.00000000E+00  0.00000000E+00
  0.00000000E+00  0.00000000E+00  0.00000000E+00
  0.00000000E+00  0.00000000E+00  0.00000000E+00
  0.00000000E+00  0.00000000E+00  0.00000000E+00
  0.00000000E+00  0.00000000E+00  0.00000000E+00
  0.00000000E+00  0.00000000E+00  0.00000000E+00
  0.00000000E+00  0.00000000E+00  0.00000000E+00
  0.00000000E+00  0.00000000E+00  0.00000000E+00
  0.00000000E+00  0.00000000E+00  0.00000000E+00
  0.00000000E+00  0.00000000E+00  0.00000000E+00
  0.00000000E+00  0.00000000E+00  0.00000000E+00
  0.00000000E+00  0.00000000E+00  0.00000000E+00
  0.00000000E+00  0.00000000E+00  0.00000000E+00
  0.00000000E+00  0.00000000E+00  0.00000000E+00
  0.00000000E+00  0.00000000E+00  0.00000000E+00
  0.00000000E+00  0.00000000E+00  0.00000000E+00
  0.00000000E+00  0.00000000E+00  0.00000000E+00
  0.00000000E+00  0.00000000E+00  0.00000000E+00
  0.00000000E+00  0.00000000E+00  0.00000000E+00
  0.00000000E+00  0.00000000E+00  0.00000000E+00
  0.00000000E+00  0.00000000E+00  0.00000000E+00
  0.00000000E+00  0.00000000E+00  0.00000000E+00
  0.00000000E+00  0.00000000E+00  0.00000000E+00
  0.00000000E+00  0.00000000E+00  0.00000000E+00
  0.00000000E+00  0.00000000E+00  0.00000000E+00
  0.00000000E+00  0.00000000E+00  0.00000000E+00
  0.00000000E+00  0.00000000E+00  0.00000000E+00
  0.00000000E+00  0.00000000E+00  0.00000000E+00
  0.00000000E+00  0.00000000E+00  0.00000000E+00
  0.00000000E+00  0.00000000E+00  0.00000000E+00
  0.00000000E+00  0.00000000E+00  0.00000000E+00
  0.00000000E+00  0.00000000E+00  0.00000000E+00
  0.00000000E+00  0.00000000E+00  0.00000000E+00
  0.00000000E+00  0.00000000E+00  0.00000000E+00
  0.00000000E+00  0.00000000E+00  0.00000000E+00
  0.00000000E+00  0.00000000E+00  0.00000000E+00
  0.00000000E+00  0.00000000E+00  0.00000000E+00
  0.00000000E+00  0.00000000E+00  0.00000000E+00
  0.00000000E+00  0.00000000E+00  0.00000000E+00
  0.00000000E+00  0.00000000E+00  0.00000000E+00
  0.00000000E+00  0.00000000E+00  0.00000000E+00
  0.00000000E+00  0.00000000E+00  0.00000000E+00
  0.00000000E+00  0.00000000E+00  0.00000000E+00
  0.00000000E+00  0.00000000E+00  0.00000000E+00
  0.00000000E+00  0.00000000E+00  0.00000000E+00
  0.00000000E+00  0.00000000E+00  0.00000000E+00
  0.00000000E+00  0.00000000E+00  0.00000000E+00
  0.00000000E+00  0.00000000E+00  0.00000000E+00
  0.00000000E+00  0.00000000E+00  0.00000000E+00
  0.00000000E+00  0.00000000E+00  0.00000000E+00
  0.00000000E+00  0.00000000E+00  0.00000000E+00
  0.00000000E+00  0.00000000E+00  0.00000000E+00
  0.00000000E+00  0.00000000E+00  0.00000000E+00
  0.00000000E+00  0.00000000E+00  0.00000000E+00
  0.00000000E+00  0.00000000E+00  0.00000000E+00
  0.00000000E+00  0.00000000E+00  0.00000000E+00
  0.00000000E+00  0.00000000E+00  0.00000000E+00
  0.00000000E+00  0.00000000E+00  0.00000000E+00
  0.00000000E+00  0.00000000E+00  0.00000000E+00
  0.00000000E+00  0.00000000E+00  0.00000000E+00
  0.00000000E+00  0.00000000E+00  0.00000000E+00
  0.00000000E+00  0.00000000E+00  0.00000000E+00
  0.00000000E+00  0.00000000E+00  0.00000000E+00
  0.00000000E+00  0.00000000E+00  0.00000000E+00
  0.00000000E+00  0.00000000E+00  0.00000000E+00
  0.00000000E+00  0.00000000E+00  0.00000000E+00
  0.00000000E+00  0.00000000E+00  0.00000000E+00
  0.00000000E+00  0.00000000E+00  0.00000000E+00
  0.00000000E+00  0.00000000E+00  0.00000000E+00
  0.00000000E+00  0.00000000E+00  0.00000000E+00
  0.00000000E+00  0.00000000E+00  0.00000000E+00
  0.00000000E+00  0.00000000E+00  0.00000000E+00
  0.00000000E+00  0.00000000E+00  0.00000000E+00
  0.00000000E+00  0.00000000E+00  0.00000000E+00
  0.00000000E+00  0.00000000E+00  0.00000000E+00
  0.00000000E+00  0.00000000E+00  0.00000000E+00
  0.00000000E+00  0.00000000E+00  0.00000000E+00
  0.00000000E+00  0.00000000E+00  0.00000000E+00
  0.00000000E+00  0.00000000E+00  0.00000000E+00
  0.00000000E+00  0.00000000E+00  0.00000000E+00
  0.00000000E+00  0.00000000E+00  0.00000000E+00
  0.00000000E+00  0.00000000E+00  0.00000000E+00
  0.00000000E+00  0.00000000E+00  0.00000000E+00
  0.00000000E+00  0.00000000E+00  0.00000000E+00
  0.00000000E+00  0.00000000E+00  0.00000000E+00
  0.00000000E+00  0.00000000E+00  0.00000000E+00
  0.00000000E+00  0.00000000E+00  0.00000000E+00
  0.00000000E+00  0.00000000E+00  0.00000000E+00
  0.00000000E+00  0.00000000E+00  0.00000000E+00
  0.00000000E+00  0.00000000E+00  0.00000000E+00
  0.00000000E+00  0.00000000E+00  0.00000000E+00
  0.00000000E+00  0.00000000E+00  0.00000000E+00
  0.00000000E+00  0.00000000E+00  0.00000000E+00
  0.00000000E+00  0.00000000E+00  0.00000000E+00
  0.00000000E+00  0.00000000E+00  0.00000000E+00
  0.00000000E+00  0.00000000E+00  0.00000000E+00
  0.00000000E+00  0.00000000E+00  0.00000000E+00
  0.00000000E+00  0.00000000E+00  0.00000000E+00
  0.00000000E+00  0.00000000E+00  0.00000000E+00
  0.00000000E+00  0.00000000E+00  0.00000000E+00
  0.00000000E+00  0.00000000E+00  0.00000000E+00
  0.00000000E+00  0.00000000E+00  0.00000000E+00
  0.00000000E+00  0.00000000E+00  0.00000000E+00
  0.00000000E+00  0.00000000E+00  0.00000000E+00
  0.00000000E+00  0.00000000E+00  0.00000000E+00
  0.00000000E+00  0.00000000E+00  0.00000000E+00
  0.00000000E+00  0.00000000E+00  0.00000000E+00
  0.00000000E+00  0.00000000E+00  0.00000000E+00
  0.00000000E+00  0.00000000E+00  0.00000000E+00
  0.00000000E+00  0.00000000E+00  0.00000000E+00
  0.00000000E+00  0.00000000E+00  0.00000000E+00
  0.00000000E+00  0.00000000E+00  0.00000000E+00
  0.00000000E+00  0.00000000E+00  0.00000000E+00
  0.00000000E+00  0.00000000E+00  0.00000000E+00
  0.00000000E+00  0.00000000E+00  0.00000000E+00
  0.00000000E+00  0.00000000E+00  0.00000000E+00
  0.00000000E+00  0.00000000E+00  0.00000000E+00
  0.00000000E+00  0.00000000E+00  0.00000000E+00
  0.00000000E+00  0.00000000E+00  0.00000000E+00
  0.00000000E+00  0.00000000E+00  0.00000000E+00
  0.00000000E+00  0.00000000E+00  0.00000000E+00
  0.00000000E+00  0.00000000E+00  0.00000000E+00
  0.00000000E+00  0.00000000E+00  0.00000000E+00
  0.00000000E+00  0.00000000E+00  0.00000000E+00
  0.00000000E+00  0.00000000E+00  0.00000000E+00
  0.00000000E+00  0.00000000E+00  0.00000000E+00
  0.00000000E+00  0.00000000E+00  0.00000000E+00
  0.00000000E+00  0.00000000E+00  0.00000000E+00
  0.00000000E+00  0.00000000E+00  0.00000000E+00
  0.00000000E+00  0.00000000E+00  0.00000000E+00
  0.00000000E+00  0.00000000E+00  0.00000000E+00
  0.00000000E+00  0.00000000E+00  0.00000000E+00
  0.00000000E+00  0.00000000E+00  0.00000000E+00
  0.00000000E+00  0.00000000E+00  0.00000000E+00
