Sr   Ti   Fe   O                        
   1.00000000000000     
    11.1989999999999998    0.0000000000000000    0.0000000000000000
     0.0000000000000000   11.1989999999999998    0.0000000000000000
     0.0000000000000000    0.0000000000000000   15.9830000000000005
   Sr   Ti   Fe   O 
    32    29     3    94
Direct
  0.9990596424923031  0.2491620855960673  0.1247528237087038
  0.0048291324624959  0.2501941848957426  0.6238562044134184
  0.9987086583909919  0.7511997571329261  0.1257109409448147
  1.0000695298760036  0.7511498718844171  0.6236342067067664
  0.4985067953351384  0.2504818305646166  0.1272933169991341
  0.4986343159239326  0.2405785167595595  0.6187149166556859
  0.4994985233749075  0.7489291938787218  0.1232789217163619
  0.5001163918714744  0.7490487073176424  0.6251674677478155
  0.9991157028306222  0.2493964129945103  0.3769369787538613
  0.0057396870097661  0.2518410727384963  0.8753825236033536
  0.9993575834384151  0.7486894860426747  0.3770973905877077
  1.0004088918977110  0.7506148000503177  0.8747639609528686
  0.4995701053857244  0.2447505233695096  0.3727697050650662
  0.4983737708667879  0.2486178257988956  0.8783779048735091
  0.4974265232508112  0.7501081139909728  0.3727307869892106
  0.5035196397978314  0.7504193428610541  0.8747743244430601
  0.2498054663030829  1.0001705578372535  0.1249151134096997
  0.2503570965821321 -0.0005849007576790  0.6233356532303538
  0.2512714362843486  0.5006280108184787  0.1253725330619632
  0.2416060106769686  0.5011728929465193  0.6229619274490579
  0.7493356076102343  0.9990379036564858  0.1254294148252646
  0.7518842963776156  0.9931044431890950  0.6225443817292625
  0.7490144386413303  0.4999380312638252  0.1256936756925403
  0.7664772907904789  0.5049441860776746  0.6252043229114658
  0.2485391888088125 -0.0001060982981707  0.3753832262403192
  0.2515313362677245 -0.0002176960833432  0.8753532352130704
  0.2485301994636991  0.5017532345370804  0.3766723230059172
  0.2515418252855666  0.5017449696832174  0.8753757349072969
  0.7507302808027229  1.0013099483871251  0.3741278433169640
  0.7509317276088490  0.9927835108744822  0.8771345039350673
  0.7524297068295915  0.4964956006924537  0.3729284072030501
  0.7547690275177076  0.5077463878940638  0.8793047640232043
  1.0001209339058486  0.0004861118184178  0.9995288992426582
  1.0005744623394663  1.0016061832558891  0.4999280972239395
  0.0010367159229306  0.4997862368481876  0.0006426037736340
  0.9976414224718455  0.5000964126005045  0.4991282234092285
  0.5003806935395022 -0.0000285950276440  0.0001147345815824
  0.5018555404874526  0.9950068950598612  0.4993491025096564
  0.5014834976249295  0.4983238969157922  0.9998927205537204
  0.2509752256616055  0.2509073003697674  0.0003281237352680
  0.2508370473831510  0.2496858516339824  0.4999829148473036
  0.2507103916585376  0.7495489331005305  0.9994501203923030
  0.2499823554162953  0.7504327960567455  0.4995983148337731
  0.7492588206011407  0.2510409019766346  0.0002136861601605
  0.7458815509282790  0.2510859969526227  0.4997971361676510
  0.7509295795734360  0.7504815043587277  0.0015179128664508
  0.2495767162523323  0.2509183799351635  0.2504101761700764
  0.2552410974277951  0.2517088767762811  0.7484676191643376
  0.2487425945349544  0.7500560829556568  0.2499357682393065
  0.2523802485752575  0.7483778347291228  0.7485795573078093
  0.7506905579900407  0.2486285205690844  0.2495988247720115
  0.7572013665428071  0.2373072890837900  0.7501277147638747
  0.7487235238515481  0.7485647938815545  0.2526781543102980
  0.7501046708142226  0.7486878709207786  0.7485686168853700
  0.9993523834936722  0.0005908117496901  0.2505336697473676
  0.0069817883977170  0.9962286041565441  0.7503871393717035
  0.0000465870010336  0.4999954893183257  0.2497430756345554
  0.0021869518358245  0.5017510966038126  0.7509550473935945
  0.4998389852172921  0.9988577308115654  0.2497054505192512
  0.4994914112432130  0.0000730904266730  0.7500454938700672
  0.5001853951863198  0.5012954864006273  0.2500228414227509
  0.4942494383542212  0.5060128322488401  0.7559216362872984
  0.4932632952780148  0.4927739266787307  0.4928446430275042
  0.7561110527919143  0.7595837690213308  0.5003506503038362
  0.1093880761487778  0.1422036406288201  0.2495312885195120
  0.1076308882571854  0.1425704289526330  0.7517439718030073
  0.1077922717591531  0.6414487512748479  0.2491480968963635
  0.1087870498122932  0.6417770880475561  0.7496115742674180
  0.6096472321083689  0.1399675681574274  0.2489020482130435
  0.6051976780812287  0.1487775494524416  0.7505462181811238
  0.6091279921985218  0.6412976990764826  0.2430843808736131
  0.3911974904369409  0.3604558740491262  0.2537297111580900
  0.3992186976104418  0.3572873271856809  0.7391783169775500
  0.3902179275158703  0.8597255916190875  0.2489511419723412
  0.3913259506241870  0.8605001793235134  0.7512780652017322
  0.8908239211981108  0.3589446960116629  0.2512006637513668
  0.8792289796901719  0.3654775528753584  0.7498528184834206
  0.8898695231576471  0.8587448831646530  0.2557536903720523
  0.8921211797806519  0.8613929304124242  0.7519098644638462
  0.3597115098946451  0.1098790256849350  0.2504662700340350
  0.3579070327243292  0.1079744367367787  0.7501349183975256
  0.3577742902988587  0.6097579026594346  0.2523181349119157
  0.3547856881125211  0.6135863726799788  0.7387394319597645
  0.8587674433353544  0.1077234415000806  0.2486424418402966
  0.8568936502713829  0.1071944514833120  0.7496143411892461
  0.8589117085806025  0.6081309642447452  0.2498821712696556
  0.8656958381856171  0.6131358635361427  0.7519367948475402
  0.1413422046072625  0.3920949590057665  0.2499475179647314
  0.1409266017412392  0.3906477929436452  0.7506267183327778
  0.1393722746246429  0.8919150830373844  0.2474758640130797
  0.1429867500180123  0.8930540557015417  0.7517959325549222
  0.6413197015176137  0.3889568337458855  0.2486682098663083
  0.6406675172804507  0.8902705868588572  0.2513561342957347
  0.6400121627034514  0.8912369389283513  0.7508146607591641
  0.3589115527976080  0.3905318139688063  1.0004071794751779
  0.3600952950870892  0.8902257120640572  0.9997472186702809
  0.3590149839927332  0.8902784356733278  0.4989267569176884
  0.8596651412147692  0.3908125644685702  0.9994321389225682
  0.8603576033166481  0.3860362692638430  0.4993797129385481
  0.8603133109964977  0.8913364242004587  1.0001918847505469
  0.8611519137989945  0.8920755403046033  0.4952426098862440
  0.1406795777787078  0.1107615058409198  0.9997611102785039
  0.1387710997508021  0.1117082856385763  0.4994217206911682
  0.1412971545376900  0.6086872460861885  0.9999868640760665
  0.1295785374875552  0.6156354579897636  0.4992805359670747
  0.6415064959769677  0.1094843076107724  0.9981261414737851
  0.6418620467393729  0.1043189932988506  0.5023357077189429
  0.6415909942059238  0.6102630298369903  0.0033515926222594
  0.1097255756357666  0.3588894974671075  0.0003970170539721
  0.1104737868453099  0.3619201818259412  0.4996033746698980
  0.1101395881246421  0.8598466196221842 -0.0000008079352370
  0.1077450027892052  0.8634419184748026  0.4970843106746105
  0.6103809166382280  0.3576481162071007  0.0093638699155369
  0.6098796547901641  0.8597957882213192  0.9999914156951345
  0.6052804862527963  0.8516909164709083  0.5003671697772401
  0.3905147190928612  0.1401507323276171  0.0006256744248920
  0.3890466613320507  0.1376097606787503  0.4987776011435573
  0.3917333492192874  0.6396459899087307  0.9964102474672168
  0.3773431185089402  0.6373173324894692  0.4962842385523844
  0.8895505313629561  0.1421049321715795  0.9936685619218701
  0.8877673631960297  0.1399188794783213  0.5073912563056976
  0.8910732671182640  0.6399164935574617  0.9988148473153196
  0.9971998888330932  0.0015473539740251  0.1243809090357003
  0.0015393057439478  0.9977533791580495  0.6258387742788368
 -0.0007549862700715  0.4993065615378542  0.1248218694415782
  0.0029663481990296  0.4980531926599654  0.6254833160570212
  0.5011357280778660 -0.0001136811741469  0.1247510462685329
  0.4996978862703782  0.0009174484674161  0.6252715820615936
  0.4945057743408448  0.5002629229308124  0.1261493080049111
 -0.0001248259147493  0.0075328880689330  0.3746055826722025
  0.0008739029059637  0.9998975426398891  0.8751619863354947
 -0.0004361617329659  0.5006873570123164  0.3747481722036122
  0.0025663039282213  0.4981412682469445  0.8752537673742912
  0.5013843092481259  0.0000972961057132  0.3747579393447888
  0.5004183321801371  1.0002573331933711  0.8751547086911963
  0.5136795870013154  0.4854857370658090  0.8796200465402343
  0.2509639007013523  0.2525375472447172  0.3756923855331383
  0.2542724856866966  0.2537872958720545  0.8742255831962581
  0.2450483382960147  0.7538689954658544  0.3731585307305234
  0.2507088949456218  0.7477052440691261  0.8742618523914415
  0.7537802319236377  0.2434579977086451  0.3745908572367236
  0.7362053028354556  0.2660155387874693  0.8709076254176725
  0.7379399696971543  0.7351750499500894  0.3770064407795441
  0.7501728060451374  0.7518401853929697  0.8764709348851146
  0.2520141843310357  0.2511793353574979  0.1255627104767957
  0.2440294688870084  0.2446854880022376  0.6251676423616963
  0.2516009393428942  0.7484758891847956  0.1241132481891884
  0.2425616008895673  0.7576570307497761  0.6235549677055177
  0.7560900279549633  0.2460910486876993  0.1245091075710429
  0.7344486636551758  0.2654991727987426  0.6298737009050505
  0.7548979557414639  0.7537586609908852  0.1256665257487820
  0.6203551058508497  0.6303542286570122  0.7521116240045834
  0.5125067967284406  0.5121680255165386  0.3736775269812139
  0.6070452892322091  0.3503627143338371  0.4914926312462724
  0.3588889906933749  0.3878696969409779  0.5095799014627492
  0.7542868134878138  0.7554976857126243  0.6260344276243792
  0.8749524807260063  0.6296463659030769  0.5022072952700630
  0.5798224325777973  0.5643213616559987  0.5745914434059327
 
  0.00000000E+00  0.00000000E+00  0.00000000E+00
  0.00000000E+00  0.00000000E+00  0.00000000E+00
  0.00000000E+00  0.00000000E+00  0.00000000E+00
  0.00000000E+00  0.00000000E+00  0.00000000E+00
  0.00000000E+00  0.00000000E+00  0.00000000E+00
  0.00000000E+00  0.00000000E+00  0.00000000E+00
  0.00000000E+00  0.00000000E+00  0.00000000E+00
  0.00000000E+00  0.00000000E+00  0.00000000E+00
  0.00000000E+00  0.00000000E+00  0.00000000E+00
  0.00000000E+00  0.00000000E+00  0.00000000E+00
  0.00000000E+00  0.00000000E+00  0.00000000E+00
  0.00000000E+00  0.00000000E+00  0.00000000E+00
  0.00000000E+00  0.00000000E+00  0.00000000E+00
  0.00000000E+00  0.00000000E+00  0.00000000E+00
  0.00000000E+00  0.00000000E+00  0.00000000E+00
  0.00000000E+00  0.00000000E+00  0.00000000E+00
  0.00000000E+00  0.00000000E+00  0.00000000E+00
  0.00000000E+00  0.00000000E+00  0.00000000E+00
  0.00000000E+00  0.00000000E+00  0.00000000E+00
  0.00000000E+00  0.00000000E+00  0.00000000E+00
  0.00000000E+00  0.00000000E+00  0.00000000E+00
  0.00000000E+00  0.00000000E+00  0.00000000E+00
  0.00000000E+00  0.00000000E+00  0.00000000E+00
  0.00000000E+00  0.00000000E+00  0.00000000E+00
  0.00000000E+00  0.00000000E+00  0.00000000E+00
  0.00000000E+00  0.00000000E+00  0.00000000E+00
  0.00000000E+00  0.00000000E+00  0.00000000E+00
  0.00000000E+00  0.00000000E+00  0.00000000E+00
  0.00000000E+00  0.00000000E+00  0.00000000E+00
  0.00000000E+00  0.00000000E+00  0.00000000E+00
  0.00000000E+00  0.00000000E+00  0.00000000E+00
  0.00000000E+00  0.00000000E+00  0.00000000E+00
  0.00000000E+00  0.00000000E+00  0.00000000E+00
  0.00000000E+00  0.00000000E+00  0.00000000E+00
  0.00000000E+00  0.00000000E+00  0.00000000E+00
  0.00000000E+00  0.00000000E+00  0.00000000E+00
  0.00000000E+00  0.00000000E+00  0.00000000E+00
  0.00000000E+00  0.00000000E+00  0.00000000E+00
  0.00000000E+00  0.00000000E+00  0.00000000E+00
  0.00000000E+00  0.00000000E+00  0.00000000E+00
  0.00000000E+00  0.00000000E+00  0.00000000E+00
  0.00000000E+00  0.00000000E+00  0.00000000E+00
  0.00000000E+00  0.00000000E+00  0.00000000E+00
  0.00000000E+00  0.00000000E+00  0.00000000E+00
  0.00000000E+00  0.00000000E+00  0.00000000E+00
  0.00000000E+00  0.00000000E+00  0.00000000E+00
  0.00000000E+00  0.00000000E+00  0.00000000E+00
  0.00000000E+00  0.00000000E+00  0.00000000E+00
  0.00000000E+00  0.00000000E+00  0.00000000E+00
  0.00000000E+00  0.00000000E+00  0.00000000E+00
  0.00000000E+00  0.00000000E+00  0.00000000E+00
  0.00000000E+00  0.00000000E+00  0.00000000E+00
  0.00000000E+00  0.00000000E+00  0.00000000E+00
  0.00000000E+00  0.00000000E+00  0.00000000E+00
  0.00000000E+00  0.00000000E+00  0.00000000E+00
  0.00000000E+00  0.00000000E+00  0.00000000E+00
  0.00000000E+00  0.00000000E+00  0.00000000E+00
  0.00000000E+00  0.00000000E+00  0.00000000E+00
  0.00000000E+00  0.00000000E+00  0.00000000E+00
  0.00000000E+00  0.00000000E+00  0.00000000E+00
  0.00000000E+00  0.00000000E+00  0.00000000E+00
  0.00000000E+00  0.00000000E+00  0.00000000E+00
  0.00000000E+00  0.00000000E+00  0.00000000E+00
  0.00000000E+00  0.00000000E+00  0.00000000E+00
  0.00000000E+00  0.00000000E+00  0.00000000E+00
  0.00000000E+00  0.00000000E+00  0.00000000E+00
  0.00000000E+00  0.00000000E+00  0.00000000E+00
  0.00000000E+00  0.00000000E+00  0.00000000E+00
  0.00000000E+00  0.00000000E+00  0.00000000E+00
  0.00000000E+00  0.00000000E+00  0.00000000E+00
  0.00000000E+00  0.00000000E+00  0.00000000E+00
  0.00000000E+00  0.00000000E+00  0.00000000E+00
  0.00000000E+00  0.00000000E+00  0.00000000E+00
  0.00000000E+00  0.00000000E+00  0.00000000E+00
  0.00000000E+00  0.00000000E+00  0.00000000E+00
  0.00000000E+00  0.00000000E+00  0.00000000E+00
  0.00000000E+00  0.00000000E+00  0.00000000E+00
  0.00000000E+00  0.00000000E+00  0.00000000E+00
  0.00000000E+00  0.00000000E+00  0.00000000E+00
  0.00000000E+00  0.00000000E+00  0.00000000E+00
  0.00000000E+00  0.00000000E+00  0.00000000E+00
  0.00000000E+00  0.00000000E+00  0.00000000E+00
  0.00000000E+00  0.00000000E+00  0.00000000E+00
  0.00000000E+00  0.00000000E+00  0.00000000E+00
  0.00000000E+00  0.00000000E+00  0.00000000E+00
  0.00000000E+00  0.00000000E+00  0.00000000E+00
  0.00000000E+00  0.00000000E+00  0.00000000E+00
  0.00000000E+00  0.00000000E+00  0.00000000E+00
  0.00000000E+00  0.00000000E+00  0.00000000E+00
  0.00000000E+00  0.00000000E+00  0.00000000E+00
  0.00000000E+00  0.00000000E+00  0.00000000E+00
  0.00000000E+00  0.00000000E+00  0.00000000E+00
  0.00000000E+00  0.00000000E+00  0.00000000E+00
  0.00000000E+00  0.00000000E+00  0.00000000E+00
  0.00000000E+00  0.00000000E+00  0.00000000E+00
  0.00000000E+00  0.00000000E+00  0.00000000E+00
  0.00000000E+00  0.00000000E+00  0.00000000E+00
  0.00000000E+00  0.00000000E+00  0.00000000E+00
  0.00000000E+00  0.00000000E+00  0.00000000E+00
  0.00000000E+00  0.00000000E+00  0.00000000E+00
  0.00000000E+00  0.00000000E+00  0.00000000E+00
  0.00000000E+00  0.00000000E+00  0.00000000E+00
  0.00000000E+00  0.00000000E+00  0.00000000E+00
  0.00000000E+00  0.00000000E+00  0.00000000E+00
  0.00000000E+00  0.00000000E+00  0.00000000E+00
  0.00000000E+00  0.00000000E+00  0.00000000E+00
  0.00000000E+00  0.00000000E+00  0.00000000E+00
  0.00000000E+00  0.00000000E+00  0.00000000E+00
  0.00000000E+00  0.00000000E+00  0.00000000E+00
  0.00000000E+00  0.00000000E+00  0.00000000E+00
  0.00000000E+00  0.00000000E+00  0.00000000E+00
  0.00000000E+00  0.00000000E+00  0.00000000E+00
  0.00000000E+00  0.00000000E+00  0.00000000E+00
  0.00000000E+00  0.00000000E+00  0.00000000E+00
  0.00000000E+00  0.00000000E+00  0.00000000E+00
  0.00000000E+00  0.00000000E+00  0.00000000E+00
  0.00000000E+00  0.00000000E+00  0.00000000E+00
  0.00000000E+00  0.00000000E+00  0.00000000E+00
  0.00000000E+00  0.00000000E+00  0.00000000E+00
  0.00000000E+00  0.00000000E+00  0.00000000E+00
  0.00000000E+00  0.00000000E+00  0.00000000E+00
  0.00000000E+00  0.00000000E+00  0.00000000E+00
  0.00000000E+00  0.00000000E+00  0.00000000E+00
  0.00000000E+00  0.00000000E+00  0.00000000E+00
  0.00000000E+00  0.00000000E+00  0.00000000E+00
  0.00000000E+00  0.00000000E+00  0.00000000E+00
  0.00000000E+00  0.00000000E+00  0.00000000E+00
  0.00000000E+00  0.00000000E+00  0.00000000E+00
  0.00000000E+00  0.00000000E+00  0.00000000E+00
  0.00000000E+00  0.00000000E+00  0.00000000E+00
  0.00000000E+00  0.00000000E+00  0.00000000E+00
  0.00000000E+00  0.00000000E+00  0.00000000E+00
  0.00000000E+00  0.00000000E+00  0.00000000E+00
  0.00000000E+00  0.00000000E+00  0.00000000E+00
  0.00000000E+00  0.00000000E+00  0.00000000E+00
  0.00000000E+00  0.00000000E+00  0.00000000E+00
  0.00000000E+00  0.00000000E+00  0.00000000E+00
  0.00000000E+00  0.00000000E+00  0.00000000E+00
  0.00000000E+00  0.00000000E+00  0.00000000E+00
  0.00000000E+00  0.00000000E+00  0.00000000E+00
  0.00000000E+00  0.00000000E+00  0.00000000E+00
  0.00000000E+00  0.00000000E+00  0.00000000E+00
  0.00000000E+00  0.00000000E+00  0.00000000E+00
  0.00000000E+00  0.00000000E+00  0.00000000E+00
  0.00000000E+00  0.00000000E+00  0.00000000E+00
  0.00000000E+00  0.00000000E+00  0.00000000E+00
  0.00000000E+00  0.00000000E+00  0.00000000E+00
  0.00000000E+00  0.00000000E+00  0.00000000E+00
  0.00000000E+00  0.00000000E+00  0.00000000E+00
  0.00000000E+00  0.00000000E+00  0.00000000E+00
  0.00000000E+00  0.00000000E+00  0.00000000E+00
  0.00000000E+00  0.00000000E+00  0.00000000E+00
  0.00000000E+00  0.00000000E+00  0.00000000E+00
  0.00000000E+00  0.00000000E+00  0.00000000E+00
  0.00000000E+00  0.00000000E+00  0.00000000E+00
  0.00000000E+00  0.00000000E+00  0.00000000E+00
  0.00000000E+00  0.00000000E+00  0.00000000E+00
  0.00000000E+00  0.00000000E+00  0.00000000E+00
