SrTiFeO                                 
   1.00000000000000     
    11.1989999999999998    0.0000000000000000    0.0000000000000000
     0.0000000000000000   11.1989999999999998    0.0000000000000000
     0.0000000000000000    0.0000000000000000   15.9830000000000005
   Sr   Ti   Fe   O 
    32    29     3    94
Direct
  0.9991372794979804  0.2496244565167409  0.1246903568708175
  0.0051809904504880  0.2508690691715193  0.6236389776654423
  0.9980584797690096  0.7504174519927211  0.1260536255300940
  0.9984988899881662  0.7489285271176710  0.6223168646458868
  0.4988485465875985  0.2515068636006950  0.1272047148492711
  0.4988083649525108  0.2497991358108115  0.6202418642997372
  0.4992526016422247  0.7489216206570147  0.1231279040345456
  0.5013478716125034  0.7496862984119816  0.6277385106583743
 -0.0000671330900465  0.2487436214062918  0.3762656616854019
  0.0045775148570017  0.2523372015378376  0.8757570042865546
  0.9979020318046882  0.7485198073326855  0.3776110307703339
  0.9985346080440289  0.7504094084622109  0.8749910337337443
  0.5015374052156498  0.2489579558866108  0.3755712577220155
  0.4971182780933863  0.2495408674310723  0.8781730731287802
  0.4980741487266553  0.7506516154305080  0.3721281566659541
  0.5023993037831106  0.7503618150507740  0.8754010052622149
  0.2499558434646529  0.0001714793828337  0.1251484444338187
  0.2506699752184127  0.0005796629109468  0.6233932944427992
  0.2517531710619042  0.5000437906593810  0.1250185020530025
  0.2465030417049568  0.4992983729795205  0.6242652237890941
  0.7491018502239569  0.9986960920382653  0.1255537554360499
  0.7494262616230227  0.9895915769705526  0.6207636114196330
  0.7478759368351913  0.5005655929308609  0.1252559514274623
  0.7595562365965763  0.5021323225045254  0.6232468559707527
  0.2490299348676346  0.0001659407250442  0.3750758757927479
  0.2509042261334684  0.0007002824685361  0.8762569611624238
  0.2488017660199502  0.4991634427293426  0.3747288665368413
  0.2494919904239688  0.5001988032850491  0.8762559335673359
  0.7498816331203696  0.9990855093057639  0.3752867481523124
  0.7498507147290898  0.9926912708988489  0.8776345696774184
  0.7536458470157852  0.4951138542454974  0.3717048904686877
  0.7527146201761715  0.5069170992527920  0.8786861924129474
  0.9996485240925266  1.0000225056469636  0.9997403933941560
  0.9993210065791975  0.9996396477793819  0.5003667677298606
  0.0004173834985757  0.4999796526327347  0.0005210766480327
  0.9995949014733307  0.4998850674719909  0.4994385842506213
  0.5001459043172394  0.0002537595462750  0.0002805179299923
  0.5004151632807421  0.9967113191236459  0.4996453726029996
  0.5004396781095770  0.4983146146120187  0.9986888222753995
  0.2503730033478879  0.2505507407770913  0.0004957455872752
  0.2489057550088906  0.2475429545233585  0.4994874902365460
  0.2497253931561804  0.7499431300656128  0.9996616667562469
  0.2527489432619512  0.7497607452252895  0.5003117601861991
  0.7491591282923551  0.2508715844489617  0.9998824837839487
  0.7491354185975519  0.2518267231697039  0.5002181805757060
  0.7504535998536469  0.7504695752105581  0.0010416016648004
  0.2497620468255657  0.2499653353399227  0.2503346109441517
  0.2531914478172311  0.2507371345140827  0.7497416955111913
  0.2492842012946839  0.7495304026469222  0.2500139922253707
  0.2497244724951187  0.7510045861385582  0.7499945608310500
  0.7503389378585762  0.2486156588604005  0.2498151263025384
  0.7572648441070727  0.2359472804401516  0.7499035956433096
  0.7485470934630754  0.7481578636738357  0.2521309924537096
  0.7487706367840247  0.7472858461046760  0.7484329728472998
  0.9992520863299327 -0.0000047328090587  0.2505594087560374
  0.0055465921084858  0.9961297456622583  0.7495209760732287
  0.0005438423313590  0.4998780165345637  0.2494813437282963
  0.0006861878042399  0.5016758146271812  0.7504067213321890
  0.4999729150799562  0.9998269128544331  0.2499239726069869
  0.4995296743224740  0.0009653236714543  0.7499905941403482
  0.5003873286294414  0.5014692292950244  0.2517912370037729
  0.4884039918549322  0.5091369545193669  0.7489329559521235
  0.4891624362961351  0.4917146006800666  0.5011875876795649
  0.7530121226983530  0.7551739865718852  0.4982957539101990
  0.1090625194480542  0.1415393157907970  0.2477760338951610
  0.1067615102941626  0.1427577590341998  0.7520346157066160
  0.1084533277837724  0.6416309938144240  0.2499682047374843
  0.1076478737194347  0.6426778002194924  0.7496822461872882
  0.6091611754245359  0.1411959474108317  0.2494714611589153
  0.6038313633425156  0.1507699893920102  0.7501742995266787
  0.6080742218671747  0.6400322998403919  0.2415570933768592
  0.3912785660175432  0.3604795437767733  0.2551782496100229
  0.3968613477984586  0.3567360529931563  0.7461336927657483
  0.3899538919293346  0.8598921196435062  0.2491591304309245
  0.3923302073143395  0.8582420523074682  0.7505660168682792
  0.8906624316678284  0.3589727703565082  0.2513499641028010
  0.8775050200113259  0.3653811583055945  0.7489266406384040
  0.8903717236333843  0.8589507914682248  0.2544580983521339
  0.8920873997590667  0.8592471494627413  0.7471069008519989
  0.3592723107698954  0.1098306046369772  0.2488624985419006
  0.3565814288236946  0.1070605578330329  0.7506906686190367
  0.3582427114415253  0.6092419699734735  0.2513525574666559
  0.3540201772769790  0.6098691885157551  0.7494928054592565
  0.8582946635153051  0.1079750849322263  0.2498105968117956
  0.8559141928708291  0.1050153515180852  0.7498765753688315
  0.8597774768624059  0.6077104825607528  0.2479014417686498
  0.8624224509741935  0.6104013159641467  0.7516417381872629
  0.1414887304061167  0.3915364342150678  0.2493040974809189
  0.1394938994619155  0.3902538115302993  0.7509875320739116
  0.1402059963922469  0.8907788519253024  0.2488650622280100
  0.1440157646890865  0.8933548020373507  0.7505935211117364
  0.6409091927158101  0.3895010823690936  0.2493179959337041
  0.6401221877470908  0.8911708365808478  0.2503238844067715
  0.6402822033808021  0.8921293819291725  0.7507830741650047
  0.3588190401216099  0.3902348984778586  0.9986088775374831
  0.3599161763182864  0.8899793811498444  1.0000723972816810
  0.3565906103971524  0.8931146907917871  0.4996010984412831
  0.8592956801579293  0.3906252342032220  0.9994869025686999
  0.8640812112388162  0.3858695308138347  0.5001700149272355
  0.8599783777681518  0.8914979179191390  0.0004718655839425
  0.8647742692306228  0.8972489793911587  0.4995946926224945
  0.1398084868562744  0.1102817533918796  0.0002490306598842
  0.1411002123294833  0.1105126205445282  0.5002697937878033
  0.1406718284021460  0.6091691027482405  0.9997983048481294
  0.1404678145716334  0.6103410912465376  0.5002475506963648
  0.6412649881847312  0.1097168970448915  0.9983042440404883
  0.6391243438841064  0.1125635420332265  0.5016035984497785
  0.6400010113394612  0.6098261887342366  0.0007399234161443
  0.1094505221289160  0.3590705313004414  0.0001368306106615
  0.1108371380626368  0.3596458276265768  0.4998609502026282
  0.1094454173268464  0.8596510258037727  0.0009730727752513
  0.1101290910427959  0.8593557973171884  0.4992649084330959
  0.6095254841756345  0.3584370395353916  0.0053151071809500
  0.6096375052995991  0.8601186263471495  0.9995310024781460
  0.6026706085292347  0.8579028230758045  0.4993811296562569
  0.3899065153669948  0.1399289442226588  0.0005513465146112
  0.3899673580448743  0.1411306478548739  0.4998236976964699
  0.3906341061183219  0.6389679258128291  0.9950822424641906
  0.3979474480002517  0.6440491693451801  0.5037461605033241
  0.8891716824862589  0.1419283494463488  0.9938274592902921
  0.8891495296125654  0.1428662534925318  0.5059676134442933
  0.8905871304674320  0.6395848339165305  0.9991179627276039
  0.9968117725501855  0.0012241120914660  0.1245492985676817
  0.0045967243499457  0.0017330977264368  0.6263969665601878
  0.0004335677678653  0.4989003848274339  0.1245980198066169
  0.0027686894354598  0.4981545403043040  0.6258990113785944
  0.5010577028854629  0.0004303296504290  0.1245278548710522
  0.4997743225530090  0.0010754771123592  0.6257885468217914
  0.4942684846670530  0.4982487449561660  0.1245566638494855
  0.0019100467988316  0.0062338180219716  0.3747142717139550
  1.0000655193270045  0.9973275689668887  0.8745177703815885
  0.0015783822447128  0.5006428300873711  0.3745819454746565
  0.0013370113188848  0.4982651063166065  0.8750816367658749
  0.4996578631048487  0.0026118325088564  0.3744811918560617
  0.4999292532248234  0.0006969017556493  0.8749618350251321
  0.5096545474901037  0.4866055455999842  0.8732362881145577
  0.2480085417726908  0.2484516149382294  0.3746094714678342
  0.2511440577311038  0.2511683610052831  0.8750456798383808
  0.2508488638976086  0.7492009063190513  0.3751695431181695
  0.2478145025073580  0.7515888201791177  0.8746994154311968
  0.7518112932790365  0.2464338910781770  0.3751243942358478
  0.7377356583363631  0.2642524442669698  0.8706783108507217
  0.7383779025506017  0.7358852483253160  0.3715098908626430
  0.7525030965068251  0.7530869515662655  0.8764664682966357
  0.2526269664697418  0.2524031708476979  0.1251112428327694
  0.2477709335900200  0.2491783659984624  0.6255200755210396
  0.2520117498079557  0.7477738839239106  0.1244110854101018
  0.2483112589799542  0.7519557835620860  0.6253952948859094
  0.7537588665139628  0.2476277911446003  0.1243463699856975
  0.7366624566808335  0.2638440759869885  0.6293882451361746
  0.7531088406201843  0.7526205225568148  0.1241445058651942
  0.6150730618482884  0.6311708635056736  0.7576892661775303
  0.5113778507983945  0.5134609853105300  0.3767030721450330
  0.6185774946722171  0.3716701360480364  0.4946299067354202
  0.3570263727489432  0.3892163227178678  0.5006249460257489
  0.7415072856733633  0.7415439898048312  0.6285324691126397
  0.8821593622691952  0.6285580341830094  0.5023721267634945
  0.5236632481052041  0.5014296342155867  0.6253671613270506
 
  0.00000000E+00  0.00000000E+00  0.00000000E+00
  0.00000000E+00  0.00000000E+00  0.00000000E+00
  0.00000000E+00  0.00000000E+00  0.00000000E+00
  0.00000000E+00  0.00000000E+00  0.00000000E+00
  0.00000000E+00  0.00000000E+00  0.00000000E+00
  0.00000000E+00  0.00000000E+00  0.00000000E+00
  0.00000000E+00  0.00000000E+00  0.00000000E+00
  0.00000000E+00  0.00000000E+00  0.00000000E+00
  0.00000000E+00  0.00000000E+00  0.00000000E+00
  0.00000000E+00  0.00000000E+00  0.00000000E+00
  0.00000000E+00  0.00000000E+00  0.00000000E+00
  0.00000000E+00  0.00000000E+00  0.00000000E+00
  0.00000000E+00  0.00000000E+00  0.00000000E+00
  0.00000000E+00  0.00000000E+00  0.00000000E+00
  0.00000000E+00  0.00000000E+00  0.00000000E+00
  0.00000000E+00  0.00000000E+00  0.00000000E+00
  0.00000000E+00  0.00000000E+00  0.00000000E+00
  0.00000000E+00  0.00000000E+00  0.00000000E+00
  0.00000000E+00  0.00000000E+00  0.00000000E+00
  0.00000000E+00  0.00000000E+00  0.00000000E+00
  0.00000000E+00  0.00000000E+00  0.00000000E+00
  0.00000000E+00  0.00000000E+00  0.00000000E+00
  0.00000000E+00  0.00000000E+00  0.00000000E+00
  0.00000000E+00  0.00000000E+00  0.00000000E+00
  0.00000000E+00  0.00000000E+00  0.00000000E+00
  0.00000000E+00  0.00000000E+00  0.00000000E+00
  0.00000000E+00  0.00000000E+00  0.00000000E+00
  0.00000000E+00  0.00000000E+00  0.00000000E+00
  0.00000000E+00  0.00000000E+00  0.00000000E+00
  0.00000000E+00  0.00000000E+00  0.00000000E+00
  0.00000000E+00  0.00000000E+00  0.00000000E+00
  0.00000000E+00  0.00000000E+00  0.00000000E+00
  0.00000000E+00  0.00000000E+00  0.00000000E+00
  0.00000000E+00  0.00000000E+00  0.00000000E+00
  0.00000000E+00  0.00000000E+00  0.00000000E+00
  0.00000000E+00  0.00000000E+00  0.00000000E+00
  0.00000000E+00  0.00000000E+00  0.00000000E+00
  0.00000000E+00  0.00000000E+00  0.00000000E+00
  0.00000000E+00  0.00000000E+00  0.00000000E+00
  0.00000000E+00  0.00000000E+00  0.00000000E+00
  0.00000000E+00  0.00000000E+00  0.00000000E+00
  0.00000000E+00  0.00000000E+00  0.00000000E+00
  0.00000000E+00  0.00000000E+00  0.00000000E+00
  0.00000000E+00  0.00000000E+00  0.00000000E+00
  0.00000000E+00  0.00000000E+00  0.00000000E+00
  0.00000000E+00  0.00000000E+00  0.00000000E+00
  0.00000000E+00  0.00000000E+00  0.00000000E+00
  0.00000000E+00  0.00000000E+00  0.00000000E+00
  0.00000000E+00  0.00000000E+00  0.00000000E+00
  0.00000000E+00  0.00000000E+00  0.00000000E+00
  0.00000000E+00  0.00000000E+00  0.00000000E+00
  0.00000000E+00  0.00000000E+00  0.00000000E+00
  0.00000000E+00  0.00000000E+00  0.00000000E+00
  0.00000000E+00  0.00000000E+00  0.00000000E+00
  0.00000000E+00  0.00000000E+00  0.00000000E+00
  0.00000000E+00  0.00000000E+00  0.00000000E+00
  0.00000000E+00  0.00000000E+00  0.00000000E+00
  0.00000000E+00  0.00000000E+00  0.00000000E+00
  0.00000000E+00  0.00000000E+00  0.00000000E+00
  0.00000000E+00  0.00000000E+00  0.00000000E+00
  0.00000000E+00  0.00000000E+00  0.00000000E+00
  0.00000000E+00  0.00000000E+00  0.00000000E+00
  0.00000000E+00  0.00000000E+00  0.00000000E+00
  0.00000000E+00  0.00000000E+00  0.00000000E+00
  0.00000000E+00  0.00000000E+00  0.00000000E+00
  0.00000000E+00  0.00000000E+00  0.00000000E+00
  0.00000000E+00  0.00000000E+00  0.00000000E+00
  0.00000000E+00  0.00000000E+00  0.00000000E+00
  0.00000000E+00  0.00000000E+00  0.00000000E+00
  0.00000000E+00  0.00000000E+00  0.00000000E+00
  0.00000000E+00  0.00000000E+00  0.00000000E+00
  0.00000000E+00  0.00000000E+00  0.00000000E+00
  0.00000000E+00  0.00000000E+00  0.00000000E+00
  0.00000000E+00  0.00000000E+00  0.00000000E+00
  0.00000000E+00  0.00000000E+00  0.00000000E+00
  0.00000000E+00  0.00000000E+00  0.00000000E+00
  0.00000000E+00  0.00000000E+00  0.00000000E+00
  0.00000000E+00  0.00000000E+00  0.00000000E+00
  0.00000000E+00  0.00000000E+00  0.00000000E+00
  0.00000000E+00  0.00000000E+00  0.00000000E+00
  0.00000000E+00  0.00000000E+00  0.00000000E+00
  0.00000000E+00  0.00000000E+00  0.00000000E+00
  0.00000000E+00  0.00000000E+00  0.00000000E+00
  0.00000000E+00  0.00000000E+00  0.00000000E+00
  0.00000000E+00  0.00000000E+00  0.00000000E+00
  0.00000000E+00  0.00000000E+00  0.00000000E+00
  0.00000000E+00  0.00000000E+00  0.00000000E+00
  0.00000000E+00  0.00000000E+00  0.00000000E+00
  0.00000000E+00  0.00000000E+00  0.00000000E+00
  0.00000000E+00  0.00000000E+00  0.00000000E+00
  0.00000000E+00  0.00000000E+00  0.00000000E+00
  0.00000000E+00  0.00000000E+00  0.00000000E+00
  0.00000000E+00  0.00000000E+00  0.00000000E+00
  0.00000000E+00  0.00000000E+00  0.00000000E+00
  0.00000000E+00  0.00000000E+00  0.00000000E+00
  0.00000000E+00  0.00000000E+00  0.00000000E+00
  0.00000000E+00  0.00000000E+00  0.00000000E+00
  0.00000000E+00  0.00000000E+00  0.00000000E+00
  0.00000000E+00  0.00000000E+00  0.00000000E+00
  0.00000000E+00  0.00000000E+00  0.00000000E+00
  0.00000000E+00  0.00000000E+00  0.00000000E+00
  0.00000000E+00  0.00000000E+00  0.00000000E+00
  0.00000000E+00  0.00000000E+00  0.00000000E+00
  0.00000000E+00  0.00000000E+00  0.00000000E+00
  0.00000000E+00  0.00000000E+00  0.00000000E+00
  0.00000000E+00  0.00000000E+00  0.00000000E+00
  0.00000000E+00  0.00000000E+00  0.00000000E+00
  0.00000000E+00  0.00000000E+00  0.00000000E+00
  0.00000000E+00  0.00000000E+00  0.00000000E+00
  0.00000000E+00  0.00000000E+00  0.00000000E+00
  0.00000000E+00  0.00000000E+00  0.00000000E+00
  0.00000000E+00  0.00000000E+00  0.00000000E+00
  0.00000000E+00  0.00000000E+00  0.00000000E+00
  0.00000000E+00  0.00000000E+00  0.00000000E+00
  0.00000000E+00  0.00000000E+00  0.00000000E+00
  0.00000000E+00  0.00000000E+00  0.00000000E+00
  0.00000000E+00  0.00000000E+00  0.00000000E+00
  0.00000000E+00  0.00000000E+00  0.00000000E+00
  0.00000000E+00  0.00000000E+00  0.00000000E+00
  0.00000000E+00  0.00000000E+00  0.00000000E+00
  0.00000000E+00  0.00000000E+00  0.00000000E+00
  0.00000000E+00  0.00000000E+00  0.00000000E+00
  0.00000000E+00  0.00000000E+00  0.00000000E+00
  0.00000000E+00  0.00000000E+00  0.00000000E+00
  0.00000000E+00  0.00000000E+00  0.00000000E+00
  0.00000000E+00  0.00000000E+00  0.00000000E+00
  0.00000000E+00  0.00000000E+00  0.00000000E+00
  0.00000000E+00  0.00000000E+00  0.00000000E+00
  0.00000000E+00  0.00000000E+00  0.00000000E+00
  0.00000000E+00  0.00000000E+00  0.00000000E+00
  0.00000000E+00  0.00000000E+00  0.00000000E+00
  0.00000000E+00  0.00000000E+00  0.00000000E+00
  0.00000000E+00  0.00000000E+00  0.00000000E+00
  0.00000000E+00  0.00000000E+00  0.00000000E+00
  0.00000000E+00  0.00000000E+00  0.00000000E+00
  0.00000000E+00  0.00000000E+00  0.00000000E+00
  0.00000000E+00  0.00000000E+00  0.00000000E+00
  0.00000000E+00  0.00000000E+00  0.00000000E+00
  0.00000000E+00  0.00000000E+00  0.00000000E+00
  0.00000000E+00  0.00000000E+00  0.00000000E+00
  0.00000000E+00  0.00000000E+00  0.00000000E+00
  0.00000000E+00  0.00000000E+00  0.00000000E+00
  0.00000000E+00  0.00000000E+00  0.00000000E+00
  0.00000000E+00  0.00000000E+00  0.00000000E+00
  0.00000000E+00  0.00000000E+00  0.00000000E+00
  0.00000000E+00  0.00000000E+00  0.00000000E+00
  0.00000000E+00  0.00000000E+00  0.00000000E+00
  0.00000000E+00  0.00000000E+00  0.00000000E+00
  0.00000000E+00  0.00000000E+00  0.00000000E+00
  0.00000000E+00  0.00000000E+00  0.00000000E+00
  0.00000000E+00  0.00000000E+00  0.00000000E+00
  0.00000000E+00  0.00000000E+00  0.00000000E+00
  0.00000000E+00  0.00000000E+00  0.00000000E+00
  0.00000000E+00  0.00000000E+00  0.00000000E+00
  0.00000000E+00  0.00000000E+00  0.00000000E+00
  0.00000000E+00  0.00000000E+00  0.00000000E+00
  0.00000000E+00  0.00000000E+00  0.00000000E+00
  0.00000000E+00  0.00000000E+00  0.00000000E+00
