Sr   Ti   Fe   O                        
   1.00000000000000     
    11.1989999999999998    0.0000000000000000    0.0000000000000000
     0.0000000000000000   11.1989999999999998    0.0000000000000000
     0.0000000000000000    0.0000000000000000   15.9830000000000005
   Sr   Ti   Fe   O 
    32    30     2    94
Direct
  0.0002930338020549  0.2494081714148897  0.1249474228155094
  0.0003393613687416  0.2483890287035658  0.6235774142369912
  0.9981088769514080  0.7503316414082033  0.1263163727454317
  0.0009257619361995  0.7504231683235797  0.6202518921446599
  0.4998098846412544  0.2511534969816360  0.1251508627793041
  0.5003515707865928  0.2405431575013829  0.6226951032305414
  0.5012003059889085  0.7515009413535534  0.1241744261849900
  0.4923222211973503  0.7587537153786941  0.6203243265950066
  0.0002682673234551  0.2484556446324801  0.3762454471512984
  0.0008901336219820  0.2511273412944892  0.8756786865685346
  0.9942046841036334  0.7482781616413975  0.3784160941290707
  0.0071512915344885  0.7499572251550862  0.8767042988290259
  0.5016611586954488  0.2425393798901093  0.3735503745916670
  0.4984696277092757  0.2499854144322171  0.8748187221632143
  0.4983988990122352  0.7532384226746999  0.3710693962659521
  0.4952451998714807  0.7560653440058723  0.8793594427337995
  0.2495720213726413  0.0004716297348078  0.1250459706859285
  0.2479401630059279 -0.0000745095729587  0.6240638501201911
  0.2514177054739495  0.5002570556423109  0.1238001052185778
  0.2397169362444164  0.5017760633439239  0.6266265574466845
  0.7504018556333993  0.9982159876822717  0.1248479086448506
  0.7493765020586841  0.0003560487016340  0.6227223250407317
  0.7509381262444477  0.4994285120498476  0.1266247358488127
  0.7663751296164772  0.4944734559977341  0.6258980588775395
  0.2482167763150212  0.9994125341969787  0.3749590778125322
  0.2499055276205255  0.0015929255436644  0.8747223152804247
  0.2441686908315373  0.5009824034844294  0.3746715737743405
  0.2508501401548296  0.5017253055634321  0.8746532113611654
  0.7508525889514246  0.9946495519593876  0.3775343002366860
  0.7483355625053689  0.0055404888797238  0.8753998455995853
  0.7571575436274959  0.4964932084608956  0.3712856918101066
  0.7514066013428589  0.4984790191372914  0.8794513182536897
  0.9994276179575257  0.9999095672498624  0.9993091285877451
  0.9973299522430501  0.9983802843863954  0.4998005663056604
  0.0005872318541360  0.5001340608999415  0.0003568786390963
  0.9984832005198991  0.5005306662631560  0.4994986151401472
  0.5000191749860656  0.0012990100076316  0.0002523410075234
  0.5002922959217639  0.9970753255203629  0.4987580275247690
  0.5012301288410841  0.5017222544006085  0.9991102491259350
  0.2508611508696902  0.2510061984379063  0.9995352788546941
  0.2477613157818395  0.2467819055315957  0.5010248500425591
  0.2502902205123210  0.7498865747031030  0.0008096841547992
  0.2486248739092322  0.7504522338934463  0.4985252317345483
  0.7497701362445096  0.2505352338337354  0.0004177370740692
  0.7492857855650223  0.2487719079566359  0.4993003861179414
  0.7493153761424513  0.7492031428617641  0.0006990070838528
  0.2507387035764033  0.2508160630204366  0.2505087214851620
  0.2526167087645566  0.2513362600518902  0.7485153295117352
  0.2487152208229261  0.7502937681564827  0.2499605778444172
  0.2525162131020556  0.7498304858865977  0.7484964140057107
  0.7501455549889858  0.2485162010575942  0.2499041557087524
  0.7484143024180436  0.2531707905772577  0.7493852391833953
  0.7488667366818140  0.7487054012757733  0.2527062024993229
  0.7639689153579993  0.7590960986792240  0.7510475560247586
  0.9991909686796459  0.9992188797433854  0.2506355911204230
  0.0042715112720500  0.0064395665891488  0.7504650030296798
  0.0010108117791318  0.4997632019822037  0.2493827978531286
  1.0007594036479011  0.4987162806111856  0.7515129246809714
  0.4995505482683167 -0.0000387571772248  0.2493272981781604
  0.4988746759698799  0.0002968140001086  0.7502254461775179
  0.5006446439154567  0.5003718309391667  0.2473956047949086
  0.4947493098796444  0.4953996889001386  0.4936618851215425
  0.4964252195932409  0.4926626387673126  0.7557619271833884
  0.7466725356746629  0.7489649428490347  0.5044964212497781
  0.1099675848214430  0.1413948490950640  0.2492211886828568
  0.1076481889599323  0.1420767432102687  0.7534343254817070
  0.1087968128979829  0.6410870979232151  0.2505149242828777
  0.1125320274064747  0.6382639838075512  0.7496752913863524
  0.6086770339497730  0.1406606046904164  0.2479022368858493
  0.6096861345309148  0.1399637711255528  0.7510474946817688
  0.6090619741555805  0.6404618209929861  0.2413239237804010
  0.3927526173554885  0.3605465442794660  0.2556389630841731
  0.3874657775120968  0.3539154051696135  0.7383659297705109
  0.3898792716705943  0.8597032138353540  0.2487172735505389
  0.3877324048207273  0.8634930490171178  0.7511292630678709
  0.8908400771916242  0.3593358917807155  0.2507866235518210
  0.8926396287602582  0.3575291722371775  0.7494709106369738
  0.8898747945906512  0.8586170456540190  0.2547037307279903
  0.8951027504686483  0.8584814122011994  0.7531061179887597
  0.3589171159593692  0.1101994666197847  0.2493696421659785
  0.3586765391385742  0.1081138761069864  0.7501565689178955
  0.3591250019650225  0.6090510871030239  0.2519918865606022
  0.3747639688909853  0.6181932364290212  0.7380787197312779
  0.8587895324674240  0.1085697907278356  0.2489799019298632
  0.8578978623496688  0.1075348794328791  0.7500522387712861
  0.8600424373435654  0.6084037516916404  0.2482719569824979
  0.8554121071332190  0.6064232580048802  0.7533486931189384
  0.1417374543252148  0.3916455217319593  0.2483685728676030
  0.1411970951530378  0.3910314391701036  0.7521517908425621
  0.1401848194588448  0.8916410096108065  0.2482619778426734
  0.1407709042156338  0.8901822258372392  0.7520259097467394
  0.6414985839524207  0.3906347484223460  0.2500648167759862
  0.6396162552271002  0.8904587114874069  0.2510842049265684
  0.6350079103536841  0.8812323098541313  0.7532612544911070
  0.3599967636954982  0.3920706552134912  0.9959585285762899
  0.3595567451803331  0.8904628394523029  0.9984142741661729
  0.3563070579083609  0.8913132891770090  0.5007752696475437
  0.8603148728161668  0.3902153880681540  0.0001006493505008
  0.8612212278819397  0.3853049525435466  0.4983307894477991
  0.8588008708524357  0.8891555230620839  0.9926463781208530
  0.8640462999761452  0.8937942628204196  0.5025659110484350
  0.1405442002188441  0.1101487147962787  0.0013170638904883
  0.1408666823178093  0.1100491860561342  0.4963610987492861
  0.1409325784944128  0.6093390516769862  0.9991709190388496
  0.1369318874348364  0.6116044816527044  0.4994678991473068
  0.6408609391204804  0.1098670459079926  0.0004550880471755
  0.6406173811074368  0.1078715076990770  0.4995427830917444
  0.6413459779336245  0.6099110124469527  0.0104166241595449
  0.1100584846244281  0.3594832923892733  0.0004117254222021
  0.1124017276290363  0.3604432241174795  0.4995964824047200
  0.1099925434705767  0.8592272515079465  0.9991774781253652
  0.1088831068021657  0.8600550314121985  0.4982830413471399
  0.6095959803321563  0.3595595484774343  0.9997486906440971
  0.6092853838122412  0.8603052276186626  0.9996035887801534
  0.5995357587286089  0.8596216854338068  0.4978999679038944
  0.3911830085664873  0.1415011252581475  0.0004354668136539
  0.3897871738908204  0.1416051049024761  0.4997395311271515
  0.3905406252412058  0.6419728865164265  0.0037174825516922
  0.3834425702435382  0.6377794679471059  0.4962114502524405
  0.8899990434721867  0.1403553765432060  0.9991974895260340
  0.8904215484574814  0.1405769657734041  0.4996792497787716
  0.8908378187493330  0.6405666084747289  0.9978154360790239
  0.9958643859981928  0.9966970602658153  0.1241745099921444
  0.0041567799471846  0.0024099010127725  0.6262832306604622
  0.0002906148660444  0.5004849913759055  0.1243569768951077
  0.0032244226410510  0.4976317102008080  0.6264464777074629
  0.4990954179938143  0.9992827947439622  0.1244623476688234
  0.5007188127214737  0.0017189813178387  0.6257425520570283
  0.4941475437641504  0.4931945912720453  0.1262526621666351
  0.9996781136308142  1.0015833128588207  0.3740304678566118
  0.0016992755593927  1.0016428459773417  0.8753252898667734
  0.0017042991202500  0.4990938461113020  0.3739047363793370
  0.0018585700871858  0.4988194891930587  0.8754785677201293
  0.4970675108871310  0.0025299178715298  0.3735790300413197
  0.4998066225490995  0.0028434601698628  0.8756252279775756
  0.5104268077110065  0.5164041834529209  0.8793429859242466
  0.2528074228524108  0.2554614424481814  0.3757217393735834
  0.2528533582790903  0.2502737191517233  0.8748793750229290
  0.2479433009316774  0.7528793076970155  0.3737702280303851
  0.2533316313358005  0.7438862180921928  0.8742247805420192
  0.7491570983624670  0.2476019808568696  0.3740564724060471
  0.7482362172798407  0.2519469922326856  0.8745035328486717
  0.7403958422343661  0.7363549314061212  0.3739415083422902
  0.7325897936180887  0.7345295254000324  0.8724145757184018
  0.2541965944858914  0.2537335878345593  0.1251723440009963
  0.2392266229588124  0.2403770333003908  0.6249927534732516
  0.2485768231939789  0.7502308153804604  0.1249466502986258
  0.2451740691849822  0.7530840830963427  0.6238899439902600
  0.7511091594481226  0.2508765773743571  0.1246478877477259
  0.7498108079470853  0.2473861851383633  0.6243900996746888
  0.7564504795132242  0.7573460115086080  0.1239660204840226
  0.6447779979118348  0.3975370745172009  0.7447323377462686
  0.5173409236959611  0.5144371362279878  0.3764005577717304
  0.6070165382188466  0.3562652800850207  0.4978938804997180
  0.3625848714386923  0.3915840811499928  0.5160840504843002
  0.7424795016498347  0.7446209186698388  0.6341315846286926
  0.8871056305135373  0.6286149360431524  0.5022782042913301
  0.5880879014373689  0.5770969742850407  0.5690733807138021
 
  0.00000000E+00  0.00000000E+00  0.00000000E+00
  0.00000000E+00  0.00000000E+00  0.00000000E+00
  0.00000000E+00  0.00000000E+00  0.00000000E+00
  0.00000000E+00  0.00000000E+00  0.00000000E+00
  0.00000000E+00  0.00000000E+00  0.00000000E+00
  0.00000000E+00  0.00000000E+00  0.00000000E+00
  0.00000000E+00  0.00000000E+00  0.00000000E+00
  0.00000000E+00  0.00000000E+00  0.00000000E+00
  0.00000000E+00  0.00000000E+00  0.00000000E+00
  0.00000000E+00  0.00000000E+00  0.00000000E+00
  0.00000000E+00  0.00000000E+00  0.00000000E+00
  0.00000000E+00  0.00000000E+00  0.00000000E+00
  0.00000000E+00  0.00000000E+00  0.00000000E+00
  0.00000000E+00  0.00000000E+00  0.00000000E+00
  0.00000000E+00  0.00000000E+00  0.00000000E+00
  0.00000000E+00  0.00000000E+00  0.00000000E+00
  0.00000000E+00  0.00000000E+00  0.00000000E+00
  0.00000000E+00  0.00000000E+00  0.00000000E+00
  0.00000000E+00  0.00000000E+00  0.00000000E+00
  0.00000000E+00  0.00000000E+00  0.00000000E+00
  0.00000000E+00  0.00000000E+00  0.00000000E+00
  0.00000000E+00  0.00000000E+00  0.00000000E+00
  0.00000000E+00  0.00000000E+00  0.00000000E+00
  0.00000000E+00  0.00000000E+00  0.00000000E+00
  0.00000000E+00  0.00000000E+00  0.00000000E+00
  0.00000000E+00  0.00000000E+00  0.00000000E+00
  0.00000000E+00  0.00000000E+00  0.00000000E+00
  0.00000000E+00  0.00000000E+00  0.00000000E+00
  0.00000000E+00  0.00000000E+00  0.00000000E+00
  0.00000000E+00  0.00000000E+00  0.00000000E+00
  0.00000000E+00  0.00000000E+00  0.00000000E+00
  0.00000000E+00  0.00000000E+00  0.00000000E+00
  0.00000000E+00  0.00000000E+00  0.00000000E+00
  0.00000000E+00  0.00000000E+00  0.00000000E+00
  0.00000000E+00  0.00000000E+00  0.00000000E+00
  0.00000000E+00  0.00000000E+00  0.00000000E+00
  0.00000000E+00  0.00000000E+00  0.00000000E+00
  0.00000000E+00  0.00000000E+00  0.00000000E+00
  0.00000000E+00  0.00000000E+00  0.00000000E+00
  0.00000000E+00  0.00000000E+00  0.00000000E+00
  0.00000000E+00  0.00000000E+00  0.00000000E+00
  0.00000000E+00  0.00000000E+00  0.00000000E+00
  0.00000000E+00  0.00000000E+00  0.00000000E+00
  0.00000000E+00  0.00000000E+00  0.00000000E+00
  0.00000000E+00  0.00000000E+00  0.00000000E+00
  0.00000000E+00  0.00000000E+00  0.00000000E+00
  0.00000000E+00  0.00000000E+00  0.00000000E+00
  0.00000000E+00  0.00000000E+00  0.00000000E+00
  0.00000000E+00  0.00000000E+00  0.00000000E+00
  0.00000000E+00  0.00000000E+00  0.00000000E+00
  0.00000000E+00  0.00000000E+00  0.00000000E+00
  0.00000000E+00  0.00000000E+00  0.00000000E+00
  0.00000000E+00  0.00000000E+00  0.00000000E+00
  0.00000000E+00  0.00000000E+00  0.00000000E+00
  0.00000000E+00  0.00000000E+00  0.00000000E+00
  0.00000000E+00  0.00000000E+00  0.00000000E+00
  0.00000000E+00  0.00000000E+00  0.00000000E+00
  0.00000000E+00  0.00000000E+00  0.00000000E+00
  0.00000000E+00  0.00000000E+00  0.00000000E+00
  0.00000000E+00  0.00000000E+00  0.00000000E+00
  0.00000000E+00  0.00000000E+00  0.00000000E+00
  0.00000000E+00  0.00000000E+00  0.00000000E+00
  0.00000000E+00  0.00000000E+00  0.00000000E+00
  0.00000000E+00  0.00000000E+00  0.00000000E+00
  0.00000000E+00  0.00000000E+00  0.00000000E+00
  0.00000000E+00  0.00000000E+00  0.00000000E+00
  0.00000000E+00  0.00000000E+00  0.00000000E+00
  0.00000000E+00  0.00000000E+00  0.00000000E+00
  0.00000000E+00  0.00000000E+00  0.00000000E+00
  0.00000000E+00  0.00000000E+00  0.00000000E+00
  0.00000000E+00  0.00000000E+00  0.00000000E+00
  0.00000000E+00  0.00000000E+00  0.00000000E+00
  0.00000000E+00  0.00000000E+00  0.00000000E+00
  0.00000000E+00  0.00000000E+00  0.00000000E+00
  0.00000000E+00  0.00000000E+00  0.00000000E+00
  0.00000000E+00  0.00000000E+00  0.00000000E+00
  0.00000000E+00  0.00000000E+00  0.00000000E+00
  0.00000000E+00  0.00000000E+00  0.00000000E+00
  0.00000000E+00  0.00000000E+00  0.00000000E+00
  0.00000000E+00  0.00000000E+00  0.00000000E+00
  0.00000000E+00  0.00000000E+00  0.00000000E+00
  0.00000000E+00  0.00000000E+00  0.00000000E+00
  0.00000000E+00  0.00000000E+00  0.00000000E+00
  0.00000000E+00  0.00000000E+00  0.00000000E+00
  0.00000000E+00  0.00000000E+00  0.00000000E+00
  0.00000000E+00  0.00000000E+00  0.00000000E+00
  0.00000000E+00  0.00000000E+00  0.00000000E+00
  0.00000000E+00  0.00000000E+00  0.00000000E+00
  0.00000000E+00  0.00000000E+00  0.00000000E+00
  0.00000000E+00  0.00000000E+00  0.00000000E+00
  0.00000000E+00  0.00000000E+00  0.00000000E+00
  0.00000000E+00  0.00000000E+00  0.00000000E+00
  0.00000000E+00  0.00000000E+00  0.00000000E+00
  0.00000000E+00  0.00000000E+00  0.00000000E+00
  0.00000000E+00  0.00000000E+00  0.00000000E+00
  0.00000000E+00  0.00000000E+00  0.00000000E+00
  0.00000000E+00  0.00000000E+00  0.00000000E+00
  0.00000000E+00  0.00000000E+00  0.00000000E+00
  0.00000000E+00  0.00000000E+00  0.00000000E+00
  0.00000000E+00  0.00000000E+00  0.00000000E+00
  0.00000000E+00  0.00000000E+00  0.00000000E+00
  0.00000000E+00  0.00000000E+00  0.00000000E+00
  0.00000000E+00  0.00000000E+00  0.00000000E+00
  0.00000000E+00  0.00000000E+00  0.00000000E+00
  0.00000000E+00  0.00000000E+00  0.00000000E+00
  0.00000000E+00  0.00000000E+00  0.00000000E+00
  0.00000000E+00  0.00000000E+00  0.00000000E+00
  0.00000000E+00  0.00000000E+00  0.00000000E+00
  0.00000000E+00  0.00000000E+00  0.00000000E+00
  0.00000000E+00  0.00000000E+00  0.00000000E+00
  0.00000000E+00  0.00000000E+00  0.00000000E+00
  0.00000000E+00  0.00000000E+00  0.00000000E+00
  0.00000000E+00  0.00000000E+00  0.00000000E+00
  0.00000000E+00  0.00000000E+00  0.00000000E+00
  0.00000000E+00  0.00000000E+00  0.00000000E+00
  0.00000000E+00  0.00000000E+00  0.00000000E+00
  0.00000000E+00  0.00000000E+00  0.00000000E+00
  0.00000000E+00  0.00000000E+00  0.00000000E+00
  0.00000000E+00  0.00000000E+00  0.00000000E+00
  0.00000000E+00  0.00000000E+00  0.00000000E+00
  0.00000000E+00  0.00000000E+00  0.00000000E+00
  0.00000000E+00  0.00000000E+00  0.00000000E+00
  0.00000000E+00  0.00000000E+00  0.00000000E+00
  0.00000000E+00  0.00000000E+00  0.00000000E+00
  0.00000000E+00  0.00000000E+00  0.00000000E+00
  0.00000000E+00  0.00000000E+00  0.00000000E+00
  0.00000000E+00  0.00000000E+00  0.00000000E+00
  0.00000000E+00  0.00000000E+00  0.00000000E+00
  0.00000000E+00  0.00000000E+00  0.00000000E+00
  0.00000000E+00  0.00000000E+00  0.00000000E+00
  0.00000000E+00  0.00000000E+00  0.00000000E+00
  0.00000000E+00  0.00000000E+00  0.00000000E+00
  0.00000000E+00  0.00000000E+00  0.00000000E+00
  0.00000000E+00  0.00000000E+00  0.00000000E+00
  0.00000000E+00  0.00000000E+00  0.00000000E+00
  0.00000000E+00  0.00000000E+00  0.00000000E+00
  0.00000000E+00  0.00000000E+00  0.00000000E+00
  0.00000000E+00  0.00000000E+00  0.00000000E+00
  0.00000000E+00  0.00000000E+00  0.00000000E+00
  0.00000000E+00  0.00000000E+00  0.00000000E+00
  0.00000000E+00  0.00000000E+00  0.00000000E+00
  0.00000000E+00  0.00000000E+00  0.00000000E+00
  0.00000000E+00  0.00000000E+00  0.00000000E+00
  0.00000000E+00  0.00000000E+00  0.00000000E+00
  0.00000000E+00  0.00000000E+00  0.00000000E+00
  0.00000000E+00  0.00000000E+00  0.00000000E+00
  0.00000000E+00  0.00000000E+00  0.00000000E+00
  0.00000000E+00  0.00000000E+00  0.00000000E+00
  0.00000000E+00  0.00000000E+00  0.00000000E+00
  0.00000000E+00  0.00000000E+00  0.00000000E+00
  0.00000000E+00  0.00000000E+00  0.00000000E+00
  0.00000000E+00  0.00000000E+00  0.00000000E+00
  0.00000000E+00  0.00000000E+00  0.00000000E+00
  0.00000000E+00  0.00000000E+00  0.00000000E+00
  0.00000000E+00  0.00000000E+00  0.00000000E+00
  0.00000000E+00  0.00000000E+00  0.00000000E+00
  0.00000000E+00  0.00000000E+00  0.00000000E+00
  0.00000000E+00  0.00000000E+00  0.00000000E+00
