SrTiFeO                                 
   1.00000000000000     
    11.1989999999999998    0.0000000000000000    0.0000000000000000
     0.0000000000000000   11.1989999999999998    0.0000000000000000
     0.0000000000000000    0.0000000000000000   15.9830000000000005
   Sr   Ti   Fe   O 
    32    31     1    94
Direct
  0.0017461159056181  0.2502877575690670  0.1238444084118708
  0.0045672299688327  0.2482524231319156  0.6262839750579970
  0.0010315257990296  0.7499185525500016  0.1251503999074235
  0.0010641469722377  0.7512926224489983  0.6247813664123352
  0.4989478201354249  0.2504671539370606  0.1240357637017375
  0.4912992275993722  0.2456529160173187  0.6295524261943581
  0.5004692844807955  0.7480227700378584  0.1252966176354745
  0.5000112124987987  0.7493357526165311  0.6232451731362618
  0.0090491633113434  0.2485565781378542  0.3733521583437173
  0.9997170333051056  0.2503897054495186  0.8751668853562791
  0.0018885023084397  0.7510908159298677  0.3752880232136172
  0.0006416243059506  0.7501854435889925  0.8749390328828391
  0.4867662996560956  0.2458792836323942  0.3721820994551407
  0.4997646629427104  0.2514200136530217  0.8754191746418896
  0.4991470990267236  0.7481034429876999  0.3767722413826866
  0.4998219429028018  0.7487454022770611  0.8748762217746001
  0.2505788531357725  0.9997781859338180  0.1249851453334391
  0.2477225822521223  0.9990624346192145  0.6243056175138896
  0.2519016405738810  0.5003479705045629  0.1259644635021681
  0.2524906628127742  0.4987592923033294  0.6226797501162534
  0.7511759544419478  0.9983172968843209  0.1240917398891942
  0.7489134227239850  0.9951863219613123  0.6255783626380557
  0.7490975159640639  0.5018930660420160  0.1240510854987408
  0.7506675248779645  0.5051142548659630  0.6288593133709798
  0.2485827298252828  0.9980172236441115  0.3755985879564497
  0.2498100435864649  0.9996853167549671  0.8750970489835473
  0.2520209705947242  0.4992932188105899  0.3772718464082830
  0.2517035598214575  0.5003542863932288  0.8744445507665248
  0.7489130855323275  0.9927012176212588  0.3754480006675529
  0.7503838185804700  0.0002982567086234  0.8743144146004783
  0.7495792559744971  0.5114404976831524  0.3718772553747733
  0.7503001333290137  0.5016779361328023  0.8765224631738823
  0.9996662311187661  0.0005500737152090  0.0000394688500909
  0.0007078892286668  0.9988883460277205  0.4994135570419032
  0.0003222884585924  0.4997648105321048  0.0001495884858186
  0.9989993595212937  0.5014045008614456  0.4994888219213444
  0.5002563131479112  0.0000501007323191  0.9999573822983340
  0.4974797687306294  0.0004962098211719  0.4992462287728446
  0.4999662582905794  0.5003023725533728  0.0000663209515389
  0.2500377718853424  0.2497709180265053  0.9997640533409662
  0.2499102438242778  0.2504305369173053  0.5003273152038042
  0.2506190362181449  0.7495784138892162  0.0003234314590187
  0.2503514908104166  0.7495755017889371  0.5003614760482323
  0.7505395439062346  0.2495828797312105  0.9975328915112626
  0.7500544076135858  0.7503060049134636  0.9998672228512135
  0.2494779315759336  0.2496645213370901  0.2487314085329390
  0.2489218840366470  0.2499410389994520  0.7507159836960854
  0.2504766716135372  0.7492543418154155  0.2499811478559343
  0.2500458276329384  0.7494633345467128  0.7492317111495929
  0.7505804649116279  0.2494237961989281  0.2449700570821355
  0.7485368092436459  0.2511598671702373  0.7500883458174334
  0.7503987775989935  0.7506265801426053  0.2493185261015128
  0.7499986655055469  0.7503628564981971  0.7505539272015390
  0.0005528421874379  0.9991684433313797  0.2503527801909594
  0.9991179580587838  0.0003533540145596  0.7498876189552002
  0.0005564894694800  0.4998007924616152  0.2504913807815313
  1.0001067082604835  0.4996696444426639  0.7499428315172517
  0.5001129586806660  0.9987566246795719  0.2501891131321238
  0.5000569783638913  0.9995303318812294  0.7502428300137022
  0.5013405406814211  0.4980806706537879  0.2528990237277307
  0.5013170849653873  0.4987891469807837  0.7482260411284699
  0.7570767130327343  0.2472312372148317  0.5029968573105089
  0.7504076618546227  0.7482723480348413  0.5005823939997326
  0.4965426802252873  0.5047577998112780  0.5007906265649240
  0.1099795466085702  0.1397897026002746  0.2481239266269919
  0.1083850675841647  0.1412088069177604  0.7515300218592346
  0.1103227356422533  0.6396482318826854  0.2484456514391646
  0.1092224272510801  0.6400033855241541  0.7499387575079564
  0.6120025850103414  0.1410859285400881  0.2580521499312278
  0.6083060537530465  0.1413924412262219  0.7524813732108493
  0.6112062680274164  0.6396700895621158  0.2514234369217577
  0.6099352992260738  0.6412205838383971  0.7490608770036069
  0.3896984960030644  0.3585336383051705  0.2471608964813034
  0.3897378052648391  0.3584325266920014  0.7519019494219658
  0.3912503954822449  0.8588770350004776  0.2479309443984859
  0.3914637852093474  0.8594414502337547  0.7482255451713625
  0.8893955817906711  0.3582412552216026  0.2567285948369882
  0.8907291590925168  0.3586229505256931  0.7488900303092454
  0.8901306115988391  0.8600932839320258  0.2486687075625494
  0.8904209238120744  0.8601885820600846  0.7510499981289026
  0.3610104242100595  0.1103419642466207  0.2511974584668923
  0.3593795041779442  0.1093908918585278  0.7482882196159857
  0.3609011818434218  0.6090432458798026  0.2533349029152234
  0.3602873655679726  0.6088694121619777  0.7459704790252450
  0.8589954358028574  0.1113255874710946  0.2585425069615093
  0.8576039127174347  0.1103241923672554  0.7458295767464059
  0.8606267584053499  0.6102746056094226  0.2486166934613444
  0.8596952093235419  0.6098814833254673  0.7512417478844235
  0.1402439308383807  0.3897869466118992  0.2500904630333698
  0.1406100731285493  0.3910275282537516  0.7495867285168364
  0.1408787992419897  0.8899804243998297  0.2456180111417060
  0.1401770990614018  0.8907890268888613  0.7516493790334442
  0.6436351967364349  0.3880004589064096  0.2513810504006175
  0.6419356479672238  0.3909725197048642  0.7584211057665811
  0.6409696221993617  0.8906465865441017  0.2487995893252546
  0.6411344044794510  0.8914589293159401  0.7507635631480797
  0.3593361128956203  0.3901878725159887  0.0006539228743916
  0.3595031535898855  0.8909261889487154  0.0010843786340482
  0.3592281026558596  0.8927057865696233  0.5021606335945252
  0.8589848946673814  0.3905720351236410  1.0001697598764676
  0.8590847023078705  0.8906758348488395  0.9998210670706870
  0.8598173758883555  0.8929111867847966  0.5004226079126521
  0.1408217154549874  0.1087492455840603  0.0003421474418464
  0.1389969406922465  0.1093100806591291  0.4997492681698096
  0.1404682763246406  0.6089233390703590  0.0004619730334176
  0.1404536903974884  0.6079051839975402  0.5008105244722885
  0.6411122058987452  0.1091218922701181  0.9991810353851155
  0.6291296419719283  0.1295493895431744  0.4885106199958300
  0.6410314249088476  0.6097281836157384  0.0000649312207484
  0.1092340363399757  0.3587884094160810  0.9998855591305503
  0.1060989651630169  0.3591750237786754  0.5001197071447102
  0.1095421541456830  0.8595633151074864  0.0003968635079262
  0.1088187308597404  0.8595813589997379  0.5012423659131903
  0.6102585902742821  0.3588494534911677  0.9993987001004694
  0.6090958492027231  0.8595294653466641  0.0006665478973641
  0.6131567902392555  0.8665250390081196  0.4999528219437690
  0.3909305347812992  0.1407804288592117  0.9999389807135834
  0.3853874751395641  0.1362804124368180  0.5005487259686985
  0.3908293456178348  0.6408253037905631  0.0009595949915610
  0.8914360084998572  0.1413141912806010  0.0003412392005006
  0.8936101353698035  0.1394859620192366  0.4910199838414560
  0.8908676671111007  0.6405098560368346  0.0003152205392216
  0.9953940828316442  0.0028057296436783  0.1251298596372520
  0.0001068044873735  0.0018899015160441  0.6255089787735066
  0.9982593626779812  0.4963157504925167  0.1255048041209294
  0.9963404520624066  0.4980536139888791  0.6243727517025410
  0.5023298486373491  0.0045287727973188  0.1256765760601097
  0.5066025545453762  0.0041795224306871  0.6243247828603690
  0.5022376937922104  0.4996800734124732  0.1252131163479018
  0.5115942383021351  0.4861668985832449  0.6271756888359683
  0.0064854842091424  0.9935316356017398  0.3731706823538537
  0.9976323211008558  0.0017860931141513  0.8751764747332372
  0.0025394418864815  0.5031098389904276  0.3749543401989433
 -0.0001724178012803  0.4990746749250315  0.8750677036307730
  0.4959751653822013  0.9941699263133301  0.3746030585107290
  0.4982770662777019  0.9989664661927977  0.8750763141668318
  0.4973416390153959  0.5027693233906213  0.8759987174132929
  0.2480515512207258  0.2493418956223876  0.3738659761839918
  0.2495975808382666  0.2489188386993336  0.8753332570894382
  0.2467912582716405  0.7539256250191255  0.3741311807468860
  0.2521188245314821  0.7484641921988350  0.8748695696170120
  0.7542741804821422  0.2465867015033456  0.8752310369091499
  0.7494926995185266  0.7501109477620358  0.8754118719768644
  0.2494852008444568  0.2487459398925797  0.1244481677849153
  0.2468222664687674  0.2494007158252935  0.6260608516484748
  0.2516230485932952  0.7472285514107024  0.1247178688961870
  0.2469606847053822  0.7520695051960915  0.6258795307210535
  0.7515258746745384  0.2469156185923559  0.1244595621028764
  0.7350207202443324  0.2603082839067664  0.6249746688482520
  0.7495717887015519  0.7498018609711044  0.1246641789313714
  0.7520439299804266  0.7530951867567867  0.6262044908518641
  0.8473156451246715  0.3973738342196058  0.4934148052002828
  0.3862228247858231  0.6488397783128818  0.4998883075550025
  0.5058575003949725  0.4881189461201270  0.3737773358248546
  0.3615120638856641  0.3798865335455849  0.4997564457805490
  0.8946135597108347  0.6444572016219711  0.5000069125182273
  0.7516625373298770  0.7520850851268962  0.3742834409187871
  0.6476757990301997  0.6127235910383234  0.5014971969202171
 
  0.00000000E+00  0.00000000E+00  0.00000000E+00
  0.00000000E+00  0.00000000E+00  0.00000000E+00
  0.00000000E+00  0.00000000E+00  0.00000000E+00
  0.00000000E+00  0.00000000E+00  0.00000000E+00
  0.00000000E+00  0.00000000E+00  0.00000000E+00
  0.00000000E+00  0.00000000E+00  0.00000000E+00
  0.00000000E+00  0.00000000E+00  0.00000000E+00
  0.00000000E+00  0.00000000E+00  0.00000000E+00
  0.00000000E+00  0.00000000E+00  0.00000000E+00
  0.00000000E+00  0.00000000E+00  0.00000000E+00
  0.00000000E+00  0.00000000E+00  0.00000000E+00
  0.00000000E+00  0.00000000E+00  0.00000000E+00
  0.00000000E+00  0.00000000E+00  0.00000000E+00
  0.00000000E+00  0.00000000E+00  0.00000000E+00
  0.00000000E+00  0.00000000E+00  0.00000000E+00
  0.00000000E+00  0.00000000E+00  0.00000000E+00
  0.00000000E+00  0.00000000E+00  0.00000000E+00
  0.00000000E+00  0.00000000E+00  0.00000000E+00
  0.00000000E+00  0.00000000E+00  0.00000000E+00
  0.00000000E+00  0.00000000E+00  0.00000000E+00
  0.00000000E+00  0.00000000E+00  0.00000000E+00
  0.00000000E+00  0.00000000E+00  0.00000000E+00
  0.00000000E+00  0.00000000E+00  0.00000000E+00
  0.00000000E+00  0.00000000E+00  0.00000000E+00
  0.00000000E+00  0.00000000E+00  0.00000000E+00
  0.00000000E+00  0.00000000E+00  0.00000000E+00
  0.00000000E+00  0.00000000E+00  0.00000000E+00
  0.00000000E+00  0.00000000E+00  0.00000000E+00
  0.00000000E+00  0.00000000E+00  0.00000000E+00
  0.00000000E+00  0.00000000E+00  0.00000000E+00
  0.00000000E+00  0.00000000E+00  0.00000000E+00
  0.00000000E+00  0.00000000E+00  0.00000000E+00
  0.00000000E+00  0.00000000E+00  0.00000000E+00
  0.00000000E+00  0.00000000E+00  0.00000000E+00
  0.00000000E+00  0.00000000E+00  0.00000000E+00
  0.00000000E+00  0.00000000E+00  0.00000000E+00
  0.00000000E+00  0.00000000E+00  0.00000000E+00
  0.00000000E+00  0.00000000E+00  0.00000000E+00
  0.00000000E+00  0.00000000E+00  0.00000000E+00
  0.00000000E+00  0.00000000E+00  0.00000000E+00
  0.00000000E+00  0.00000000E+00  0.00000000E+00
  0.00000000E+00  0.00000000E+00  0.00000000E+00
  0.00000000E+00  0.00000000E+00  0.00000000E+00
  0.00000000E+00  0.00000000E+00  0.00000000E+00
  0.00000000E+00  0.00000000E+00  0.00000000E+00
  0.00000000E+00  0.00000000E+00  0.00000000E+00
  0.00000000E+00  0.00000000E+00  0.00000000E+00
  0.00000000E+00  0.00000000E+00  0.00000000E+00
  0.00000000E+00  0.00000000E+00  0.00000000E+00
  0.00000000E+00  0.00000000E+00  0.00000000E+00
  0.00000000E+00  0.00000000E+00  0.00000000E+00
  0.00000000E+00  0.00000000E+00  0.00000000E+00
  0.00000000E+00  0.00000000E+00  0.00000000E+00
  0.00000000E+00  0.00000000E+00  0.00000000E+00
  0.00000000E+00  0.00000000E+00  0.00000000E+00
  0.00000000E+00  0.00000000E+00  0.00000000E+00
  0.00000000E+00  0.00000000E+00  0.00000000E+00
  0.00000000E+00  0.00000000E+00  0.00000000E+00
  0.00000000E+00  0.00000000E+00  0.00000000E+00
  0.00000000E+00  0.00000000E+00  0.00000000E+00
  0.00000000E+00  0.00000000E+00  0.00000000E+00
  0.00000000E+00  0.00000000E+00  0.00000000E+00
  0.00000000E+00  0.00000000E+00  0.00000000E+00
  0.00000000E+00  0.00000000E+00  0.00000000E+00
  0.00000000E+00  0.00000000E+00  0.00000000E+00
  0.00000000E+00  0.00000000E+00  0.00000000E+00
  0.00000000E+00  0.00000000E+00  0.00000000E+00
  0.00000000E+00  0.00000000E+00  0.00000000E+00
  0.00000000E+00  0.00000000E+00  0.00000000E+00
  0.00000000E+00  0.00000000E+00  0.00000000E+00
  0.00000000E+00  0.00000000E+00  0.00000000E+00
  0.00000000E+00  0.00000000E+00  0.00000000E+00
  0.00000000E+00  0.00000000E+00  0.00000000E+00
  0.00000000E+00  0.00000000E+00  0.00000000E+00
  0.00000000E+00  0.00000000E+00  0.00000000E+00
  0.00000000E+00  0.00000000E+00  0.00000000E+00
  0.00000000E+00  0.00000000E+00  0.00000000E+00
  0.00000000E+00  0.00000000E+00  0.00000000E+00
  0.00000000E+00  0.00000000E+00  0.00000000E+00
  0.00000000E+00  0.00000000E+00  0.00000000E+00
  0.00000000E+00  0.00000000E+00  0.00000000E+00
  0.00000000E+00  0.00000000E+00  0.00000000E+00
  0.00000000E+00  0.00000000E+00  0.00000000E+00
  0.00000000E+00  0.00000000E+00  0.00000000E+00
  0.00000000E+00  0.00000000E+00  0.00000000E+00
  0.00000000E+00  0.00000000E+00  0.00000000E+00
  0.00000000E+00  0.00000000E+00  0.00000000E+00
  0.00000000E+00  0.00000000E+00  0.00000000E+00
  0.00000000E+00  0.00000000E+00  0.00000000E+00
  0.00000000E+00  0.00000000E+00  0.00000000E+00
  0.00000000E+00  0.00000000E+00  0.00000000E+00
  0.00000000E+00  0.00000000E+00  0.00000000E+00
  0.00000000E+00  0.00000000E+00  0.00000000E+00
  0.00000000E+00  0.00000000E+00  0.00000000E+00
  0.00000000E+00  0.00000000E+00  0.00000000E+00
  0.00000000E+00  0.00000000E+00  0.00000000E+00
  0.00000000E+00  0.00000000E+00  0.00000000E+00
  0.00000000E+00  0.00000000E+00  0.00000000E+00
  0.00000000E+00  0.00000000E+00  0.00000000E+00
  0.00000000E+00  0.00000000E+00  0.00000000E+00
  0.00000000E+00  0.00000000E+00  0.00000000E+00
  0.00000000E+00  0.00000000E+00  0.00000000E+00
  0.00000000E+00  0.00000000E+00  0.00000000E+00
  0.00000000E+00  0.00000000E+00  0.00000000E+00
  0.00000000E+00  0.00000000E+00  0.00000000E+00
  0.00000000E+00  0.00000000E+00  0.00000000E+00
  0.00000000E+00  0.00000000E+00  0.00000000E+00
  0.00000000E+00  0.00000000E+00  0.00000000E+00
  0.00000000E+00  0.00000000E+00  0.00000000E+00
  0.00000000E+00  0.00000000E+00  0.00000000E+00
  0.00000000E+00  0.00000000E+00  0.00000000E+00
  0.00000000E+00  0.00000000E+00  0.00000000E+00
  0.00000000E+00  0.00000000E+00  0.00000000E+00
  0.00000000E+00  0.00000000E+00  0.00000000E+00
  0.00000000E+00  0.00000000E+00  0.00000000E+00
  0.00000000E+00  0.00000000E+00  0.00000000E+00
  0.00000000E+00  0.00000000E+00  0.00000000E+00
  0.00000000E+00  0.00000000E+00  0.00000000E+00
  0.00000000E+00  0.00000000E+00  0.00000000E+00
  0.00000000E+00  0.00000000E+00  0.00000000E+00
  0.00000000E+00  0.00000000E+00  0.00000000E+00
  0.00000000E+00  0.00000000E+00  0.00000000E+00
  0.00000000E+00  0.00000000E+00  0.00000000E+00
  0.00000000E+00  0.00000000E+00  0.00000000E+00
  0.00000000E+00  0.00000000E+00  0.00000000E+00
  0.00000000E+00  0.00000000E+00  0.00000000E+00
  0.00000000E+00  0.00000000E+00  0.00000000E+00
  0.00000000E+00  0.00000000E+00  0.00000000E+00
  0.00000000E+00  0.00000000E+00  0.00000000E+00
  0.00000000E+00  0.00000000E+00  0.00000000E+00
  0.00000000E+00  0.00000000E+00  0.00000000E+00
  0.00000000E+00  0.00000000E+00  0.00000000E+00
  0.00000000E+00  0.00000000E+00  0.00000000E+00
  0.00000000E+00  0.00000000E+00  0.00000000E+00
  0.00000000E+00  0.00000000E+00  0.00000000E+00
  0.00000000E+00  0.00000000E+00  0.00000000E+00
  0.00000000E+00  0.00000000E+00  0.00000000E+00
  0.00000000E+00  0.00000000E+00  0.00000000E+00
  0.00000000E+00  0.00000000E+00  0.00000000E+00
  0.00000000E+00  0.00000000E+00  0.00000000E+00
  0.00000000E+00  0.00000000E+00  0.00000000E+00
  0.00000000E+00  0.00000000E+00  0.00000000E+00
  0.00000000E+00  0.00000000E+00  0.00000000E+00
  0.00000000E+00  0.00000000E+00  0.00000000E+00
  0.00000000E+00  0.00000000E+00  0.00000000E+00
  0.00000000E+00  0.00000000E+00  0.00000000E+00
  0.00000000E+00  0.00000000E+00  0.00000000E+00
  0.00000000E+00  0.00000000E+00  0.00000000E+00
  0.00000000E+00  0.00000000E+00  0.00000000E+00
  0.00000000E+00  0.00000000E+00  0.00000000E+00
  0.00000000E+00  0.00000000E+00  0.00000000E+00
  0.00000000E+00  0.00000000E+00  0.00000000E+00
  0.00000000E+00  0.00000000E+00  0.00000000E+00
  0.00000000E+00  0.00000000E+00  0.00000000E+00
  0.00000000E+00  0.00000000E+00  0.00000000E+00
  0.00000000E+00  0.00000000E+00  0.00000000E+00
  0.00000000E+00  0.00000000E+00  0.00000000E+00
  0.00000000E+00  0.00000000E+00  0.00000000E+00
