SrTiFeO                                 
   1.00000000000000     
    11.1989999999999998    0.0000000000000000    0.0000000000000000
     0.0000000000000000   11.1989999999999998    0.0000000000000000
     0.0000000000000000    0.0000000000000000   15.9830000000000005
   Sr   Ti   Fe   O 
    32    31     1    94
Direct
  0.0023970901413040  0.2504978262537472  0.1243496170842645
  0.0031970832835454  0.2494251810708454  0.6256217947857940
  0.9993510723965909  0.7504181266467663  0.1252079479330442
  0.0050524570880108  0.7473144646670149  0.6253522311852125
  0.4975998456431391  0.2512248126643737  0.1250922735644317
  0.4995382911676845  0.2523770488842146  0.6234880313765992
  0.4988672394757238  0.7502043213747416  0.1237614735313063
  0.4961207087910706  0.7508405704725095  0.6283602531037576
  0.0077158802180914  0.2496346477807406  0.3749947035011638
  0.0009248089576143  0.2503442486379515  0.8752789529632750
  0.0060511688093819  0.7481207914304872  0.3744451990387203
  0.9993173150081416  0.7501167232124192  0.8747110693907331
  0.4947616876866522  0.2519629224394930  0.3770744122684067
  0.4987796919681162  0.2515901706875192  0.8744571646302897
  0.4952920365561692  0.7517214457049981  0.3713714433977869
  0.4987716681401425  0.7505003666709521  0.8764936869003872
  0.2508812430084437  0.0002203077123799  0.1251015024031681
  0.2503503481473530  0.0005546636942005  0.6258482834734108
  0.2509903467356628  0.5004953966713220  0.1251829352062091
  0.2509378963247797  0.5007059218112031  0.6235871149152068
  0.7497453923759193  0.9975914079202549  0.1240384144529964
  0.7491311907152087  0.0038207583602830  0.6282357291869197
  0.7484553111082036  0.5027731359431392  0.1241490795860261
  0.7566279938775751  0.4960286081604645  0.6299557333804281
  0.2509893303869319  0.9997077020104511  0.3740547109604347
  0.2502524982477198 -0.0000517883704174  0.8750178482267902
  0.2516090861659640  0.5017261929242020  0.3763251610267072
  0.2511261145600692  0.5007482460696031  0.8748978725892681
  0.7498744749387518  0.9973838206706297  0.3724136256872594
  0.7490001223339185  0.9987721036384377  0.8756756059438010
  0.7548851653631804  0.5001468059651810  0.3720626870240510
  0.7492236322613715  0.5019325904550566  0.8757615321981795
  0.9992849424815309  0.9999882533338743  0.0000005646890083
  0.0059618572431335  0.0034355550566931  0.4993505167208330
  0.9996347326661726  0.4994991766397215  0.0001370026335959
  0.0002660203050419  0.4976850803543104  0.4994133536069814
  0.5004221463268806  0.0009856544934069  1.0000425321288420
  0.4986560265499619  0.9994495006854095  0.4996058937735351
  0.4995335488929797  0.4993779234942158  1.0000457795575213
  0.2502147472135479  0.2505693937161313  0.9998837122978874
  0.2518070547040002  0.2517142585358528  0.5004806609532810
  0.2495228311652687  0.7500101846080316  0.0002306549384798
  0.2527405673408133  0.7504444073050393  0.5005050066205409
  0.7500912781088613  0.2501030745573831  0.9985667924586834
  0.7504918226292085  0.7506588968274837  0.9998960607968356
  0.2507868043931844  0.2504628760399485  0.2500978096751084
  0.2505238524228362  0.2502852565573100  0.7497438171397083
  0.2498237131953467  0.7501719096993600  0.2487370268623988
  0.2498896395749855  0.7501928975607809  0.7500652142132490
  0.7504402456741462  0.2498927355640632  0.2451597785448431
  0.7502142971069458  0.2499528819280989  0.7526733032795270
  0.7490167416415210  0.7488244748478227  0.2496139862862966
  0.7487149432825748  0.7492874122424648  0.7501164543666873
  0.0004418874538272  0.9996167205396568  0.2506997048984471
  0.9993185090580440  0.0002040741455808  0.7497511320009745
  0.0010581218770888  0.5001339181047971  0.2501384030513080
  0.0009407614920062  0.4995987789990896  0.7505772855963682
  0.5003655035974782  0.0007195563606060  0.2504497944116894
  0.5001435291590006  0.0010840879521573  0.7501079961869630
  0.5012279123273393  0.5013751404790363  0.2527458117514353
  0.5020148550010561  0.5010168651306680  0.7477188489423158
  0.7506309188114259  0.2493723427657911  0.5042823935125931
  0.7560904313652809  0.7616883126064274  0.5006289304487724
  0.4959897436815786  0.4970266376785843  0.4993848029876456
  0.1104217600214489  0.1390431376518054  0.2482606898916210
  0.1089238677029269  0.1401112134513132  0.7519256093309431
  0.1097953307565232  0.6401505800823279  0.2475227383882109
  0.1096663830802694  0.6398574272463616  0.7501211036870081
  0.6130054892465394  0.1412544783156514  0.2589822345914586
  0.6095802234266140  0.1418391869867265  0.7494895677697135
  0.6107096232752061  0.6404664287230711  0.2430953501732894
  0.6095450273013844  0.6415233800884286  0.7566414968881143
  0.3901807173215568  0.3617381831629643  0.2539662121894907
  0.3914535055439113  0.3606087068425714  0.7452292223390086
  0.3889440252946677  0.8615074233920045  0.2476342087648697
  0.3894681894776121  0.8611924662483469  0.7499797062214630
  0.8876244947859411  0.3592396733981986  0.2591682989735364
  0.8905073670592500  0.3589188956948609  0.7487547695370371
  0.8878363213654616  0.8594412538939648  0.2557657766841557
  0.8885841767378753  0.8586145764865242  0.7433834660374546
  0.3615992333547330  0.1116273433230449  0.2495333174135912
  0.3599229148239413  0.1101838816586684  0.7503344247647010
  0.3598872944950761  0.6109327252256729  0.2493760396591713
  0.3606227571428881  0.6101097506581183  0.7476182865815393
  0.8593688681247325  0.1118408670584965  0.2569423972093050
  0.8583562796270745  0.1087608969041855  0.7514978449954346
  0.8598540608831389  0.6101561996281928  0.2500403526396161
  0.8594723295423061  0.6095743879752228  0.7500414852966275
  0.1396802475253078  0.3895499454328805  0.2507312021148366
  0.1410262538766389  0.3906225981743182  0.7489567937936874
  0.1388236259009739  0.8896170529673953  0.2473752921035877
  0.1385113992293514  0.8902851683962019  0.7498478724105788
  0.6417735206724415  0.3877174454068903  0.2557038865166683
  0.6427120476632193  0.3903440682603642  0.7521516181737262
  0.6400595967852459  0.8896103604712461  0.2511820663118483
  0.6408498164795127  0.8906028055660913  0.7485137277588204
  0.3586271028177016  0.3907127334075138  0.0003906482178663
  0.3599898015550339  0.8908797708505504  0.0008756238083630
  0.3549640672619244  0.8957632678265863  0.5013208800618378
  0.8582016472667630  0.3907903376648536 -0.0000595763936082
  0.8590167590595483  0.8915162618330585  0.0000545837360208
  0.8568347859158169  0.8911079676512955  0.5010166817507528
  0.1402276475563564  0.1091973649757903  0.0004610085708167
  0.1412157375404054  0.1079310837241974  0.4995675802041855
  0.1399928522700092  0.6090707239711263  0.0007985191764878
  0.1348222056674865  0.6123262082799029  0.5014225712735759
  0.6418447333282694  0.1095486199713116  0.9998429990884569
  0.6427874392822663  0.1075494477263355  0.4931427249820095
  0.6403189548829947  0.6103469502458823  0.9999516366579260
  0.1088743202973223  0.3586732455673720  0.0001569226550844
  0.1081425085769718  0.3588472729769558  0.5004294236689212
  0.1088378425047927  0.8597554046113109  0.0006766336790732
  0.1049496467818767  0.8591722314663154  0.5016425265334703
  0.6094815321427208  0.3585492343252213  0.9998051015583131
  0.6098251747474409  0.8596952448309467  0.0005276734563748
  0.6037366392574921  0.8489012106941021  0.5000856109376095
  0.3907089797191464  0.1410105301647434  0.0000971370949604
  0.3924369556592345  0.1408455252216498  0.5004748499350344
  0.3903825739675710  0.6401954812856093  0.0006589720955661
  0.8913982219395197  0.1414130739755659 -0.0000815602105803
  0.8896247680164481  0.1380703415635084  0.4913686594116861
  0.8903741235386057  0.6406149213782290  0.0003357017730049
  0.9938799057174641  0.9999696912315309  0.1260437222495000
  0.9975478022966189  0.0061164785104069  0.6242836758846754
  0.9966054545792528  0.4953895503942050  0.1260510640342234
  0.9969490203847750  0.4986119441114576  0.6242003789171534
  0.5042093057551400  0.0042580411530620  0.1260594044153672
  0.5035027722078721  0.0023075710642599  0.6241028710296950
  0.5010871896941302  0.4952675677078903  0.1251419903596985
  0.5183223695298439  0.5064171843936797  0.6249744258289985
  0.0049731417255967  0.9961361274695452  0.3747676812732422
  0.9976157979299949  0.9970343436501173  0.8747460038632121
  0.0043707781380968  0.5058041424859189  0.3750465084819170
  0.9996747844463798  0.4988717574417024  0.8749760703410964
  0.4961250019596191  0.9956522573445665  0.3752361447786244
  0.5011485011387121  0.0000960742242544  0.8749571237783130
  0.4975870912560305  0.4976471696185208  0.8752923919201445
  0.2480343688378958  0.2471915116113080  0.3748520438185623
  0.2515753222957945  0.2517813860818255  0.8746994301676978
  0.2469787045038922  0.7520515839268117  0.3740342968717426
  0.2503341289110245  0.7498675477733552  0.8751210044713501
  0.7512594796301962  0.2494337155482963  0.8753037991185235
  0.7533703508537880  0.7532182650905233  0.8746624903847064
  0.2515310600876006  0.2516326234759679  0.1253412335279555
  0.2469419193251997  0.2460793511887715  0.6254533635141748
  0.2501137693216561  0.7499664086329938  0.1243299000928718
  0.2471988760239538  0.7517403460781541  0.6259959991940915
  0.7510477448002797  0.2494040128801218  0.1250839394116101
  0.7514097620480764  0.2475598919659273  0.6249625551454778
  0.7534362591808469  0.7529674463301279  0.1252518342975648
  0.7356718547230761  0.7352965193791147  0.6215286741296503
  0.8637089268376277  0.3831207336530235  0.4916227119210518
  0.3885197926394646  0.6493874213472741  0.5010821610228865
  0.5094260917477498  0.5150601791258284  0.3738608457715090
  0.3529433921650943  0.3864608627848343  0.5006908817635071
  0.8721084741392763  0.6302013114246729  0.5001102637740603
  0.7364253715257401  0.7372099167570965  0.3787634853657577
  0.6229034849391348  0.3585843181358017  0.4884199198965855
 
  0.00000000E+00  0.00000000E+00  0.00000000E+00
  0.00000000E+00  0.00000000E+00  0.00000000E+00
  0.00000000E+00  0.00000000E+00  0.00000000E+00
  0.00000000E+00  0.00000000E+00  0.00000000E+00
  0.00000000E+00  0.00000000E+00  0.00000000E+00
  0.00000000E+00  0.00000000E+00  0.00000000E+00
  0.00000000E+00  0.00000000E+00  0.00000000E+00
  0.00000000E+00  0.00000000E+00  0.00000000E+00
  0.00000000E+00  0.00000000E+00  0.00000000E+00
  0.00000000E+00  0.00000000E+00  0.00000000E+00
  0.00000000E+00  0.00000000E+00  0.00000000E+00
  0.00000000E+00  0.00000000E+00  0.00000000E+00
  0.00000000E+00  0.00000000E+00  0.00000000E+00
  0.00000000E+00  0.00000000E+00  0.00000000E+00
  0.00000000E+00  0.00000000E+00  0.00000000E+00
  0.00000000E+00  0.00000000E+00  0.00000000E+00
  0.00000000E+00  0.00000000E+00  0.00000000E+00
  0.00000000E+00  0.00000000E+00  0.00000000E+00
  0.00000000E+00  0.00000000E+00  0.00000000E+00
  0.00000000E+00  0.00000000E+00  0.00000000E+00
  0.00000000E+00  0.00000000E+00  0.00000000E+00
  0.00000000E+00  0.00000000E+00  0.00000000E+00
  0.00000000E+00  0.00000000E+00  0.00000000E+00
  0.00000000E+00  0.00000000E+00  0.00000000E+00
  0.00000000E+00  0.00000000E+00  0.00000000E+00
  0.00000000E+00  0.00000000E+00  0.00000000E+00
  0.00000000E+00  0.00000000E+00  0.00000000E+00
  0.00000000E+00  0.00000000E+00  0.00000000E+00
  0.00000000E+00  0.00000000E+00  0.00000000E+00
  0.00000000E+00  0.00000000E+00  0.00000000E+00
  0.00000000E+00  0.00000000E+00  0.00000000E+00
  0.00000000E+00  0.00000000E+00  0.00000000E+00
  0.00000000E+00  0.00000000E+00  0.00000000E+00
  0.00000000E+00  0.00000000E+00  0.00000000E+00
  0.00000000E+00  0.00000000E+00  0.00000000E+00
  0.00000000E+00  0.00000000E+00  0.00000000E+00
  0.00000000E+00  0.00000000E+00  0.00000000E+00
  0.00000000E+00  0.00000000E+00  0.00000000E+00
  0.00000000E+00  0.00000000E+00  0.00000000E+00
  0.00000000E+00  0.00000000E+00  0.00000000E+00
  0.00000000E+00  0.00000000E+00  0.00000000E+00
  0.00000000E+00  0.00000000E+00  0.00000000E+00
  0.00000000E+00  0.00000000E+00  0.00000000E+00
  0.00000000E+00  0.00000000E+00  0.00000000E+00
  0.00000000E+00  0.00000000E+00  0.00000000E+00
  0.00000000E+00  0.00000000E+00  0.00000000E+00
  0.00000000E+00  0.00000000E+00  0.00000000E+00
  0.00000000E+00  0.00000000E+00  0.00000000E+00
  0.00000000E+00  0.00000000E+00  0.00000000E+00
  0.00000000E+00  0.00000000E+00  0.00000000E+00
  0.00000000E+00  0.00000000E+00  0.00000000E+00
  0.00000000E+00  0.00000000E+00  0.00000000E+00
  0.00000000E+00  0.00000000E+00  0.00000000E+00
  0.00000000E+00  0.00000000E+00  0.00000000E+00
  0.00000000E+00  0.00000000E+00  0.00000000E+00
  0.00000000E+00  0.00000000E+00  0.00000000E+00
  0.00000000E+00  0.00000000E+00  0.00000000E+00
  0.00000000E+00  0.00000000E+00  0.00000000E+00
  0.00000000E+00  0.00000000E+00  0.00000000E+00
  0.00000000E+00  0.00000000E+00  0.00000000E+00
  0.00000000E+00  0.00000000E+00  0.00000000E+00
  0.00000000E+00  0.00000000E+00  0.00000000E+00
  0.00000000E+00  0.00000000E+00  0.00000000E+00
  0.00000000E+00  0.00000000E+00  0.00000000E+00
  0.00000000E+00  0.00000000E+00  0.00000000E+00
  0.00000000E+00  0.00000000E+00  0.00000000E+00
  0.00000000E+00  0.00000000E+00  0.00000000E+00
  0.00000000E+00  0.00000000E+00  0.00000000E+00
  0.00000000E+00  0.00000000E+00  0.00000000E+00
  0.00000000E+00  0.00000000E+00  0.00000000E+00
  0.00000000E+00  0.00000000E+00  0.00000000E+00
  0.00000000E+00  0.00000000E+00  0.00000000E+00
  0.00000000E+00  0.00000000E+00  0.00000000E+00
  0.00000000E+00  0.00000000E+00  0.00000000E+00
  0.00000000E+00  0.00000000E+00  0.00000000E+00
  0.00000000E+00  0.00000000E+00  0.00000000E+00
  0.00000000E+00  0.00000000E+00  0.00000000E+00
  0.00000000E+00  0.00000000E+00  0.00000000E+00
  0.00000000E+00  0.00000000E+00  0.00000000E+00
  0.00000000E+00  0.00000000E+00  0.00000000E+00
  0.00000000E+00  0.00000000E+00  0.00000000E+00
  0.00000000E+00  0.00000000E+00  0.00000000E+00
  0.00000000E+00  0.00000000E+00  0.00000000E+00
  0.00000000E+00  0.00000000E+00  0.00000000E+00
  0.00000000E+00  0.00000000E+00  0.00000000E+00
  0.00000000E+00  0.00000000E+00  0.00000000E+00
  0.00000000E+00  0.00000000E+00  0.00000000E+00
  0.00000000E+00  0.00000000E+00  0.00000000E+00
  0.00000000E+00  0.00000000E+00  0.00000000E+00
  0.00000000E+00  0.00000000E+00  0.00000000E+00
  0.00000000E+00  0.00000000E+00  0.00000000E+00
  0.00000000E+00  0.00000000E+00  0.00000000E+00
  0.00000000E+00  0.00000000E+00  0.00000000E+00
  0.00000000E+00  0.00000000E+00  0.00000000E+00
  0.00000000E+00  0.00000000E+00  0.00000000E+00
  0.00000000E+00  0.00000000E+00  0.00000000E+00
  0.00000000E+00  0.00000000E+00  0.00000000E+00
  0.00000000E+00  0.00000000E+00  0.00000000E+00
  0.00000000E+00  0.00000000E+00  0.00000000E+00
  0.00000000E+00  0.00000000E+00  0.00000000E+00
  0.00000000E+00  0.00000000E+00  0.00000000E+00
  0.00000000E+00  0.00000000E+00  0.00000000E+00
  0.00000000E+00  0.00000000E+00  0.00000000E+00
  0.00000000E+00  0.00000000E+00  0.00000000E+00
  0.00000000E+00  0.00000000E+00  0.00000000E+00
  0.00000000E+00  0.00000000E+00  0.00000000E+00
  0.00000000E+00  0.00000000E+00  0.00000000E+00
  0.00000000E+00  0.00000000E+00  0.00000000E+00
  0.00000000E+00  0.00000000E+00  0.00000000E+00
  0.00000000E+00  0.00000000E+00  0.00000000E+00
  0.00000000E+00  0.00000000E+00  0.00000000E+00
  0.00000000E+00  0.00000000E+00  0.00000000E+00
  0.00000000E+00  0.00000000E+00  0.00000000E+00
  0.00000000E+00  0.00000000E+00  0.00000000E+00
  0.00000000E+00  0.00000000E+00  0.00000000E+00
  0.00000000E+00  0.00000000E+00  0.00000000E+00
  0.00000000E+00  0.00000000E+00  0.00000000E+00
  0.00000000E+00  0.00000000E+00  0.00000000E+00
  0.00000000E+00  0.00000000E+00  0.00000000E+00
  0.00000000E+00  0.00000000E+00  0.00000000E+00
  0.00000000E+00  0.00000000E+00  0.00000000E+00
  0.00000000E+00  0.00000000E+00  0.00000000E+00
  0.00000000E+00  0.00000000E+00  0.00000000E+00
  0.00000000E+00  0.00000000E+00  0.00000000E+00
  0.00000000E+00  0.00000000E+00  0.00000000E+00
  0.00000000E+00  0.00000000E+00  0.00000000E+00
  0.00000000E+00  0.00000000E+00  0.00000000E+00
  0.00000000E+00  0.00000000E+00  0.00000000E+00
  0.00000000E+00  0.00000000E+00  0.00000000E+00
  0.00000000E+00  0.00000000E+00  0.00000000E+00
  0.00000000E+00  0.00000000E+00  0.00000000E+00
  0.00000000E+00  0.00000000E+00  0.00000000E+00
  0.00000000E+00  0.00000000E+00  0.00000000E+00
  0.00000000E+00  0.00000000E+00  0.00000000E+00
  0.00000000E+00  0.00000000E+00  0.00000000E+00
  0.00000000E+00  0.00000000E+00  0.00000000E+00
  0.00000000E+00  0.00000000E+00  0.00000000E+00
  0.00000000E+00  0.00000000E+00  0.00000000E+00
  0.00000000E+00  0.00000000E+00  0.00000000E+00
  0.00000000E+00  0.00000000E+00  0.00000000E+00
  0.00000000E+00  0.00000000E+00  0.00000000E+00
  0.00000000E+00  0.00000000E+00  0.00000000E+00
  0.00000000E+00  0.00000000E+00  0.00000000E+00
  0.00000000E+00  0.00000000E+00  0.00000000E+00
  0.00000000E+00  0.00000000E+00  0.00000000E+00
  0.00000000E+00  0.00000000E+00  0.00000000E+00
  0.00000000E+00  0.00000000E+00  0.00000000E+00
  0.00000000E+00  0.00000000E+00  0.00000000E+00
  0.00000000E+00  0.00000000E+00  0.00000000E+00
  0.00000000E+00  0.00000000E+00  0.00000000E+00
  0.00000000E+00  0.00000000E+00  0.00000000E+00
  0.00000000E+00  0.00000000E+00  0.00000000E+00
  0.00000000E+00  0.00000000E+00  0.00000000E+00
  0.00000000E+00  0.00000000E+00  0.00000000E+00
  0.00000000E+00  0.00000000E+00  0.00000000E+00
  0.00000000E+00  0.00000000E+00  0.00000000E+00
  0.00000000E+00  0.00000000E+00  0.00000000E+00
  0.00000000E+00  0.00000000E+00  0.00000000E+00
