Sr   Ti   Fe   O                        
   1.00000000000000     
    11.1989999999999998    0.0000000000000000    0.0000000000000000
     0.0000000000000000   11.1989999999999998    0.0000000000000000
     0.0000000000000000    0.0000000000000000   15.9830000000000005
   Sr   Ti   Fe   O 
    32    31     1    94
Direct
  0.0013732411547206  0.2494782452898922  0.1243771137649596
  0.0025870422705996  0.2494439011239946  0.6243519570955157
  0.9987611294765173  0.7504836331106793  0.1253687640197888
  0.0046659080319889  0.7482779558555034  0.6254089291762067
  0.4984129097471062  0.2499476199484316  0.1234701752596918
  0.4931369492104211  0.2497275402194885  0.6291026695142743
  0.4987659928289215  0.7478820363008459  0.1242965971338778
  0.4973799426150289  0.7484085631827735  0.6276498159467175
  0.0087416445315355  0.2491631302501247  0.3764654175731209
  0.9989613747142565  0.2493947583232297  0.8748227657396553
  0.0066151241705552  0.7491977323481462  0.3741292600592988
  0.9987547892102862  0.7500356916911358  0.8742681281215353
  0.4877365328638356  0.2498546285377852  0.3721269913857983
  0.4998039040681508  0.2510563114474019  0.8755363610832737
  0.4963837816373474  0.7480414443259180  0.3716977353838706
  0.4979102541368673  0.7484794615831398  0.8760578527707298
  0.2494743954685791  0.9991807994171439  0.1250715633550321
  0.2483197128134274  0.9991820237642363  0.6252506731605150
  0.2506286701800086  0.4993458333416410  0.1246886398328050
  0.2544675369265873  0.4991169733637841  0.6248751061311054
  0.7498634441219251  0.9979516105582311  0.1242203858921687
  0.7491185189600663  0.0046623614042382  0.6253759527548274
  0.7480338118324841  0.5015849919527884  0.1236382351249051
  0.7525539040871697  0.4979814542308956  0.6330814266088410
  0.2494968143406024  0.9981138579019545  0.3749500416753714
  0.2488819726494808  0.9990618727178063  0.8751262923055336
  0.2540652562177591  0.5000582761171493  0.3756992717728893
  0.2502441316193564  0.4988173223128778  0.8758064936155678
  0.7483951557998100  0.9960982392058555  0.3744155043428756
  0.7493776568392182 -0.0001505052736905  0.8741973903965699
  0.7580270777659744  0.5037122605575931  0.3690437648380363
  0.7485526269423877  0.5010065557359676  0.8761294824707438
  0.9986556478493017  0.9996260515423115  0.9999563819373277
  0.0043558548218470  0.0020344736472578  0.4996550692426617
  0.9994190201467983  0.4992182188245280  0.0001240689912512
  0.0033969230166163  0.5001097207751233  0.4992258989841954
  0.4998775692890319 -0.0002013718006543  0.9998844405406756
  0.4976611988724386  0.9993715673410160  0.4992455378790060
  0.4993142340107311  0.4993200631155234  0.0001984391191635
  0.2490132674349739  0.2489433177786754  0.9997805366329880
  0.2535778347431857  0.2517024569281922  0.5007563778859733
  0.2488849691286213  0.7499872612733998  0.0001943601071047
  0.2528146396285197  0.7491329231174370  0.5004394731133200
  0.7502622091949525  0.2493917675538238  0.9973603209022337
  0.7496931914581667  0.7506472569256233  0.9997777873914865
  0.2494985297885473  0.2492207205946292  0.2487895264604875
  0.2489589246538191  0.2492229247061266  0.7508612208629216
  0.2498060820754257  0.7493469489605755  0.2480276078785825
  0.2492864511126336  0.7493158517150802  0.7505491509639866
  0.7500251451036462  0.2494650505982052  0.2454679776654038
  0.7483442923769991  0.2505395071826151  0.7495072178228298
  0.7495285164828785  0.7487017024727389  0.2492108768969535
  0.7488273111943543  0.7491466052101863  0.7503822190989303
  0.9996380251317497  0.9994198554923082  0.2511626800798901
  0.9986978884291119  0.9998209185856277  0.7492462314729269
  0.0017547315795758  0.4998611583103111  0.2499141032788753
  0.0004152127789153  0.4991138873427491  0.7504790244491056
  0.5000264297944187  0.9988331232171674  0.2502467052634494
  0.4999381831923398  0.9994541532639860  0.7500511055818172
  0.4995856619685190  0.4989883747005703  0.2508152143271363
  0.4988454511954302  0.4997373129304782  0.7505380178044390
  0.7546775627411985  0.2561891993722918  0.4995433810247984
  0.7584403482401334  0.7551531098168717  0.5007243427765520
  0.4969625822111794  0.5031503687058336  0.5001532806583824
  0.1092201250318459  0.1386664729983713  0.2494483075638763
  0.1074854101174048  0.1397189725236669  0.7509953728000143
  0.1104085566465509  0.6399761766641169  0.2458729696924693
  0.1091391309943903  0.6393688477521340  0.7505351803208767
  0.6123842071938617  0.1397395187610203  0.2590492034746441
  0.6084400854632356  0.1401869284305838  0.7517727967301350
  0.6117844678773284  0.6386474575475326  0.2460105988725925
  0.6101377985616033  0.6404140800113345  0.7550371888985262
  0.3879773024445914  0.3576527271979728  0.2450776410214265
  0.3878970136745293  0.3570154349266333  0.7540835639103013
  0.3897659088878766  0.8601826393448790  0.2469318088487714
  0.3902756557919079  0.8600889227254954  0.7486989985249667
  0.8882271629179348  0.3592638975170707  0.2586452069298608
  0.8898402014062937  0.3593257681667202  0.7489498186231550
  0.8872580726569006  0.8597383201950752  0.2547588095034418
  0.8877923853833536  0.8589209784457994  0.7444622849352887
  0.3612936323884816  0.1098329602204743  0.2512499319837753
  0.3595009109945846  0.1083494102814433  0.7487331286483431
  0.3589750939716719  0.6114804516076175  0.2450681944331203
  0.3576525704267490  0.6108857818932313  0.7544671448965291
  0.8586962917946456  0.1115664323595254  0.2591053384596333
  0.8576375909379945  0.1092290017449397  0.7474183944697419
  0.8624582056454606  0.6117922494410780  0.2465989507029622
  0.8615429815297631  0.6114107255638146  0.7531080128845808
  0.1397420673749926  0.3888555607238922  0.2493099957249804
  0.1399700517727833  0.3898253117003131  0.7496665057664481
  0.1387049325232943  0.8896153556311152  0.2472098779320774
  0.1384395493526731  0.8898385703969596  0.7509822260694279
  0.6409900036235444  0.3859597308888492  0.2536107084684142
  0.6392684001777874  0.3893861725164367  0.7567611404680605
  0.6400183591275511  0.8886524976776087  0.2511494231561143
  0.6408344300943618  0.8899938033462589  0.7475025710914842
  0.3581906412334039  0.3883665421308038  0.0009002435763636
  0.3594859935209344  0.8909516507718821  0.0010648459563028
  0.3572921281314936  0.8936828815997107  0.5023949482660940
  0.8581838558704146  0.3905231140667389  0.0000861232167532
  0.8578253828936542  0.8912325300167909  0.0002111464292147
  0.8563541046569129  0.8882848990739008  0.5015339934339553
  0.1393270440758921  0.1072250874806987  0.0002875136594745
  0.1385833960153008  0.1097603146149715  0.4993929507417352
  0.1393902614615895  0.6085986941650103  0.0005495287038422
  0.1433744579811212  0.6089690657226087  0.5013182056235226
  0.6409161417496057  0.1089021720513025  0.9992213759259301
  0.6302725630057939  0.1283730264068585  0.4886427249397134
  0.6406585222594733  0.6105572638714664  0.9999898713079248
  0.1087090266247986  0.3580593127865842  0.9999319875357413
  0.1176764806534030  0.3628195313533335  0.5007679572603880
  0.1073081689030656  0.8595382320352191  0.0006525480608793
  0.1076218437976759  0.8579756892365569  0.5012431288838668
  0.6103564608291375  0.3580210381941420  0.9997544770035254
  0.6086336435933157  0.8591929415403280  0.0007710936804726
  0.6082952565367434  0.8526373398699995  0.4999194692808668
  0.3905798777300768  0.1397387345492496  0.9997997800338571
  0.3866575541013289  0.1345346767157365  0.5000855290977343
  0.3888953414792981  0.6402433193350695  0.0011606143523374
  0.8912097090398355  0.1411738109856297  0.0001776621756642
  0.8876061090511482  0.1315857267199085  0.4952735023431230
  0.8900470118285702  0.6403287664532417  0.0002306241156387
  0.9926782780393177  0.0006826158723010  0.1263776862510538
  0.0007313757779352  0.0007861188119820  0.6246677937805553
  0.9975768229577637  0.4941844668060609  0.1251566110679041
  0.9972251324695913  0.4981113830219117  0.6242845442350005
  0.5040189924419655  0.0040771593945859  0.1259747549252574
  0.5069644006666856  0.0036567570279013  0.6236009568254441
  0.5024923088142125  0.4967672027883298  0.1233264729955017
  0.4944520681141005  0.4992134985717708  0.6336176029110597
  0.0049249237018312  0.9936974519575822  0.3750236658675225
  0.9952791123363953  0.9979303802179380  0.8745005373273166
  0.0084264710869359  0.5077925727619931  0.3735287527650776
 -0.0000014653314287  0.4976803811290078  0.8752765446669666
  0.4963330720275880  0.9923328136317549  0.3750864551083917
  0.4999613246300436  0.9977692963469352  0.8747531179337793
  0.4971669140924977  0.4996626667589727  0.8781974066474952
  0.2499265814152242  0.2488783170817511  0.3739313333242470
  0.2474944305325972  0.2465543873266426  0.8756168723609932
  0.2485038949958518  0.7516423549433691  0.3733617647314047
  0.2484672174821741  0.7526461845973531  0.8759642984637410
  0.7531502799176768  0.2473896374343412  0.8752315588304856
  0.7513176831903411  0.7537477263283422  0.8749331824137904
  0.2474622119499239  0.2455549497181937  0.1243286531603336
  0.2484516329016219  0.2469559986170614  0.6263911520562141
  0.2483523933372801  0.7520221598499002  0.1235430783847497
  0.2484308512034231  0.7497113305778471  0.6266443417152310
  0.7516584378488200  0.2468695485810775  0.1251569881527268
  0.7400508018453807  0.2562781943652793  0.6261659770878780
  0.7514378550293802  0.7528642955638767  0.1250141706650703
  0.7399373746865558  0.7349592059934351  0.6219773041713246
  0.8784287013975464  0.3785054151798629  0.4866575798886131
  0.3913848066057694  0.6503133321144422  0.5000514949671709
  0.4901209752071690  0.5009115159836852  0.3674209179759638
  0.3674511366806695  0.3770781298389645  0.5012577304735589
  0.8912628771274140  0.6396496808203576  0.4992228885156451
  0.7412711108352457  0.7381577491201541  0.3780981573674587
  0.6640751769803990  0.4876621145314952  0.5000551751731402
 
  0.00000000E+00  0.00000000E+00  0.00000000E+00
  0.00000000E+00  0.00000000E+00  0.00000000E+00
  0.00000000E+00  0.00000000E+00  0.00000000E+00
  0.00000000E+00  0.00000000E+00  0.00000000E+00
  0.00000000E+00  0.00000000E+00  0.00000000E+00
  0.00000000E+00  0.00000000E+00  0.00000000E+00
  0.00000000E+00  0.00000000E+00  0.00000000E+00
  0.00000000E+00  0.00000000E+00  0.00000000E+00
  0.00000000E+00  0.00000000E+00  0.00000000E+00
  0.00000000E+00  0.00000000E+00  0.00000000E+00
  0.00000000E+00  0.00000000E+00  0.00000000E+00
  0.00000000E+00  0.00000000E+00  0.00000000E+00
  0.00000000E+00  0.00000000E+00  0.00000000E+00
  0.00000000E+00  0.00000000E+00  0.00000000E+00
  0.00000000E+00  0.00000000E+00  0.00000000E+00
  0.00000000E+00  0.00000000E+00  0.00000000E+00
  0.00000000E+00  0.00000000E+00  0.00000000E+00
  0.00000000E+00  0.00000000E+00  0.00000000E+00
  0.00000000E+00  0.00000000E+00  0.00000000E+00
  0.00000000E+00  0.00000000E+00  0.00000000E+00
  0.00000000E+00  0.00000000E+00  0.00000000E+00
  0.00000000E+00  0.00000000E+00  0.00000000E+00
  0.00000000E+00  0.00000000E+00  0.00000000E+00
  0.00000000E+00  0.00000000E+00  0.00000000E+00
  0.00000000E+00  0.00000000E+00  0.00000000E+00
  0.00000000E+00  0.00000000E+00  0.00000000E+00
  0.00000000E+00  0.00000000E+00  0.00000000E+00
  0.00000000E+00  0.00000000E+00  0.00000000E+00
  0.00000000E+00  0.00000000E+00  0.00000000E+00
  0.00000000E+00  0.00000000E+00  0.00000000E+00
  0.00000000E+00  0.00000000E+00  0.00000000E+00
  0.00000000E+00  0.00000000E+00  0.00000000E+00
  0.00000000E+00  0.00000000E+00  0.00000000E+00
  0.00000000E+00  0.00000000E+00  0.00000000E+00
  0.00000000E+00  0.00000000E+00  0.00000000E+00
  0.00000000E+00  0.00000000E+00  0.00000000E+00
  0.00000000E+00  0.00000000E+00  0.00000000E+00
  0.00000000E+00  0.00000000E+00  0.00000000E+00
  0.00000000E+00  0.00000000E+00  0.00000000E+00
  0.00000000E+00  0.00000000E+00  0.00000000E+00
  0.00000000E+00  0.00000000E+00  0.00000000E+00
  0.00000000E+00  0.00000000E+00  0.00000000E+00
  0.00000000E+00  0.00000000E+00  0.00000000E+00
  0.00000000E+00  0.00000000E+00  0.00000000E+00
  0.00000000E+00  0.00000000E+00  0.00000000E+00
  0.00000000E+00  0.00000000E+00  0.00000000E+00
  0.00000000E+00  0.00000000E+00  0.00000000E+00
  0.00000000E+00  0.00000000E+00  0.00000000E+00
  0.00000000E+00  0.00000000E+00  0.00000000E+00
  0.00000000E+00  0.00000000E+00  0.00000000E+00
  0.00000000E+00  0.00000000E+00  0.00000000E+00
  0.00000000E+00  0.00000000E+00  0.00000000E+00
  0.00000000E+00  0.00000000E+00  0.00000000E+00
  0.00000000E+00  0.00000000E+00  0.00000000E+00
  0.00000000E+00  0.00000000E+00  0.00000000E+00
  0.00000000E+00  0.00000000E+00  0.00000000E+00
  0.00000000E+00  0.00000000E+00  0.00000000E+00
  0.00000000E+00  0.00000000E+00  0.00000000E+00
  0.00000000E+00  0.00000000E+00  0.00000000E+00
  0.00000000E+00  0.00000000E+00  0.00000000E+00
  0.00000000E+00  0.00000000E+00  0.00000000E+00
  0.00000000E+00  0.00000000E+00  0.00000000E+00
  0.00000000E+00  0.00000000E+00  0.00000000E+00
  0.00000000E+00  0.00000000E+00  0.00000000E+00
  0.00000000E+00  0.00000000E+00  0.00000000E+00
  0.00000000E+00  0.00000000E+00  0.00000000E+00
  0.00000000E+00  0.00000000E+00  0.00000000E+00
  0.00000000E+00  0.00000000E+00  0.00000000E+00
  0.00000000E+00  0.00000000E+00  0.00000000E+00
  0.00000000E+00  0.00000000E+00  0.00000000E+00
  0.00000000E+00  0.00000000E+00  0.00000000E+00
  0.00000000E+00  0.00000000E+00  0.00000000E+00
  0.00000000E+00  0.00000000E+00  0.00000000E+00
  0.00000000E+00  0.00000000E+00  0.00000000E+00
  0.00000000E+00  0.00000000E+00  0.00000000E+00
  0.00000000E+00  0.00000000E+00  0.00000000E+00
  0.00000000E+00  0.00000000E+00  0.00000000E+00
  0.00000000E+00  0.00000000E+00  0.00000000E+00
  0.00000000E+00  0.00000000E+00  0.00000000E+00
  0.00000000E+00  0.00000000E+00  0.00000000E+00
  0.00000000E+00  0.00000000E+00  0.00000000E+00
  0.00000000E+00  0.00000000E+00  0.00000000E+00
  0.00000000E+00  0.00000000E+00  0.00000000E+00
  0.00000000E+00  0.00000000E+00  0.00000000E+00
  0.00000000E+00  0.00000000E+00  0.00000000E+00
  0.00000000E+00  0.00000000E+00  0.00000000E+00
  0.00000000E+00  0.00000000E+00  0.00000000E+00
  0.00000000E+00  0.00000000E+00  0.00000000E+00
  0.00000000E+00  0.00000000E+00  0.00000000E+00
  0.00000000E+00  0.00000000E+00  0.00000000E+00
  0.00000000E+00  0.00000000E+00  0.00000000E+00
  0.00000000E+00  0.00000000E+00  0.00000000E+00
  0.00000000E+00  0.00000000E+00  0.00000000E+00
  0.00000000E+00  0.00000000E+00  0.00000000E+00
  0.00000000E+00  0.00000000E+00  0.00000000E+00
  0.00000000E+00  0.00000000E+00  0.00000000E+00
  0.00000000E+00  0.00000000E+00  0.00000000E+00
  0.00000000E+00  0.00000000E+00  0.00000000E+00
  0.00000000E+00  0.00000000E+00  0.00000000E+00
  0.00000000E+00  0.00000000E+00  0.00000000E+00
  0.00000000E+00  0.00000000E+00  0.00000000E+00
  0.00000000E+00  0.00000000E+00  0.00000000E+00
  0.00000000E+00  0.00000000E+00  0.00000000E+00
  0.00000000E+00  0.00000000E+00  0.00000000E+00
  0.00000000E+00  0.00000000E+00  0.00000000E+00
  0.00000000E+00  0.00000000E+00  0.00000000E+00
  0.00000000E+00  0.00000000E+00  0.00000000E+00
  0.00000000E+00  0.00000000E+00  0.00000000E+00
  0.00000000E+00  0.00000000E+00  0.00000000E+00
  0.00000000E+00  0.00000000E+00  0.00000000E+00
  0.00000000E+00  0.00000000E+00  0.00000000E+00
  0.00000000E+00  0.00000000E+00  0.00000000E+00
  0.00000000E+00  0.00000000E+00  0.00000000E+00
  0.00000000E+00  0.00000000E+00  0.00000000E+00
  0.00000000E+00  0.00000000E+00  0.00000000E+00
  0.00000000E+00  0.00000000E+00  0.00000000E+00
  0.00000000E+00  0.00000000E+00  0.00000000E+00
  0.00000000E+00  0.00000000E+00  0.00000000E+00
  0.00000000E+00  0.00000000E+00  0.00000000E+00
  0.00000000E+00  0.00000000E+00  0.00000000E+00
  0.00000000E+00  0.00000000E+00  0.00000000E+00
  0.00000000E+00  0.00000000E+00  0.00000000E+00
  0.00000000E+00  0.00000000E+00  0.00000000E+00
  0.00000000E+00  0.00000000E+00  0.00000000E+00
  0.00000000E+00  0.00000000E+00  0.00000000E+00
  0.00000000E+00  0.00000000E+00  0.00000000E+00
  0.00000000E+00  0.00000000E+00  0.00000000E+00
  0.00000000E+00  0.00000000E+00  0.00000000E+00
  0.00000000E+00  0.00000000E+00  0.00000000E+00
  0.00000000E+00  0.00000000E+00  0.00000000E+00
  0.00000000E+00  0.00000000E+00  0.00000000E+00
  0.00000000E+00  0.00000000E+00  0.00000000E+00
  0.00000000E+00  0.00000000E+00  0.00000000E+00
  0.00000000E+00  0.00000000E+00  0.00000000E+00
  0.00000000E+00  0.00000000E+00  0.00000000E+00
  0.00000000E+00  0.00000000E+00  0.00000000E+00
  0.00000000E+00  0.00000000E+00  0.00000000E+00
  0.00000000E+00  0.00000000E+00  0.00000000E+00
  0.00000000E+00  0.00000000E+00  0.00000000E+00
  0.00000000E+00  0.00000000E+00  0.00000000E+00
  0.00000000E+00  0.00000000E+00  0.00000000E+00
  0.00000000E+00  0.00000000E+00  0.00000000E+00
  0.00000000E+00  0.00000000E+00  0.00000000E+00
  0.00000000E+00  0.00000000E+00  0.00000000E+00
  0.00000000E+00  0.00000000E+00  0.00000000E+00
  0.00000000E+00  0.00000000E+00  0.00000000E+00
  0.00000000E+00  0.00000000E+00  0.00000000E+00
  0.00000000E+00  0.00000000E+00  0.00000000E+00
  0.00000000E+00  0.00000000E+00  0.00000000E+00
  0.00000000E+00  0.00000000E+00  0.00000000E+00
  0.00000000E+00  0.00000000E+00  0.00000000E+00
  0.00000000E+00  0.00000000E+00  0.00000000E+00
  0.00000000E+00  0.00000000E+00  0.00000000E+00
  0.00000000E+00  0.00000000E+00  0.00000000E+00
  0.00000000E+00  0.00000000E+00  0.00000000E+00
  0.00000000E+00  0.00000000E+00  0.00000000E+00
  0.00000000E+00  0.00000000E+00  0.00000000E+00
  0.00000000E+00  0.00000000E+00  0.00000000E+00
