SrTiFeO                                 
   1.00000000000000     
    11.1989999999999998    0.0000000000000000    0.0000000000000000
     0.0000000000000000   11.1989999999999998    0.0000000000000000
     0.0000000000000000    0.0000000000000000   15.9830000000000005
   Sr   Ti   Fe   O 
    32    31     1    94
Direct
  0.0005666315552997  0.2495962375598793  0.1248457898609916
  0.0011131678550362  0.2483522829310213  0.6247152589343035
  0.9984025178022623  0.7506993228235123  0.1253882749094260
  0.0053083142581677  0.7486864069657744  0.6245645498127885
  0.4997724836049590  0.2525444518672530  0.1257142409196693
  0.5008622958824037  0.2491692304095069  0.6223187410510383
  0.4993062040230125  0.7495109298058117  0.1233048397390068
  0.4929815865930393  0.7552463767856852  0.6243362987050104
  0.0012698557375627  0.2497529991445404  0.3751487856645466
  1.0000121481484543  0.2485110844399266  0.8760225310188225
  0.0043200812549584  0.7476427618979306  0.3743421822104294
  0.9983316944071419  0.7505713537510417  0.8752577723213462
  0.5020993968588490  0.2539700719746065  0.3767486718685299
  0.4993411472694373  0.2493327108365247  0.8752302277481504
  0.4977372927993780  0.7507792913764163  0.3696300527959822
  0.4961776284510295  0.7530829382393264  0.8783621807841927
  0.2497536899068297  0.0003340487594440  0.1250853125493308
  0.2493275529809645  0.0012738566719300  0.6257399400395863
  0.2521034160587141  0.4998636157133231  0.1246622381227965
  0.2486336665578625  0.5013032156865463  0.6245073262452989
  0.7496239979898399  0.9985953469310251  0.1242611195781988
  0.7489514222013365  0.0070572923438297  0.6274009216896588
  0.7499925565034401  0.5008037633980212  0.1255204212159161
  0.7551825090417313  0.4914645185889940  0.6255259556650287
  0.2503472533531779  0.0010844141984201  0.3740794324367909
  0.2484391488252317  0.0008421966381999  0.8751585709805842
  0.2535467727473896  0.4995090509701121  0.3761651221551549
  0.2499082204309857  0.5013916790992203  0.8750709007601989
  0.7502442781265348  0.0055514663763761  0.3728936346545144
  0.7485095623444878  0.9979137124402425  0.8751418297747416
  0.7545119658143666  0.4940294383398275  0.3704389384891844
  0.7505257773398744  0.4984950269096031  0.8794692269866343
  0.9991226727381364  0.9994079269878321  0.9998732986814129
  0.0055272279506590  0.0038642285358036  0.5001355990391967
  0.0003185592536118  0.4998454237459170  0.0003472230633076
  0.0005096497280306  0.4986297623282185  0.4995871280412798
  0.4998982891934289  0.0007491502390912  0.0004008251026833
  0.4986314877115629  1.0000268294874242  0.4992859173799569
  0.5002683766957274  0.5005280763326188  0.0000824513755153
  0.2502980168571468  0.2506981205840692  0.9997769851465468
  0.2517688615325625  0.2523434380039491  0.5003517886106067
  0.2489293419067625  0.7501200745538094  0.0002160821661793
  0.2524360683821980  0.7500516157135980  0.4992530414266135
  0.7500378266792708  0.2494869567105737  0.0002449975250004
  0.7498429318478995  0.2510760807483847  0.4997469535141664
  0.7497016982457506  0.7498090714828315  0.9990742959674400
  0.2508554480239006  0.2506740080765774  0.2505241917968351
  0.2474393595753504  0.2486490906557867  0.7497677974849238
  0.2498862553379881  0.7501409105098540  0.2493076799711969
  0.2494570396202169  0.7508622877756163  0.7504642529171371
  0.7503813200128203  0.2495453930102610  0.2489028015279611
  0.7511721673434048  0.2500787975126236  0.7511256787157378
  0.7491841886968124  0.7492580756214957  0.2494122990401459
  0.7502668320029221  0.7475756306316299  0.7474905282362666
  0.9998421652961736  0.9995298892888282  0.2502842716210526
  0.9986936818671696  0.9981032907738031  0.7499325508720092
  0.0015473219097038  0.4999299754352625  0.2496163637531693
  0.9996919655592725  0.4989400134601572  0.7504504448365098
  0.4998890330146279  0.0011792062196651  0.2499023450852983
  0.4986605118715703  0.0002570656482381  0.7500279008782608
  0.5013981597811233  0.5009173046407827  0.2516503780078564
  0.4990699892789226  0.4961525572989244  0.7480049801140810
  0.7557012528719569  0.7613524957224611  0.4998339587333843
  0.4961200354070769  0.4994394503016764  0.5011911737965105
  0.1093217073997814  0.1404743887799307  0.2487938127342720
  0.1084928587258075  0.1412637497226393  0.7525065551611996
  0.1091646007515424  0.6411935245703446  0.2489318750021391
  0.1087556794288049  0.6406360707301160  0.7506418459285249
  0.6091019573786280  0.1409886498321916  0.2506606469948934
  0.6103175887911649  0.1393372569333706  0.7494327103265935
  0.6101723624338453  0.6413837931282962  0.2411492015031388
  0.3910682028904105  0.3596840519447701  0.2543822776870979
  0.3922313553555528  0.3585783582757276  0.7470256057726207
  0.3895855012399329  0.8607341954944967  0.2488996279079607
  0.3870317402120578  0.8622671263570284  0.7504352977148460
  0.8907758743199696  0.3594424585033982  0.2513232236038549
  0.8942886026682236  0.3557265551837513  0.7489602281427985
  0.8890185205596306  0.8584862330951966  0.2571113146394465
  0.8932447026230990  0.8597476445727604  0.7451746848403582
  0.3590881678127573  0.1097700016738094  0.2492741473628626
  0.3597487820867578  0.1098915071433088  0.7509206327918352
  0.3591672390992375  0.6107622947544646  0.2506425470425382
  0.3657983240830993  0.6145623943973610  0.7502468073394067
  0.8590048920424660  0.1089033796245368  0.2489015822473604
  0.8579989854444585  0.1074482039112978  0.7513978750092717
  0.8600755828346438  0.6091596275418194  0.2502639439857574
  0.8543129385233545  0.6024808995427866  0.7498838103687467
  0.1415774641016792  0.3913355480815771  0.2503604708593350
  0.1431392995580923  0.3927331137191098  0.7496269240470426
  0.1395858364274831  0.8905741592220778  0.2496593990547950
  0.1406672720940753  0.8908824341742810  0.7502503550525602
  0.6421586426260717  0.3897883069955742  0.2474239951330200
  0.6403386972738223  0.8907557960830041  0.2527143567828536
  0.6327071197119042  0.8815421731896569  0.7475610924648876
  0.3596909530135383  0.3909045450015001  0.9958132787884140
  0.3595315450533544  0.8907355076490424  0.9991566989669942
  0.3556690651890621  0.8945154762210842  0.5010057471808879
  0.8599532819785090  0.3899099151930073  0.0004922341624493
  0.8633870555771689  0.3871672963972182  0.4990804829238242
  0.8593807470063528  0.8910554311028716  0.9985791626468947
  0.8559210866877192  0.8921852820983981  0.5028183825021380
  0.1406015245467055  0.1097023761779131  0.0013551732773879
  0.1418739657540233  0.1075526292757021  0.4989007155670729
  0.1407478801737802  0.6088690288884756  0.0000819467207429
  0.1382645087272589  0.6105265379308409  0.4997689697301250
  0.6410291631569540  0.1091039110671485  0.9996189124918622
  0.6404503497423536  0.1084821929201519  0.5000383873435207
  0.6404902604826654  0.6098625856445471  0.0068456304161722
  0.1096209521451289  0.3592455284794501  0.0000577188079689
  0.1078316428076244  0.3585263687955799  0.5003309160773692
  0.1090480724376534  0.8589740352752211  0.0002427788996228
  0.1056973475127391  0.8581766848813198  0.4999638447466770
  0.6099745589294981  0.3591551814706419  0.9989134549808242
  0.6089480003857601  0.8599636622856848  0.0011138602006414
  0.6037346274933064  0.8521783995217047  0.4978092823695852
  0.3910741363541546  0.1408795509384845  0.0000717415014358
  0.3922061371181138  0.1414800038399591  0.4997948727239109
  0.3898606836774987  0.6412551377001912  0.0000081062213628
  0.3924632441578378  0.6480652633425384  0.4986014895371141
  0.8909825720196246  0.1403866032150790  0.0005376740738705
  0.8907651727242321  0.1392182095406822  0.4998677792008379
  0.8910731170297757  0.6398460122536637  0.0005820848029368
  0.9974157307583670  0.9965074458804442  0.1257836386311922
  0.0022978684731904  0.0034025617943237  0.6244785235197541
  0.0002123000712765  0.4985644211969789  0.1251765202136831
  0.0009242300328458  0.5013337396282711  0.6248769524788594
  0.5007383536554736  0.0005250582360499  0.1251543195526527
  0.5000002820517356  0.0010948079973743  0.6244374052635384
  0.4939695514631577  0.4948537924891191  0.1240364871102213
  0.9994037409128590  0.0011583087651992  0.3754321349936748
  0.0001852206195391  0.9987513194795068  0.8756080794738097
  0.0016444058884681  0.5007571902658368  0.3748129701127847
 -0.0000006094367978  0.4991597821729096  0.8750126716936371
  0.4982723439785992  0.0010288439298925  0.3749810752705870
  0.5016429713539039  0.0000154298184097  0.8749066544299190
  0.5076365700666317  0.5091841370873958  0.8747402931222228
  0.2485227727006451  0.2492544792947761  0.3750975752642015
  0.2506014185932534  0.2501328866011416  0.8748851414857580
  0.2475987079417817  0.7520158481532595  0.3743868500606665
  0.2490301818473283  0.7496546713932050  0.8751996894976881
  0.7495803415607197  0.2482042646275310  0.3744448625087402
  0.7513334441726286  0.2490589827871699  0.8752974549541033
  0.7355875590593070  0.7335044738808133  0.3785851827315422
  0.7458833282365188  0.7462018205661303  0.8777058892439313
  0.2528505304565314  0.2533615001502771  0.1250849167990034
  0.2458561601300835  0.2444062725362158  0.6260052672973804
  0.2499564166356328  0.7507143011944977  0.1246500284950141
  0.2475457365996945  0.7496269369947407  0.6252371318936265
  0.7505802890687652  0.2491037696315411  0.1246262817907151
  0.7509766182925426  0.2474713362091498  0.6258016788232443
  0.7561649656667772  0.7562351706494674  0.1265215816884664
  0.6456184484330058  0.3938422552307554  0.7523012651951139
  0.5128113612358526  0.5089349606200380  0.3712499004892136
  0.6192148746049200  0.3662354845584111  0.5017725585298723
  0.3531071431333869  0.3872016328950701  0.5049242228713086
  0.7287665266000726  0.7272844173702365  0.6170399029938789
  0.8792034229479002  0.6342001726554204  0.4988511626879901
  0.5229026688951592  0.5223769770600497  0.6315680803512609
 
  0.00000000E+00  0.00000000E+00  0.00000000E+00
  0.00000000E+00  0.00000000E+00  0.00000000E+00
  0.00000000E+00  0.00000000E+00  0.00000000E+00
  0.00000000E+00  0.00000000E+00  0.00000000E+00
  0.00000000E+00  0.00000000E+00  0.00000000E+00
  0.00000000E+00  0.00000000E+00  0.00000000E+00
  0.00000000E+00  0.00000000E+00  0.00000000E+00
  0.00000000E+00  0.00000000E+00  0.00000000E+00
  0.00000000E+00  0.00000000E+00  0.00000000E+00
  0.00000000E+00  0.00000000E+00  0.00000000E+00
  0.00000000E+00  0.00000000E+00  0.00000000E+00
  0.00000000E+00  0.00000000E+00  0.00000000E+00
  0.00000000E+00  0.00000000E+00  0.00000000E+00
  0.00000000E+00  0.00000000E+00  0.00000000E+00
  0.00000000E+00  0.00000000E+00  0.00000000E+00
  0.00000000E+00  0.00000000E+00  0.00000000E+00
  0.00000000E+00  0.00000000E+00  0.00000000E+00
  0.00000000E+00  0.00000000E+00  0.00000000E+00
  0.00000000E+00  0.00000000E+00  0.00000000E+00
  0.00000000E+00  0.00000000E+00  0.00000000E+00
  0.00000000E+00  0.00000000E+00  0.00000000E+00
  0.00000000E+00  0.00000000E+00  0.00000000E+00
  0.00000000E+00  0.00000000E+00  0.00000000E+00
  0.00000000E+00  0.00000000E+00  0.00000000E+00
  0.00000000E+00  0.00000000E+00  0.00000000E+00
  0.00000000E+00  0.00000000E+00  0.00000000E+00
  0.00000000E+00  0.00000000E+00  0.00000000E+00
  0.00000000E+00  0.00000000E+00  0.00000000E+00
  0.00000000E+00  0.00000000E+00  0.00000000E+00
  0.00000000E+00  0.00000000E+00  0.00000000E+00
  0.00000000E+00  0.00000000E+00  0.00000000E+00
  0.00000000E+00  0.00000000E+00  0.00000000E+00
  0.00000000E+00  0.00000000E+00  0.00000000E+00
  0.00000000E+00  0.00000000E+00  0.00000000E+00
  0.00000000E+00  0.00000000E+00  0.00000000E+00
  0.00000000E+00  0.00000000E+00  0.00000000E+00
  0.00000000E+00  0.00000000E+00  0.00000000E+00
  0.00000000E+00  0.00000000E+00  0.00000000E+00
  0.00000000E+00  0.00000000E+00  0.00000000E+00
  0.00000000E+00  0.00000000E+00  0.00000000E+00
  0.00000000E+00  0.00000000E+00  0.00000000E+00
  0.00000000E+00  0.00000000E+00  0.00000000E+00
  0.00000000E+00  0.00000000E+00  0.00000000E+00
  0.00000000E+00  0.00000000E+00  0.00000000E+00
  0.00000000E+00  0.00000000E+00  0.00000000E+00
  0.00000000E+00  0.00000000E+00  0.00000000E+00
  0.00000000E+00  0.00000000E+00  0.00000000E+00
  0.00000000E+00  0.00000000E+00  0.00000000E+00
  0.00000000E+00  0.00000000E+00  0.00000000E+00
  0.00000000E+00  0.00000000E+00  0.00000000E+00
  0.00000000E+00  0.00000000E+00  0.00000000E+00
  0.00000000E+00  0.00000000E+00  0.00000000E+00
  0.00000000E+00  0.00000000E+00  0.00000000E+00
  0.00000000E+00  0.00000000E+00  0.00000000E+00
  0.00000000E+00  0.00000000E+00  0.00000000E+00
  0.00000000E+00  0.00000000E+00  0.00000000E+00
  0.00000000E+00  0.00000000E+00  0.00000000E+00
  0.00000000E+00  0.00000000E+00  0.00000000E+00
  0.00000000E+00  0.00000000E+00  0.00000000E+00
  0.00000000E+00  0.00000000E+00  0.00000000E+00
  0.00000000E+00  0.00000000E+00  0.00000000E+00
  0.00000000E+00  0.00000000E+00  0.00000000E+00
  0.00000000E+00  0.00000000E+00  0.00000000E+00
  0.00000000E+00  0.00000000E+00  0.00000000E+00
  0.00000000E+00  0.00000000E+00  0.00000000E+00
  0.00000000E+00  0.00000000E+00  0.00000000E+00
  0.00000000E+00  0.00000000E+00  0.00000000E+00
  0.00000000E+00  0.00000000E+00  0.00000000E+00
  0.00000000E+00  0.00000000E+00  0.00000000E+00
  0.00000000E+00  0.00000000E+00  0.00000000E+00
  0.00000000E+00  0.00000000E+00  0.00000000E+00
  0.00000000E+00  0.00000000E+00  0.00000000E+00
  0.00000000E+00  0.00000000E+00  0.00000000E+00
  0.00000000E+00  0.00000000E+00  0.00000000E+00
  0.00000000E+00  0.00000000E+00  0.00000000E+00
  0.00000000E+00  0.00000000E+00  0.00000000E+00
  0.00000000E+00  0.00000000E+00  0.00000000E+00
  0.00000000E+00  0.00000000E+00  0.00000000E+00
  0.00000000E+00  0.00000000E+00  0.00000000E+00
  0.00000000E+00  0.00000000E+00  0.00000000E+00
  0.00000000E+00  0.00000000E+00  0.00000000E+00
  0.00000000E+00  0.00000000E+00  0.00000000E+00
  0.00000000E+00  0.00000000E+00  0.00000000E+00
  0.00000000E+00  0.00000000E+00  0.00000000E+00
  0.00000000E+00  0.00000000E+00  0.00000000E+00
  0.00000000E+00  0.00000000E+00  0.00000000E+00
  0.00000000E+00  0.00000000E+00  0.00000000E+00
  0.00000000E+00  0.00000000E+00  0.00000000E+00
  0.00000000E+00  0.00000000E+00  0.00000000E+00
  0.00000000E+00  0.00000000E+00  0.00000000E+00
  0.00000000E+00  0.00000000E+00  0.00000000E+00
  0.00000000E+00  0.00000000E+00  0.00000000E+00
  0.00000000E+00  0.00000000E+00  0.00000000E+00
  0.00000000E+00  0.00000000E+00  0.00000000E+00
  0.00000000E+00  0.00000000E+00  0.00000000E+00
  0.00000000E+00  0.00000000E+00  0.00000000E+00
  0.00000000E+00  0.00000000E+00  0.00000000E+00
  0.00000000E+00  0.00000000E+00  0.00000000E+00
  0.00000000E+00  0.00000000E+00  0.00000000E+00
  0.00000000E+00  0.00000000E+00  0.00000000E+00
  0.00000000E+00  0.00000000E+00  0.00000000E+00
  0.00000000E+00  0.00000000E+00  0.00000000E+00
  0.00000000E+00  0.00000000E+00  0.00000000E+00
  0.00000000E+00  0.00000000E+00  0.00000000E+00
  0.00000000E+00  0.00000000E+00  0.00000000E+00
  0.00000000E+00  0.00000000E+00  0.00000000E+00
  0.00000000E+00  0.00000000E+00  0.00000000E+00
  0.00000000E+00  0.00000000E+00  0.00000000E+00
  0.00000000E+00  0.00000000E+00  0.00000000E+00
  0.00000000E+00  0.00000000E+00  0.00000000E+00
  0.00000000E+00  0.00000000E+00  0.00000000E+00
  0.00000000E+00  0.00000000E+00  0.00000000E+00
  0.00000000E+00  0.00000000E+00  0.00000000E+00
  0.00000000E+00  0.00000000E+00  0.00000000E+00
  0.00000000E+00  0.00000000E+00  0.00000000E+00
  0.00000000E+00  0.00000000E+00  0.00000000E+00
  0.00000000E+00  0.00000000E+00  0.00000000E+00
  0.00000000E+00  0.00000000E+00  0.00000000E+00
  0.00000000E+00  0.00000000E+00  0.00000000E+00
  0.00000000E+00  0.00000000E+00  0.00000000E+00
  0.00000000E+00  0.00000000E+00  0.00000000E+00
  0.00000000E+00  0.00000000E+00  0.00000000E+00
  0.00000000E+00  0.00000000E+00  0.00000000E+00
  0.00000000E+00  0.00000000E+00  0.00000000E+00
  0.00000000E+00  0.00000000E+00  0.00000000E+00
  0.00000000E+00  0.00000000E+00  0.00000000E+00
  0.00000000E+00  0.00000000E+00  0.00000000E+00
  0.00000000E+00  0.00000000E+00  0.00000000E+00
  0.00000000E+00  0.00000000E+00  0.00000000E+00
  0.00000000E+00  0.00000000E+00  0.00000000E+00
  0.00000000E+00  0.00000000E+00  0.00000000E+00
  0.00000000E+00  0.00000000E+00  0.00000000E+00
  0.00000000E+00  0.00000000E+00  0.00000000E+00
  0.00000000E+00  0.00000000E+00  0.00000000E+00
  0.00000000E+00  0.00000000E+00  0.00000000E+00
  0.00000000E+00  0.00000000E+00  0.00000000E+00
  0.00000000E+00  0.00000000E+00  0.00000000E+00
  0.00000000E+00  0.00000000E+00  0.00000000E+00
  0.00000000E+00  0.00000000E+00  0.00000000E+00
  0.00000000E+00  0.00000000E+00  0.00000000E+00
  0.00000000E+00  0.00000000E+00  0.00000000E+00
  0.00000000E+00  0.00000000E+00  0.00000000E+00
  0.00000000E+00  0.00000000E+00  0.00000000E+00
  0.00000000E+00  0.00000000E+00  0.00000000E+00
  0.00000000E+00  0.00000000E+00  0.00000000E+00
  0.00000000E+00  0.00000000E+00  0.00000000E+00
  0.00000000E+00  0.00000000E+00  0.00000000E+00
  0.00000000E+00  0.00000000E+00  0.00000000E+00
  0.00000000E+00  0.00000000E+00  0.00000000E+00
  0.00000000E+00  0.00000000E+00  0.00000000E+00
  0.00000000E+00  0.00000000E+00  0.00000000E+00
  0.00000000E+00  0.00000000E+00  0.00000000E+00
  0.00000000E+00  0.00000000E+00  0.00000000E+00
  0.00000000E+00  0.00000000E+00  0.00000000E+00
  0.00000000E+00  0.00000000E+00  0.00000000E+00
  0.00000000E+00  0.00000000E+00  0.00000000E+00
  0.00000000E+00  0.00000000E+00  0.00000000E+00
  0.00000000E+00  0.00000000E+00  0.00000000E+00
