SrTiFeO                                 
   1.00000000000000     
    11.1989999999999998    0.0000000000000000    0.0000000000000000
     0.0000000000000000   11.1989999999999998    0.0000000000000000
     0.0000000000000000    0.0000000000000000   15.9830000000000005
   Sr   Ti   O 
    32    32    94
Direct
  0.9994531037014334  0.2505468962985666  0.1244318705394507
  0.0034556538214944  0.2465443461785056  0.6274033142851084
  0.9995053320487867  0.7495053320487867  0.1245961200904942
  0.0037066001123805  0.7537066001123804  0.6277023793645345
  0.5004946679512133  0.2504946679512134  0.1245961200904942
  0.4962933998876196  0.2462933998876195  0.6277023793645345
  0.5005468962985666  0.7494531037014334  0.1244318705394507
  0.4965443461785056  0.7534556538214944  0.6274033142851084
  0.0034556538214944  0.2465443461785056  0.3725966857148915
  0.9994531037014334  0.2505468962985666  0.8755681294605493
  0.0037066001123805  0.7537066001123804  0.3722976206354655
  0.9995053320487867  0.7495053320487867  0.8754038799095059
  0.4962933998876196  0.2462933998876195  0.3722976206354655
  0.5004946679512133  0.2504946679512134  0.8754038799095059
  0.4965443461785056  0.7534556538214944  0.3725966857148915
  0.5005468962985666  0.7494531037014334  0.8755681294605493
  0.2500000000000000 -0.0000000000000000  0.1249673953827894
  0.2500000000000000 -0.0000000000000000  0.6249214881854547
  0.2500000000000000  0.5000000000000000  0.1255663311998309
  0.2500000000000000  0.5000000000000000  0.6245060151989849
  0.7500000000000000 -0.0000000000000000  0.1255663311998309
  0.7500000000000000 -0.0000000000000000  0.6245060151989849
  0.7500000000000000  0.5000000000000000  0.1226239696271981
  0.7500000000000000  0.5000000000000000  0.6314560451182282
  0.2500000000000000 -0.0000000000000000  0.3750785118145454
  0.2500000000000000 -0.0000000000000000  0.8750326046172106
  0.2500000000000000  0.5000000000000000  0.3754939848010150
  0.2500000000000000  0.5000000000000000  0.8744336688001692
  0.7500000000000000 -0.0000000000000000  0.3754939848010150
  0.7500000000000000 -0.0000000000000000  0.8744336688001692
  0.7500000000000000  0.5000000000000000  0.3685439548817718
  0.7500000000000000  0.5000000000000000  0.8773760303728018
  0.9998358615134117  0.0001975978801168 -0.0000000000000000
  0.0020423287707504  0.9982580442055621  0.5000000000000000
  0.0008391127310083  0.4994538775048498 -0.0000000000000000
  0.0017565030158232  0.4941566950946567  0.5000000000000000
  0.5001641384865883  0.9998024021198831 -0.0000000000000000
  0.4979576712292496  0.0017419557944379  0.5000000000000000
  0.4991608872689917  0.5005461224951502 -0.0000000000000000
  0.2498024021198832  0.2501641384865882 -0.0000000000000000
  0.2517419557944379  0.2479576712292496  0.5000000000000000
  0.2501975978801168  0.7498358615134117 -0.0000000000000000
  0.2482580442055622  0.7520423287707504  0.5000000000000000
  0.7505461224951502  0.2491608872689917 -0.0000000000000000
  0.7494538775048498  0.7508391127310082 -0.0000000000000000
  0.2498437006039520  0.2502666889802077  0.2498118028812145
  0.2498437006039520  0.2502666889802077  0.7501881971187855
  0.2501562993960480  0.7497333110197923  0.2498118028812145
  0.2501562993960480  0.7497333110197923  0.7501881971187855
  0.7493008887658247  0.2506054101526249  0.2498776111099336
  0.7493008887658247  0.2506054101526249  0.7501223888900664
  0.7506991112341753  0.7493945898473751  0.2498776111099336
  0.7506991112341753  0.7493945898473751  0.7501223888900664
  0.9997333110197923  0.0001562993960480  0.2498118028812145
  0.9997333110197923  0.0001562993960480  0.7501881971187855
  0.9993945898473751  0.5006991112341753  0.2498776111099336
  0.9993945898473751  0.5006991112341753  0.7501223888900664
  0.5002666889802077  0.9998437006039519  0.2498118028812145
  0.5002666889802077  0.9998437006039519  0.7501881971187855
  0.5006054101526249  0.4993008887658247  0.2498776111099336
  0.5006054101526249  0.4993008887658247  0.7501223888900664
  0.7558433049053435  0.2482434969841768  0.5000000000000000
  0.4982434969841768  0.5058433049053435  0.5000000000000000
  0.7441566950946565  0.7517565030158232  0.5000000000000000
  0.1095305909395102  0.1404694090604898  0.2491841797914506
  0.1095305909395102  0.1404694090604898  0.7508158202085494
  0.1097905227914836  0.6402524214812060  0.2498238234095106
  0.1097905227914836  0.6402524214812060  0.7501761765904895
  0.6097475785187940  0.1402094772085163  0.2498238234095106
  0.6097475785187940  0.1402094772085163  0.7501761765904895
  0.6094426189695417  0.6405573810304583  0.2523388627722886
  0.6094426189695417  0.6405573810304583  0.7476611372277113
  0.3902094772085163  0.3597475785187940  0.2498238234095106
  0.3902094772085163  0.3597475785187940  0.7501761765904895
  0.3904694090604897  0.8595305909395102  0.2491841797914506
  0.3904694090604897  0.8595305909395102  0.7508158202085494
  0.8905573810304583  0.3594426189695417  0.2523388627722886
  0.8905573810304583  0.3594426189695417  0.7476611372277113
  0.8902524214812060  0.8597905227914836  0.2498238234095106
  0.8902524214812060  0.8597905227914836  0.7501761765904895
  0.3600130565117960  0.1100130565117960  0.2504703436168452
  0.3600130565117960  0.1100130565117960  0.7495296563831547
  0.3605736884612086  0.6088433474417340  0.2541855053324742
  0.3605736884612086  0.6088433474417340  0.7458144946675258
  0.8588433474417340  0.1105736884612086  0.2541855053324742
  0.8588433474417340  0.1105736884612086  0.7458144946675258
  0.8594569484639677  0.6094569484639677  0.2445808727726426
  0.8594569484639677  0.6094569484639677  0.7554191272273574
  0.1394263115387914  0.3911566525582660  0.2541855053324742
  0.1394263115387914  0.3911566525582660  0.7458144946675258
  0.1399869434882040  0.8899869434882040  0.2504703436168452
  0.1399869434882040  0.8899869434882040  0.7495296563831547
  0.6405430515360323  0.3905430515360323  0.2445808727726426
  0.6405430515360323  0.3905430515360323  0.7554191272273574
  0.6411566525582660  0.8894263115387914  0.2541855053324742
  0.6411566525582660  0.8894263115387914  0.7458144946675258
  0.3595014632432182  0.3907370231732256 -0.0000000000000000
  0.3590634275009305  0.8909365724990694 -0.0000000000000000
  0.3606310250048880  0.8893689749951121  0.5000000000000000
  0.8599269412427482  0.3900730587572518 -0.0000000000000000
  0.8592629768267743  0.8904985367567819 -0.0000000000000000
  0.8631126423621819  0.8828488154898129  0.5000000000000000
  0.1409365724990695  0.1090634275009305 -0.0000000000000000
  0.1393689749951120  0.1106310250048880  0.5000000000000000
  0.1404985367567818  0.6092629768267743 -0.0000000000000000
  0.1328488154898129  0.6131126423621819  0.5000000000000000
  0.6407370231732257  0.1095014632432182 -0.0000000000000000
  0.6368873576378181  0.1171511845101871  0.5000000000000000
  0.6400730587572518  0.6099269412427482 -0.0000000000000000
  0.1094680761383147  0.3588088419235350 -0.0000000000000000
  0.1086069339308085  0.3605009680779344  0.5000000000000000
  0.1094072432443410  0.8594072432443410 -0.0000000000000000
  0.1103910390481716  0.8603910390481716  0.5000000000000000
  0.6100900243242221  0.3600900243242220 -0.0000000000000000
  0.6088088419235350  0.8594680761383148 -0.0000000000000000
  0.6105009680779343  0.8586069339308083  0.5000000000000000
  0.3905927567556590  0.1405927567556590 -0.0000000000000000
  0.3896089609518285  0.1396089609518284  0.5000000000000000
  0.3905319238616853  0.6411911580764650 -0.0000000000000000
  0.8911911580764650  0.1405319238616853 -0.0000000000000000
  0.8894990319220657  0.1413930660691915  0.5000000000000000
  0.8899099756757779  0.6399099756757779 -0.0000000000000000
  0.9984207298576514  0.0007925477487163  0.1253517037978590
  0.0001607924872615  0.0004887036992741  0.6251081853070080
  0.0020668484557773  0.4974934195103747  0.1252323734391900
  0.9910423707814574  0.5102555448264998  0.6233406024484850
  0.5015792701423486  0.9992074522512838  0.1253517037978590
  0.4998392075127385  0.9995112963007258  0.6251081853070080
  0.4979331515442227  0.5025065804896254  0.1252323734391900
  0.5089576292185426  0.4897444551735001  0.6233406024484850
  0.0001607924872615  0.0004887036992741  0.3748918146929921
  0.9984207298576514  0.0007925477487163  0.8746482962021410
  0.9910423707814574  0.5102555448264998  0.3766593975515150
  0.0020668484557773  0.4974934195103747  0.8747676265608101
  0.4998392075127385  0.9995112963007258  0.3748918146929921
  0.5015792701423486  0.9992074522512838  0.8746482962021410
  0.4979331515442227  0.5025065804896254  0.8747676265608101
  0.2495112963007259  0.2498392075127385  0.3748918146929921
  0.2492074522512837  0.2515792701423487  0.8746482962021410
  0.2504887036992741  0.7501607924872614  0.3748918146929921
  0.2507925477487163  0.7484207298576514  0.8746482962021410
  0.7525065804896254  0.2479331515442227  0.8747676265608101
  0.7474934195103746  0.7520668484557773  0.8747676265608101
  0.2492074522512837  0.2515792701423487  0.1253517037978590
  0.2495112963007259  0.2498392075127385  0.6251081853070080
  0.2507925477487163  0.7484207298576514  0.1253517037978590
  0.2504887036992741  0.7501607924872614  0.6251081853070080
  0.7525065804896254  0.2479331515442227  0.1252323734391900
  0.7397444551735002  0.2589576292185426  0.6233406024484850
  0.7474934195103746  0.7520668484557773  0.1252323734391900
  0.7602555448264998  0.7410423707814574  0.6233406024484850
  0.7397444551735002  0.2589576292185426  0.3766593975515150
  0.8502515974464534  0.3997484025535465  0.5000000000000000
  0.3913930660691915  0.6394990319220657  0.5000000000000000
  0.5089576292185426  0.4897444551735001  0.3766593975515150
  0.3671511845101871  0.3868873576378182  0.5000000000000000
  0.7602555448264998  0.7410423707814574  0.3766593975515150
  0.6497484025535466  0.6002515974464534  0.5000000000000000
 
  0.00000000E+00  0.00000000E+00  0.00000000E+00
  0.00000000E+00  0.00000000E+00  0.00000000E+00
  0.00000000E+00  0.00000000E+00  0.00000000E+00
  0.00000000E+00  0.00000000E+00  0.00000000E+00
  0.00000000E+00  0.00000000E+00  0.00000000E+00
  0.00000000E+00  0.00000000E+00  0.00000000E+00
  0.00000000E+00  0.00000000E+00  0.00000000E+00
  0.00000000E+00  0.00000000E+00  0.00000000E+00
  0.00000000E+00  0.00000000E+00  0.00000000E+00
  0.00000000E+00  0.00000000E+00  0.00000000E+00
  0.00000000E+00  0.00000000E+00  0.00000000E+00
  0.00000000E+00  0.00000000E+00  0.00000000E+00
  0.00000000E+00  0.00000000E+00  0.00000000E+00
  0.00000000E+00  0.00000000E+00  0.00000000E+00
  0.00000000E+00  0.00000000E+00  0.00000000E+00
  0.00000000E+00  0.00000000E+00  0.00000000E+00
  0.00000000E+00  0.00000000E+00  0.00000000E+00
  0.00000000E+00  0.00000000E+00  0.00000000E+00
  0.00000000E+00  0.00000000E+00  0.00000000E+00
  0.00000000E+00  0.00000000E+00  0.00000000E+00
  0.00000000E+00  0.00000000E+00  0.00000000E+00
  0.00000000E+00  0.00000000E+00  0.00000000E+00
  0.00000000E+00  0.00000000E+00  0.00000000E+00
  0.00000000E+00  0.00000000E+00  0.00000000E+00
  0.00000000E+00  0.00000000E+00  0.00000000E+00
  0.00000000E+00  0.00000000E+00  0.00000000E+00
  0.00000000E+00  0.00000000E+00  0.00000000E+00
  0.00000000E+00  0.00000000E+00  0.00000000E+00
  0.00000000E+00  0.00000000E+00  0.00000000E+00
  0.00000000E+00  0.00000000E+00  0.00000000E+00
  0.00000000E+00  0.00000000E+00  0.00000000E+00
  0.00000000E+00  0.00000000E+00  0.00000000E+00
  0.00000000E+00  0.00000000E+00  0.00000000E+00
  0.00000000E+00  0.00000000E+00  0.00000000E+00
  0.00000000E+00  0.00000000E+00  0.00000000E+00
  0.00000000E+00  0.00000000E+00  0.00000000E+00
  0.00000000E+00  0.00000000E+00  0.00000000E+00
  0.00000000E+00  0.00000000E+00  0.00000000E+00
  0.00000000E+00  0.00000000E+00  0.00000000E+00
  0.00000000E+00  0.00000000E+00  0.00000000E+00
  0.00000000E+00  0.00000000E+00  0.00000000E+00
  0.00000000E+00  0.00000000E+00  0.00000000E+00
  0.00000000E+00  0.00000000E+00  0.00000000E+00
  0.00000000E+00  0.00000000E+00  0.00000000E+00
  0.00000000E+00  0.00000000E+00  0.00000000E+00
  0.00000000E+00  0.00000000E+00  0.00000000E+00
  0.00000000E+00  0.00000000E+00  0.00000000E+00
  0.00000000E+00  0.00000000E+00  0.00000000E+00
  0.00000000E+00  0.00000000E+00  0.00000000E+00
  0.00000000E+00  0.00000000E+00  0.00000000E+00
  0.00000000E+00  0.00000000E+00  0.00000000E+00
  0.00000000E+00  0.00000000E+00  0.00000000E+00
  0.00000000E+00  0.00000000E+00  0.00000000E+00
  0.00000000E+00  0.00000000E+00  0.00000000E+00
  0.00000000E+00  0.00000000E+00  0.00000000E+00
  0.00000000E+00  0.00000000E+00  0.00000000E+00
  0.00000000E+00  0.00000000E+00  0.00000000E+00
  0.00000000E+00  0.00000000E+00  0.00000000E+00
  0.00000000E+00  0.00000000E+00  0.00000000E+00
  0.00000000E+00  0.00000000E+00  0.00000000E+00
  0.00000000E+00  0.00000000E+00  0.00000000E+00
  0.00000000E+00  0.00000000E+00  0.00000000E+00
  0.00000000E+00  0.00000000E+00  0.00000000E+00
  0.00000000E+00  0.00000000E+00  0.00000000E+00
  0.00000000E+00  0.00000000E+00  0.00000000E+00
  0.00000000E+00  0.00000000E+00  0.00000000E+00
  0.00000000E+00  0.00000000E+00  0.00000000E+00
  0.00000000E+00  0.00000000E+00  0.00000000E+00
  0.00000000E+00  0.00000000E+00  0.00000000E+00
  0.00000000E+00  0.00000000E+00  0.00000000E+00
  0.00000000E+00  0.00000000E+00  0.00000000E+00
  0.00000000E+00  0.00000000E+00  0.00000000E+00
  0.00000000E+00  0.00000000E+00  0.00000000E+00
  0.00000000E+00  0.00000000E+00  0.00000000E+00
  0.00000000E+00  0.00000000E+00  0.00000000E+00
  0.00000000E+00  0.00000000E+00  0.00000000E+00
  0.00000000E+00  0.00000000E+00  0.00000000E+00
  0.00000000E+00  0.00000000E+00  0.00000000E+00
  0.00000000E+00  0.00000000E+00  0.00000000E+00
  0.00000000E+00  0.00000000E+00  0.00000000E+00
  0.00000000E+00  0.00000000E+00  0.00000000E+00
  0.00000000E+00  0.00000000E+00  0.00000000E+00
  0.00000000E+00  0.00000000E+00  0.00000000E+00
  0.00000000E+00  0.00000000E+00  0.00000000E+00
  0.00000000E+00  0.00000000E+00  0.00000000E+00
  0.00000000E+00  0.00000000E+00  0.00000000E+00
  0.00000000E+00  0.00000000E+00  0.00000000E+00
  0.00000000E+00  0.00000000E+00  0.00000000E+00
  0.00000000E+00  0.00000000E+00  0.00000000E+00
  0.00000000E+00  0.00000000E+00  0.00000000E+00
  0.00000000E+00  0.00000000E+00  0.00000000E+00
  0.00000000E+00  0.00000000E+00  0.00000000E+00
  0.00000000E+00  0.00000000E+00  0.00000000E+00
  0.00000000E+00  0.00000000E+00  0.00000000E+00
  0.00000000E+00  0.00000000E+00  0.00000000E+00
  0.00000000E+00  0.00000000E+00  0.00000000E+00
  0.00000000E+00  0.00000000E+00  0.00000000E+00
  0.00000000E+00  0.00000000E+00  0.00000000E+00
  0.00000000E+00  0.00000000E+00  0.00000000E+00
  0.00000000E+00  0.00000000E+00  0.00000000E+00
  0.00000000E+00  0.00000000E+00  0.00000000E+00
  0.00000000E+00  0.00000000E+00  0.00000000E+00
  0.00000000E+00  0.00000000E+00  0.00000000E+00
  0.00000000E+00  0.00000000E+00  0.00000000E+00
  0.00000000E+00  0.00000000E+00  0.00000000E+00
  0.00000000E+00  0.00000000E+00  0.00000000E+00
  0.00000000E+00  0.00000000E+00  0.00000000E+00
  0.00000000E+00  0.00000000E+00  0.00000000E+00
  0.00000000E+00  0.00000000E+00  0.00000000E+00
  0.00000000E+00  0.00000000E+00  0.00000000E+00
  0.00000000E+00  0.00000000E+00  0.00000000E+00
  0.00000000E+00  0.00000000E+00  0.00000000E+00
  0.00000000E+00  0.00000000E+00  0.00000000E+00
  0.00000000E+00  0.00000000E+00  0.00000000E+00
  0.00000000E+00  0.00000000E+00  0.00000000E+00
  0.00000000E+00  0.00000000E+00  0.00000000E+00
  0.00000000E+00  0.00000000E+00  0.00000000E+00
  0.00000000E+00  0.00000000E+00  0.00000000E+00
  0.00000000E+00  0.00000000E+00  0.00000000E+00
  0.00000000E+00  0.00000000E+00  0.00000000E+00
  0.00000000E+00  0.00000000E+00  0.00000000E+00
  0.00000000E+00  0.00000000E+00  0.00000000E+00
  0.00000000E+00  0.00000000E+00  0.00000000E+00
  0.00000000E+00  0.00000000E+00  0.00000000E+00
  0.00000000E+00  0.00000000E+00  0.00000000E+00
  0.00000000E+00  0.00000000E+00  0.00000000E+00
  0.00000000E+00  0.00000000E+00  0.00000000E+00
  0.00000000E+00  0.00000000E+00  0.00000000E+00
  0.00000000E+00  0.00000000E+00  0.00000000E+00
  0.00000000E+00  0.00000000E+00  0.00000000E+00
  0.00000000E+00  0.00000000E+00  0.00000000E+00
  0.00000000E+00  0.00000000E+00  0.00000000E+00
  0.00000000E+00  0.00000000E+00  0.00000000E+00
  0.00000000E+00  0.00000000E+00  0.00000000E+00
  0.00000000E+00  0.00000000E+00  0.00000000E+00
  0.00000000E+00  0.00000000E+00  0.00000000E+00
  0.00000000E+00  0.00000000E+00  0.00000000E+00
  0.00000000E+00  0.00000000E+00  0.00000000E+00
  0.00000000E+00  0.00000000E+00  0.00000000E+00
  0.00000000E+00  0.00000000E+00  0.00000000E+00
  0.00000000E+00  0.00000000E+00  0.00000000E+00
  0.00000000E+00  0.00000000E+00  0.00000000E+00
  0.00000000E+00  0.00000000E+00  0.00000000E+00
  0.00000000E+00  0.00000000E+00  0.00000000E+00
  0.00000000E+00  0.00000000E+00  0.00000000E+00
  0.00000000E+00  0.00000000E+00  0.00000000E+00
  0.00000000E+00  0.00000000E+00  0.00000000E+00
  0.00000000E+00  0.00000000E+00  0.00000000E+00
  0.00000000E+00  0.00000000E+00  0.00000000E+00
  0.00000000E+00  0.00000000E+00  0.00000000E+00
  0.00000000E+00  0.00000000E+00  0.00000000E+00
  0.00000000E+00  0.00000000E+00  0.00000000E+00
  0.00000000E+00  0.00000000E+00  0.00000000E+00
  0.00000000E+00  0.00000000E+00  0.00000000E+00
  0.00000000E+00  0.00000000E+00  0.00000000E+00
  0.00000000E+00  0.00000000E+00  0.00000000E+00
  0.00000000E+00  0.00000000E+00  0.00000000E+00
  0.00000000E+00  0.00000000E+00  0.00000000E+00
