SrTiFeO                                 
   1.00000000000000     
    11.1989999999999998    0.0000000000000000    0.0000000000000000
     0.0000000000000000   11.1989999999999998    0.0000000000000000
     0.0000000000000000    0.0000000000000000   15.9830000000000005
   Sr   Ti   Fe   O 
    32    30     2    94
Direct
  0.9986676111631175  0.2498787318351589  0.1252225616543547
  0.9990874857696015  0.2490127326910288  0.6229059189412920
  0.9977738511321204  0.7509528385479254  0.1262304887591079
  0.9965505524590911  0.7493810168162467  0.6223778636075945
  0.4998122171388866  0.2464100522978218  0.1236709415793805
  0.5032276554699144  0.2403464722743816  0.6261184211153910
  0.5010748567767546  0.7540349310622121  0.1238014375759712
  0.4990730586865296  0.7556053993446250  0.6287235010478356
  0.9983882355765950  0.2482378164970309  0.3765366460701012
  0.9997912896571252  0.2492503524773465  0.8748061853626824
  0.9956795185026960  0.7507767818056438  0.3785482184184524
  0.9982469985147622  0.7505692389336613  0.8745261334643089
  0.5046695536167197  0.2409228829715443  0.3766531531312022
  0.5000052601387700  0.2499033573750577  0.8737349776742785
  0.4991053467702327  0.7624946414221312  0.3721816280800663
  0.4995212129711881  0.7523746899907908  0.8767497944962824
  0.2491917839813851  0.0007546183954360  0.1251826304961091
  0.2490946498670357  0.9991548550261822  0.6246670892371939
  0.2458311486877284  0.5001842368021995  0.1233691713509998
  0.2403421680045516  0.4998419210283822  0.6274061479260852
  0.7498155282953434  0.9985853905825444  0.1256126789876891
  0.7510498607252843  0.0007205057925024  0.6222273006797014
  0.7527611870674654  0.5001284537408893  0.1238084440367461
  0.7593010844629748  0.4941183524266652  0.6281268895854272
  0.2482805411989157  0.0000769603769956  0.3753740396450437
  0.2496369816714080  0.0003974780913290  0.8747926917313036
  0.2363465857192923  0.5000665829457700  0.3731924520776105
  0.2491422038934639  0.5003647461534825  0.8749448600851142
  0.7514121646938746 -0.0000586836917772  0.3775882115477781
  0.7504616097141359  0.9990820340703017  0.8748219790460747
  0.7636391158526667  0.4949325615688374  0.3740396599767354
  0.7507318126172432  0.5009725308738594  0.8751251787845210
  0.9995494608761659  0.9997608468245950  0.0004181580608841
  0.9978135379402610  0.0006179239304542  0.5003897329100426
  0.9997497891205833  0.5000061124827179  0.9997338384725705
  0.9977499664316873  0.4990608048821076  0.5005420765544154
  0.4999824613184952  0.0003652942156997  0.9997876151817646
  0.5017233198244194  0.9986880046180076  0.5005180507159878
  0.4991986639664743  0.4994759354050260  0.9955968761757745
  0.2505273736301712  0.2507689524596308  0.9999870660582110
  0.2479906973366890  0.2462677065743125  0.4988191158377868
  0.2498931265318677  0.7496206552109295  0.0001957562665690
  0.2502871521821304  0.7513583641402918  0.4993923795338244
  0.7497141113967147  0.2501305562992082 -0.0000204014016441
  0.7500131557801850  0.7503161266637252  0.0001169765617186
  0.2494489657533106  0.2497091576319483  0.2507826601616153
  0.2508238962557187  0.2504876915434685  0.7492330442035237
  0.2489478004466004  0.7502409958785756  0.2506197019600561
  0.2497923066760390  0.7493012435686982  0.7499612998316141
  0.7498205669364830  0.2489599491775336  0.2519747070323634
  0.7499708465195238  0.2492304160196749  0.7489335258262471
  0.7487864005788362  0.7486314315867447  0.2532672039016402
  0.7484562785443364  0.7485175117111248  0.7485236165161461
  0.9998780611203373  0.9999613633536540  0.2499339211639299
  0.9999308839066716  0.9990109595657453  0.7490561543524653
  0.9994711580084692  0.5001298381184502  0.2487329442913396
  1.0000554648845768  0.4997080100126921  0.7510022304505632
  0.4997273928219192  0.0007924557317149  0.2493726995321109
  0.5003874912105402  0.9995668736986717  0.7506906557361914
  0.4989584660461713  0.4995590405152216  0.2406182422239861
  0.5020075165108799  0.5013454619713683  0.7502120232767837
  0.4898664111947607  0.4936427963723803  0.5073918977239393
  0.7524609135543703  0.2501312612032083  0.4992185549819304
  0.7517441657793141  0.7543895277316581  0.5015158309929134
  0.1098396639930438  0.1402903646544586  0.2451121784477713
  0.1109882069091829  0.1413045499616517  0.7501018258570289
  0.1101475095243413  0.6394525296959358  0.2501204206472624
  0.1097399069691242  0.6406240751752325  0.7493523228852449
  0.6090498417568068  0.1401748716113302  0.2483248213463115
  0.6088322145343190  0.1407561670366511  0.7516786458199859
  0.6043114207995831  0.6365578564240937  0.2532467141280026
  0.6076878303160509  0.6413525456159229  0.7607488901432449
  0.3916091898864372  0.3632746421661667  0.2619161214612407
  0.3934477785272991  0.3610590754134536  0.7443528367454824
  0.3889513455630103  0.8604742484597446  0.2485076673687590
  0.3902033850552442  0.8597876689689019  0.7513601244370073
  0.8884626404330253  0.3612463664864478  0.2504080268233409
  0.8909517776247157  0.3594564869042576  0.7488014713417671
  0.8893332637855464  0.8595813646278079  0.2524771888350115
  0.8904922949794551  0.8590534252715724  0.7470476408544674
  0.3602543195795312  0.1109787382585598  0.2490616791387843
  0.3600539496770731  0.1107347718247079  0.7499012194925208
  0.3623980580706463  0.6071656827092351  0.2601073187736870
  0.3593567133104330  0.6080897916643945  0.7483316001010407
  0.8596265149740832  0.1093808105348500  0.2472004343842252
  0.8593869539365059  0.1093648299635231  0.7487595519765861
  0.8601193254212484  0.6085603051427261  0.2469314472367219
  0.8603739820893620  0.6079333617543999  0.7525112067547581
  0.1395741472287738  0.3898234219931744  0.2480948431701938
  0.1417295693276601  0.3911903079024135  0.7515783016620168
  0.1401567633707477  0.8894704697092732  0.2471561539170235
  0.1412728252990997  0.8898926296635289  0.7504780579902791
  0.6356430213931517  0.3926712272097609  0.2599894349190092
  0.6411318680142235  0.3919997058446393  0.7527376793419956
  0.6381588552005772  0.8896322195341977  0.2506275092456315
  0.6401659918893020  0.8916022207091928  0.7496721779540930
  0.3583746270985940  0.3920423301352828  0.0002482535781053
  0.3591450717806284  0.8902833500909693  0.0006717905244986
  0.3573884404695664  0.8924206272355160  0.4998391592563670
  0.8592311438790391  0.3910468545671390  1.0000196661333933
  0.8594507249967858  0.8909036773555163  0.0014345140050936
  0.8661532010984168  0.8950388803942602  0.4986621924690152
  0.1409617276903276  0.1102076605368560  0.0005066257916704
  0.1424985319629827  0.1098011817336175  0.5021411918684248
  0.1408307537311770  0.6089018685227461  0.9998525566715616
  0.1412235013622405  0.6107101470606542  0.5003317675918393
  0.6406155537109268  0.1094620601407366  0.0008355997005468
  0.6356116147532668  0.1137911308064508  0.4998661901714954
  0.6392662533334302  0.6081510503214604  0.9992316016074588
  0.1094708564515915  0.3589642083640477  0.0004306388591477
  0.1140444313746631  0.3612064149715690  0.4995815975836176
  0.1100955539284600  0.8588145771430521  0.0009108794590183
  0.1111978171486545  0.8589019398215176  0.5011752638876606
  0.6078860634497080  0.3595155929545835  0.9990802692902523
  0.6088599671252933  0.8598910086063019  0.0000917142387108
  0.6038624979105807  0.8588411707187158  0.5012906641071938
  0.3908841320111078  0.1409458357146466  0.9997073095925685
  0.3899404671763689  0.1419591252088589  0.5002570014572993
  0.3916650824593359  0.6404508597555055  1.0001615757787425
  0.8904246215061139  0.1409689729905814  0.0013180362359436
  0.8922299607440791  0.1392140847393063  0.5017713769222601
  0.8907085332846602  0.6402211130165175  0.0009388041392993
  0.9991177905383326  0.9978244800369906  0.1244354777565160
  0.0033624261077582  0.0008831535359198  0.6261688985772139
  0.0006650505110114  0.4991846457359655  0.1243596218561827
  0.0032756321786733  0.4996940114168295  0.6262781583705177
  0.4995420384083559  0.9999895747454652  0.1245262032109294
  0.4984008924252998  0.0018690763732225  0.6261754874345160
  0.4971783361309913  0.4963182642978629  0.1246630293747341
  0.5210322563120940  0.5176865425276546  0.6246420782929868
  0.0051860361176022  0.0037644859437735  0.3735211761361326
  0.9992507088866671  0.9993285592561600  0.8751522223928645
  0.0009135344609277  0.5001195425224155  0.3739502889686337
  0.0007741221801226  0.4992457190086952  0.8755179365860513
  0.4985001115040739  0.0008024683319374  0.3741895994164664
  0.4993856487783830  0.9999178288869972  0.8755321479846243
  0.4943965261642598  0.4962858180074722  0.8748766491897733
  0.2419988689946526  0.2428289994877798  0.3736600974491203
  0.2532442273587475  0.2521721685342238  0.8745886289170334
  0.2463359422038145  0.7538690804982776  0.3745207089948499
  0.2506882857098074  0.7485037763899199  0.8752370039280448
  0.7514094422814300  0.2494979476917111  0.8755469994257905
  0.7533444559144520  0.7531881697752858  0.8768690297488855
  0.2563895506918621  0.2542120906387633  0.1254814681073398
  0.2529578335362591  0.2556025458403757  0.6238126787676507
  0.2535134899516395  0.7438902172078983  0.1258821096494068
  0.2541722605022764  0.7478658422020874  0.6245568200335183
  0.7461605705000290  0.2558693733820531  0.1256252083305563
  0.7430939635629685  0.2536071978343648  0.6259461502993500
  0.7463475784897488  0.7484446920197367  0.1251617095336746
  0.7393027338527236  0.7363825494944318  0.6296387317894441
  0.7540314777592533  0.2439588753058584  0.3730819631245529
  0.8674812622089331  0.3852408851185656  0.5008782640945981
  0.4005883830450702  0.6437180774211739  0.4918000412440302
  0.3618052773684581  0.3901750493502565  0.4839216947120861
  0.8832413262898323  0.6296023604791248  0.5006925803706903
  0.7445158677963772  0.7397462597466218  0.3717949476294342
  0.6194828975179024  0.3848894655300544  0.4856769829204294
 
  0.00000000E+00  0.00000000E+00  0.00000000E+00
  0.00000000E+00  0.00000000E+00  0.00000000E+00
  0.00000000E+00  0.00000000E+00  0.00000000E+00
  0.00000000E+00  0.00000000E+00  0.00000000E+00
  0.00000000E+00  0.00000000E+00  0.00000000E+00
  0.00000000E+00  0.00000000E+00  0.00000000E+00
  0.00000000E+00  0.00000000E+00  0.00000000E+00
  0.00000000E+00  0.00000000E+00  0.00000000E+00
  0.00000000E+00  0.00000000E+00  0.00000000E+00
  0.00000000E+00  0.00000000E+00  0.00000000E+00
  0.00000000E+00  0.00000000E+00  0.00000000E+00
  0.00000000E+00  0.00000000E+00  0.00000000E+00
  0.00000000E+00  0.00000000E+00  0.00000000E+00
  0.00000000E+00  0.00000000E+00  0.00000000E+00
  0.00000000E+00  0.00000000E+00  0.00000000E+00
  0.00000000E+00  0.00000000E+00  0.00000000E+00
  0.00000000E+00  0.00000000E+00  0.00000000E+00
  0.00000000E+00  0.00000000E+00  0.00000000E+00
  0.00000000E+00  0.00000000E+00  0.00000000E+00
  0.00000000E+00  0.00000000E+00  0.00000000E+00
  0.00000000E+00  0.00000000E+00  0.00000000E+00
  0.00000000E+00  0.00000000E+00  0.00000000E+00
  0.00000000E+00  0.00000000E+00  0.00000000E+00
  0.00000000E+00  0.00000000E+00  0.00000000E+00
  0.00000000E+00  0.00000000E+00  0.00000000E+00
  0.00000000E+00  0.00000000E+00  0.00000000E+00
  0.00000000E+00  0.00000000E+00  0.00000000E+00
  0.00000000E+00  0.00000000E+00  0.00000000E+00
  0.00000000E+00  0.00000000E+00  0.00000000E+00
  0.00000000E+00  0.00000000E+00  0.00000000E+00
  0.00000000E+00  0.00000000E+00  0.00000000E+00
  0.00000000E+00  0.00000000E+00  0.00000000E+00
  0.00000000E+00  0.00000000E+00  0.00000000E+00
  0.00000000E+00  0.00000000E+00  0.00000000E+00
  0.00000000E+00  0.00000000E+00  0.00000000E+00
  0.00000000E+00  0.00000000E+00  0.00000000E+00
  0.00000000E+00  0.00000000E+00  0.00000000E+00
  0.00000000E+00  0.00000000E+00  0.00000000E+00
  0.00000000E+00  0.00000000E+00  0.00000000E+00
  0.00000000E+00  0.00000000E+00  0.00000000E+00
  0.00000000E+00  0.00000000E+00  0.00000000E+00
  0.00000000E+00  0.00000000E+00  0.00000000E+00
  0.00000000E+00  0.00000000E+00  0.00000000E+00
  0.00000000E+00  0.00000000E+00  0.00000000E+00
  0.00000000E+00  0.00000000E+00  0.00000000E+00
  0.00000000E+00  0.00000000E+00  0.00000000E+00
  0.00000000E+00  0.00000000E+00  0.00000000E+00
  0.00000000E+00  0.00000000E+00  0.00000000E+00
  0.00000000E+00  0.00000000E+00  0.00000000E+00
  0.00000000E+00  0.00000000E+00  0.00000000E+00
  0.00000000E+00  0.00000000E+00  0.00000000E+00
  0.00000000E+00  0.00000000E+00  0.00000000E+00
  0.00000000E+00  0.00000000E+00  0.00000000E+00
  0.00000000E+00  0.00000000E+00  0.00000000E+00
  0.00000000E+00  0.00000000E+00  0.00000000E+00
  0.00000000E+00  0.00000000E+00  0.00000000E+00
  0.00000000E+00  0.00000000E+00  0.00000000E+00
  0.00000000E+00  0.00000000E+00  0.00000000E+00
  0.00000000E+00  0.00000000E+00  0.00000000E+00
  0.00000000E+00  0.00000000E+00  0.00000000E+00
  0.00000000E+00  0.00000000E+00  0.00000000E+00
  0.00000000E+00  0.00000000E+00  0.00000000E+00
  0.00000000E+00  0.00000000E+00  0.00000000E+00
  0.00000000E+00  0.00000000E+00  0.00000000E+00
  0.00000000E+00  0.00000000E+00  0.00000000E+00
  0.00000000E+00  0.00000000E+00  0.00000000E+00
  0.00000000E+00  0.00000000E+00  0.00000000E+00
  0.00000000E+00  0.00000000E+00  0.00000000E+00
  0.00000000E+00  0.00000000E+00  0.00000000E+00
  0.00000000E+00  0.00000000E+00  0.00000000E+00
  0.00000000E+00  0.00000000E+00  0.00000000E+00
  0.00000000E+00  0.00000000E+00  0.00000000E+00
  0.00000000E+00  0.00000000E+00  0.00000000E+00
  0.00000000E+00  0.00000000E+00  0.00000000E+00
  0.00000000E+00  0.00000000E+00  0.00000000E+00
  0.00000000E+00  0.00000000E+00  0.00000000E+00
  0.00000000E+00  0.00000000E+00  0.00000000E+00
  0.00000000E+00  0.00000000E+00  0.00000000E+00
  0.00000000E+00  0.00000000E+00  0.00000000E+00
  0.00000000E+00  0.00000000E+00  0.00000000E+00
  0.00000000E+00  0.00000000E+00  0.00000000E+00
  0.00000000E+00  0.00000000E+00  0.00000000E+00
  0.00000000E+00  0.00000000E+00  0.00000000E+00
  0.00000000E+00  0.00000000E+00  0.00000000E+00
  0.00000000E+00  0.00000000E+00  0.00000000E+00
  0.00000000E+00  0.00000000E+00  0.00000000E+00
  0.00000000E+00  0.00000000E+00  0.00000000E+00
  0.00000000E+00  0.00000000E+00  0.00000000E+00
  0.00000000E+00  0.00000000E+00  0.00000000E+00
  0.00000000E+00  0.00000000E+00  0.00000000E+00
  0.00000000E+00  0.00000000E+00  0.00000000E+00
  0.00000000E+00  0.00000000E+00  0.00000000E+00
  0.00000000E+00  0.00000000E+00  0.00000000E+00
  0.00000000E+00  0.00000000E+00  0.00000000E+00
  0.00000000E+00  0.00000000E+00  0.00000000E+00
  0.00000000E+00  0.00000000E+00  0.00000000E+00
  0.00000000E+00  0.00000000E+00  0.00000000E+00
  0.00000000E+00  0.00000000E+00  0.00000000E+00
  0.00000000E+00  0.00000000E+00  0.00000000E+00
  0.00000000E+00  0.00000000E+00  0.00000000E+00
  0.00000000E+00  0.00000000E+00  0.00000000E+00
  0.00000000E+00  0.00000000E+00  0.00000000E+00
  0.00000000E+00  0.00000000E+00  0.00000000E+00
  0.00000000E+00  0.00000000E+00  0.00000000E+00
  0.00000000E+00  0.00000000E+00  0.00000000E+00
  0.00000000E+00  0.00000000E+00  0.00000000E+00
  0.00000000E+00  0.00000000E+00  0.00000000E+00
  0.00000000E+00  0.00000000E+00  0.00000000E+00
  0.00000000E+00  0.00000000E+00  0.00000000E+00
  0.00000000E+00  0.00000000E+00  0.00000000E+00
  0.00000000E+00  0.00000000E+00  0.00000000E+00
  0.00000000E+00  0.00000000E+00  0.00000000E+00
  0.00000000E+00  0.00000000E+00  0.00000000E+00
  0.00000000E+00  0.00000000E+00  0.00000000E+00
  0.00000000E+00  0.00000000E+00  0.00000000E+00
  0.00000000E+00  0.00000000E+00  0.00000000E+00
  0.00000000E+00  0.00000000E+00  0.00000000E+00
  0.00000000E+00  0.00000000E+00  0.00000000E+00
  0.00000000E+00  0.00000000E+00  0.00000000E+00
  0.00000000E+00  0.00000000E+00  0.00000000E+00
  0.00000000E+00  0.00000000E+00  0.00000000E+00
  0.00000000E+00  0.00000000E+00  0.00000000E+00
  0.00000000E+00  0.00000000E+00  0.00000000E+00
  0.00000000E+00  0.00000000E+00  0.00000000E+00
  0.00000000E+00  0.00000000E+00  0.00000000E+00
  0.00000000E+00  0.00000000E+00  0.00000000E+00
  0.00000000E+00  0.00000000E+00  0.00000000E+00
  0.00000000E+00  0.00000000E+00  0.00000000E+00
  0.00000000E+00  0.00000000E+00  0.00000000E+00
  0.00000000E+00  0.00000000E+00  0.00000000E+00
  0.00000000E+00  0.00000000E+00  0.00000000E+00
  0.00000000E+00  0.00000000E+00  0.00000000E+00
  0.00000000E+00  0.00000000E+00  0.00000000E+00
  0.00000000E+00  0.00000000E+00  0.00000000E+00
  0.00000000E+00  0.00000000E+00  0.00000000E+00
  0.00000000E+00  0.00000000E+00  0.00000000E+00
  0.00000000E+00  0.00000000E+00  0.00000000E+00
  0.00000000E+00  0.00000000E+00  0.00000000E+00
  0.00000000E+00  0.00000000E+00  0.00000000E+00
  0.00000000E+00  0.00000000E+00  0.00000000E+00
  0.00000000E+00  0.00000000E+00  0.00000000E+00
  0.00000000E+00  0.00000000E+00  0.00000000E+00
  0.00000000E+00  0.00000000E+00  0.00000000E+00
  0.00000000E+00  0.00000000E+00  0.00000000E+00
  0.00000000E+00  0.00000000E+00  0.00000000E+00
  0.00000000E+00  0.00000000E+00  0.00000000E+00
  0.00000000E+00  0.00000000E+00  0.00000000E+00
  0.00000000E+00  0.00000000E+00  0.00000000E+00
  0.00000000E+00  0.00000000E+00  0.00000000E+00
  0.00000000E+00  0.00000000E+00  0.00000000E+00
  0.00000000E+00  0.00000000E+00  0.00000000E+00
  0.00000000E+00  0.00000000E+00  0.00000000E+00
  0.00000000E+00  0.00000000E+00  0.00000000E+00
  0.00000000E+00  0.00000000E+00  0.00000000E+00
  0.00000000E+00  0.00000000E+00  0.00000000E+00
  0.00000000E+00  0.00000000E+00  0.00000000E+00
  0.00000000E+00  0.00000000E+00  0.00000000E+00
  0.00000000E+00  0.00000000E+00  0.00000000E+00
